37
unoptimized sampling seed; angstrom
P -3.439935 -1.040670 -0.041856
O -0.092847 1.419258 0.993750
O 1.818399 3.708087 -1.008397
O -0.523978 4.522234 0.140213
O -2.293198 0.017899 0.346718
O 4.134746 -3.209430 -0.310588
O -3.676180 -1.768428 1.353506
O -2.763944 -2.157113 -0.906872
O -0.419625 -3.127618 -0.223678
O -4.617561 -0.434996 -0.683094
N 2.092880 0.830399 0.464684
N 0.651603 -1.145902 0.145927
N 4.083569 -0.178824 0.252933
N 1.855603 -3.088571 -0.265237
C 0.877435 2.712375 -0.717511
C 1.151758 1.942770 0.592288
C -0.554548 3.243964 -0.480256
C -1.189317 2.138773 0.370628
C -2.028174 1.180797 -0.461642
C 1.846999 -0.488112 0.229521
C 3.474949 0.951493 0.472256
C 3.073419 -1.103449 0.096899
C 3.143591 -2.513476 -0.166353
C 0.631258 -2.487473 -0.119960
H 0.874545 2.005182 -1.547082
H 1.568696 2.612763 1.348651
H -1.078289 3.385672 -1.422679
H -1.800247 2.554421 1.171664
H -1.503954 0.873266 -1.367367
H -2.963559 1.661668 -0.742037
H 1.533110 4.519373 -0.563900
H -0.442630 4.446565 1.097527
H 3.945366 1.904635 0.644635
H -0.220059 -0.678629 0.367256
H 1.828080 -4.079021 -0.467230
H -4.137800 -1.231044 2.009260
H -1.880526 -2.509618 -0.596689
