35
calc_a8e58f4adf82e438; angstrom; atom order from source job; valid
O -1.207685 -0.645848 2.267721
O -4.442627 0.959045 -0.759368
O -3.185456 -3.376111 -0.725833
N -2.168319 -1.976335 0.735457
N -3.779749 -1.190502 -0.754159
C -2.581352 0.441040 0.639519
C -1.930881 -0.750966 1.304805
C -3.693937 0.113111 -0.333527
C -3.047734 -2.261048 -0.286975
H -3.005529 1.076094 1.416898
H -1.686185 -2.770414 1.131731
H -4.473949 -1.407355 -1.454887
P 3.878283 -0.749486 0.115451
O -0.826004 0.432581 -1.003223
O 0.416271 3.237167 -1.026066
O -0.876264 3.171802 1.307845
O 2.740873 -0.092964 -0.767259
O 5.161740 0.019292 -0.386785
O 4.113422 -2.208999 -0.436086
O 3.617951 -0.757929 1.555844
C 0.689886 2.086338 -0.252209
C 0.553032 0.800417 -1.063392
C -0.460732 1.960385 0.751251
C -1.528680 1.279234 -0.113537
C 1.359696 -0.361507 -0.508779
H 1.660409 2.162511 0.237289
H 0.829978 0.973737 -2.103904
H -0.164290 1.307449 1.568883
H -2.071716 2.050334 -0.668510
H 1.194005 -0.477063 0.563833
H 1.067497 -1.281231 -1.014433
H 1.215793 3.536082 -1.459855
H -0.802197 3.841710 0.619787
H 5.226190 0.929977 -0.085551
H 4.218670 -2.277993 -1.389373
