35
calc_a8e58f4adf82e438; angstrom; first printed source-job orientation; unoptimized start
O -1.195783 -0.023431 1.863248
O -3.456946 -0.239488 -2.233924
O -4.982110 -2.264098 1.428582
N -3.302762 -0.785574 1.721282
N -4.374529 -0.974478 -0.321145
C -2.423014 0.486269 -0.165382
C -2.223376 -0.129845 1.198376
C -3.419669 -0.275060 -1.006271
C -4.274110 -1.371739 0.974188
H -2.884633 1.469289 0.004177
H -3.159171 -1.201296 2.632177
H -5.030082 -1.495081 -0.888234
P 4.065716 -1.038407 1.401879
O -0.299797 -0.502685 -0.929683
O 1.137925 1.912939 -2.345597
O -0.669213 3.091765 -0.811764
O 3.168899 -0.398305 0.244339
O 5.544731 -0.549886 1.048893
O 4.183687 -2.587049 1.052071
O 3.706633 -0.703968 2.805726
C 1.121660 1.437433 -0.985702
C 1.090256 -0.095739 -0.931832
C -0.225687 1.809575 -0.385462
C -1.112476 0.689654 -0.929717
C 1.774085 -0.653173 0.316626
H 1.966639 1.901772 -0.469721
H 1.559095 -0.520213 -1.827102
H -0.162814 1.806101 0.705250
H -1.340262 0.914728 -1.980421
H 1.369557 -0.198262 1.226364
H 1.599141 -1.732919 0.385100
H 1.972237 1.606988 -2.746010
H -0.290642 3.204458 -1.710270
H 5.822213 0.131669 1.690932
H 4.744603 -2.721946 0.267911
