14
calc_99e961bc99a08e31; angstrom; first printed source-job orientation; unoptimized start
O 2.299120 0.916740 0.063460
O -2.227140 0.973540 -0.027600
N -1.193790 -1.036360 -0.097970
N 0.034140 0.900240 0.172350
C -0.024560 -1.810280 0.227510
C 1.205800 -1.172680 -0.376610
C 1.246700 0.286130 -0.001660
C -1.190990 0.320990 0.016680
H -0.170000 -2.825860 -0.151800
H 0.050490 -1.852510 1.320070
H 1.183680 -1.235810 -1.470880
H 2.109280 -1.670100 -0.011990
H -2.114200 -1.461210 -0.099140
H 0.045310 1.901450 0.302680
