37
calc_52d11e5c99c1522e; angstrom; atom order from source job; valid
P 2.093671 -2.047478 -0.252644
O 0.852014 0.946547 -0.811029
O -0.657107 3.469436 1.239795
O 1.753351 3.792778 -0.214279
O 3.020769 -0.782907 -0.031713
O -2.656867 1.716123 -1.806785
O -4.311239 -2.031566 0.097902
O 3.048170 -3.068826 -0.972465
O 1.120005 -1.686391 -1.433792
O 1.449387 -2.538084 0.978536
N -1.390117 0.699788 -0.185938
N -3.444087 -0.153216 -0.805710
C 0.142037 2.360145 0.924554
C 1.615595 2.664443 0.626354
C 2.042034 1.427698 -0.149697
C -0.296070 1.636766 -0.351093
C 2.624155 0.354686 0.746138
C -1.255443 -0.357639 0.688031
C -2.499781 0.820731 -0.991731
C -2.178928 -1.314428 0.854407
C -3.383382 -1.231005 0.056233
C -2.016679 -2.452698 1.806748
H 0.094911 1.688630 1.781280
H 2.193269 2.790533 1.541597
H -0.618950 2.359672 -1.096528
H 2.761661 1.687092 -0.924099
H 1.920586 0.054416 1.523321
H 3.528770 0.733418 1.215884
H -0.634173 4.090363 0.504780
H 1.635024 4.586182 0.313992
H -0.327638 -0.377537 1.240643
H -4.271193 -0.071720 -1.382638
H -2.838420 -2.476906 2.523741
H -2.018896 -3.405980 1.276221
H -1.080941 -2.363379 2.354247
H 3.520993 -3.655101 -0.371026
H 0.860270 -0.742591 -1.399233
