  9
        -14.30646014
 N         -1.0769280006       -0.3226844970        0.0001141453
 N          1.1259503803       -0.3940424266        0.0001051293
 C         -0.6432579013        0.9714153271       -0.0000484087
 C          0.0269249718       -1.1008967105       -0.0001557429
 C          0.7199710589        0.9060063128       -0.0000823842
 H         -2.0362191295       -0.6294401676        0.0002436872
 H         -1.3132979413        1.8047581632       -0.0002171962
 H         -0.0027501055       -2.1713199506       -0.0001185568
 H          1.4360710857        1.7027354153        0.0004593407
