25
calc_b6fd2723cc6199ee; angstrom; atom order from source job; valid
P 2.110776 0.073480 -0.232301
O -0.612849 0.508369 1.134173
O -2.360155 -1.902894 -0.908575
O -3.572175 0.214126 0.195967
O -0.662988 2.334903 -0.304143
O 1.358492 -1.321595 -0.136563
O 3.610538 -0.299493 -0.557967
O 2.163709 0.673477 1.236597
O 1.568202 0.975930 -1.270444
C -1.573109 -0.779155 -0.592289
C -0.895052 -0.860112 0.786079
C -2.358625 0.532094 -0.480462
C -1.450672 1.426466 0.389297
C 0.373266 -1.683344 0.858835
H -0.815143 -0.684721 -1.367906
H -1.595387 -1.286388 1.510930
H -2.555857 0.997958 -1.443983
H -2.048148 1.998062 1.098441
H 0.135800 -2.725145 0.660158
H 0.822965 -1.609371 1.847868
H -3.219936 -1.776063 -0.484437
H -4.232101 0.890508 0.016734
H 0.057829 1.868869 -0.776516
H 4.005476 -0.973535 0.009705
H 1.265809 0.919347 1.532400
