25
calc_b6fd2723cc6199ee; angstrom; first printed source-job orientation; unoptimized start
P -1.914021 0.037133 -0.252656
O 0.441940 -0.442688 1.141766
O 2.460622 1.752288 -0.844923
O 3.514395 -0.523935 -0.092703
O 0.619244 -2.489689 0.104422
O -1.285027 1.496279 -0.045529
O -3.277063 0.427937 -0.915186
O -2.338695 -0.508737 1.171602
O -1.171842 -0.886107 -1.132212
C 1.551261 0.740000 -0.559478
C 0.902387 0.861388 0.833996
C 2.176429 -0.669368 -0.493581
C 1.326130 -1.408136 0.575787
C -0.275576 1.818815 0.893340
H 0.764920 0.767163 -1.319598
H 1.662120 1.173547 1.565090
H 2.093876 -1.190098 -1.451729
H 1.984881 -1.787563 1.371622
H 0.058946 2.824991 0.634600
H -0.703176 1.799897 1.899329
H 3.331342 1.477798 -0.504690
H 4.012832 -1.331244 -0.277120
H -0.080003 -2.154553 -0.498944
H -3.843843 1.025712 -0.411879
H -1.703997 -1.100819 1.588051
