32
calc_f55c1ea5f51be12e; angstrom; atom order from source job; valid
O -1.568611 -0.743570 0.990288
O -0.992067 2.263606 -0.892327
O -3.218165 1.919400 0.508242
O -4.697532 -1.679410 -0.702486
O 4.606265 1.013512 -0.114066
N 0.604730 -0.256720 0.324604
N 2.232373 -1.736920 0.009953
N 1.811841 1.832316 0.369940
N 4.996361 -1.213449 -0.363355
C -1.396152 0.936239 -0.645704
C -0.717064 0.299034 0.584133
C -2.882882 0.787506 -0.293032
C -2.914239 -0.525121 0.498861
C -3.329079 -1.746981 -0.319811
C 1.763396 0.471224 0.225889
C 0.950257 -1.587252 0.179591
C 2.772645 -0.458835 0.031427
C 4.181001 -0.154543 -0.149595
H -1.156772 0.343450 -1.527661
H -0.601680 1.050510 1.372658
H -3.517743 0.742688 -1.175610
H -3.577386 -0.419092 1.359336
H -2.751801 -1.800913 -1.242683
H -3.119326 -2.648540 0.259413
H -1.583086 2.835827 -0.380544
H -4.161989 2.093031 0.446141
H 0.211464 -2.366309 0.222022
H -5.250188 -1.855092 0.065924
H 2.730264 2.196425 0.153505
H 1.048778 2.348956 -0.049537
H 4.623753 -2.146998 -0.386723
H 5.982146 -1.066454 -0.492008
