15
calc_1c7a5355de31f415; angstrom; atom order from source job; valid
O -1.362630 1.886915 0.000009
O 2.855686 0.224242 -0.000002
N 0.723946 1.022885 -0.000007
N 1.108513 -1.235072 0.000000
C -1.147254 -0.476418 -0.000000
C -0.653387 0.884645 -0.000000
C -0.239925 -1.467668 0.000006
C -2.622235 -0.711086 -0.000007
C 1.649554 0.013317 -0.000002
H -0.521396 -2.510656 0.000010
H 1.092404 1.965003 -0.000004
H 1.752944 -2.011089 0.000025
H -3.088486 -0.263152 0.878759
H -3.088484 -0.263097 -0.878745
H -2.839157 -1.777689 -0.000040
