37
calc_4a92c714ea7f5fc6; angstrom; atom order from source job; valid
P -4.632303 -1.063350 0.062375
O -0.432237 0.209087 0.362483
O 1.567645 3.039127 -0.534925
O -0.956733 3.641867 0.122134
O -3.212308 -0.417749 0.376375
O -4.915084 -1.888758 1.388842
O -4.409247 -2.214097 -1.007807
O -5.663902 -0.116575 -0.384492
O 6.034633 -0.520536 0.429015
N 1.848339 -0.109183 0.101074
N 2.842094 -2.015404 -0.458443
N 3.702839 1.238928 0.850678
N 5.619062 -2.600889 -0.392006
C 0.661632 1.973126 -0.693486
C -0.826476 2.391595 -0.538554
C 0.811965 0.868751 0.368820
C -1.457049 1.205478 0.229618
C -2.654338 0.609331 -0.469853
C 3.188321 0.084441 0.324729
C 1.699666 -1.397171 -0.380680
C 3.799434 -1.109286 -0.024376
C 5.226445 -1.375489 0.026679
H 0.817564 1.527401 -1.675898
H -1.282477 2.529883 -1.515874
H 1.027384 1.318483 1.345739
H -1.756173 1.538197 1.229703
H -2.358874 0.171595 -1.423615
H -3.400131 1.384682 -0.639706
H 1.082399 3.769771 -0.121836
H -0.984283 3.524452 1.078506
H 0.733655 -1.793227 -0.635328
H 4.714130 1.235428 0.838420
H 3.284208 2.102002 0.526845
H -5.099551 -1.349941 2.168415
H -3.715685 -2.851731 -0.795491
H 4.942158 -3.270537 -0.715008
H 6.594139 -2.843967 -0.380001
