  35
        -70.96243622
 N         -0.1430681240       -1.5103403455       -0.0572144976
 N         -1.3838123847       -1.9217843392       -1.8817626993
 N         -3.5455376210       -1.4850486662       -0.8722328596
 N         -3.4421313733       -0.8116198802        1.4104716377
 C         -1.4501542302       -1.3017660112        0.3058114075
 C         -2.2215264283       -1.5758128349       -0.8595467055
 C         -2.1212602341       -0.9021757354        1.4438744658
 C         -0.1885779875       -1.8433825535       -1.3778826616
 C         -4.0698551437       -1.1021821782        0.2764353267
 H         -1.6364123436       -0.6361763615        2.3728246250
 H          0.6902389474       -2.0546707535       -1.9543466447
 H         -5.1469472123       -1.0137472838        0.2991262885
 P         -0.4204708794        2.3133768121       -0.0317300801
 O          1.2338224331        0.1772068425        0.8473728221
 O          4.3287208278       -0.7741623203       -0.5413656248
 O          3.1655357878       -2.0741586361        1.4161825599
 O          1.1095229113        2.5612037960       -0.4790909505
 O         -1.0216495602        3.7650034725       -0.2257519037
 O         -0.4928114084        2.1569700951        1.5238264175
 O         -1.0801962049        1.2413387639       -0.7923530456
 C          2.9416705936       -0.7602202216       -0.5541659204
 C          2.3250778640        0.5433571387        0.0086957558
 C          2.3044709462       -1.8607206496        0.3339276166
 C          0.9869966377       -1.2048905469        0.7945972204
 C          1.8129975589        1.4892720768       -1.0743837158
 H          2.6388981221       -0.8851962972       -1.5978515557
 H          3.0506692909        1.0707914091        0.6385422709
 H          2.1229326803       -2.7824281772       -0.2243758463
 H          0.7116527795       -1.5100360185        1.8114864639
 H          1.1323078085        0.9493233432       -1.7411802086
 H          2.6404057880        1.9252708822       -1.6346738787
 H          4.6299007274       -1.0333461714        0.3483432251
 H          2.9960539498       -2.9280674763        1.8378864693
 H         -1.1781479321        4.0426317947       -1.1341162004
 H         -0.1904851630        2.9220067457        2.0316047538
