  35
        -70.96243622
 N         -0.1430681240       -1.5103403455       -0.0572144976
 N         -1.3838123847       -1.9217843392       -1.8817626993
 N         -3.5455376210       -1.4850486662       -0.8722328596
 N         -3.4421313733       -0.8116198802        1.4104716377
 C         -1.4501542302       -1.3017660112        0.3058114075
 C         -2.2215264283       -1.5758128349       -0.8595467055
 C         -2.1212602341       -0.9021757354        1.4438744658
 C         -0.1885779875       -1.8433825535       -1.3778826616
 C         -4.0698551437       -1.1021821782        0.2764353267
 H         -1.6364123436       -0.6361763615        2.3728246250
 H          0.6902389474       -2.0546707535       -1.9543466447
 H         -5.1469472123       -1.0137472838        0.2991262885
 P         -0.4204708794        2.3133768121       -0.0317300801
 O          1.2338224331        0.1772068425        0.8473728221
 O          4.3287208278       -0.7741623203       -0.5413656248
 O          3.1655357878       -2.0741586361        1.4161825599
 O          1.1095229113        2.5612037960       -0.4790909505
 O         -1.0216495602        3.7650034725       -0.2257519037
 O         -0.4928114084        2.1569700951        1.5238264175
 O         -1.0801962049        1.2413387639       -0.7923530456
 C          2.9416705936       -0.7602202216       -0.5541659204
 C          2.3250778640        0.5433571387        0.0086957558
 C          2.3044709462       -1.8607206496        0.3339276166
 C          0.9869966377       -1.2048905469        0.7945972204
 C          1.8129975589        1.4892720768       -1.0743837158
 H          2.6388981221       -0.8851962972       -1.5978515557
 H          3.0506692909        1.0707914091        0.6385422709
 H          2.1229326803       -2.7824281772       -0.2243758463
 H          0.7116527795       -1.5100360185        1.8114864639
 H          1.1323078085        0.9493233432       -1.7411802086
 H          2.6404057880        1.9252708822       -1.6346738787
 H          4.6299007274       -1.0333461714        0.3483432251
 H          2.9960539498       -2.9280674763        1.8378864693
 H         -1.1781479321        4.0426317947       -1.1341162004
 H         -0.1904851630        2.9220067457        2.0316047538
  35
        -70.96233968
 N         -0.1474092558       -1.4875336225       -0.1728261113
 N         -1.6708586020       -2.0584116157       -1.7139630464
 N         -3.6346501981       -1.4787858995       -0.4115821175
 N         -3.1546108248       -0.6821795765        1.7824010003
 C         -1.3725578908       -1.2358661270        0.3861528123
 C         -2.3259573690       -1.5933123012       -0.6107266873
 C         -1.8461404730       -0.7858880885        1.6021013071
 C         -0.4069807201       -1.9604563608       -1.4205190688
 C         -3.9605179476       -1.0152989323        0.7800312416
 H         -1.2095264501       -0.5099771762        2.4300882630
 H          0.3670128307       -2.2772886546       -2.0907910221
 H         -5.0189178952       -0.9040315041        0.9699118765
 P         -0.3973116883        2.1720831579       -0.3757121860
 O          1.1084064086        0.1786742935        0.8751575755
 O          3.9243885795       -0.9900444260        1.2503046996
 O          2.8118784175       -2.6333563747       -0.5672900000
 O          1.1091275778        2.7069066655       -0.1490571245
 O         -1.1311119991        3.5199338750       -0.7717309337
 O         -1.0289804023        1.8974866052        1.0309498283
 O         -0.4972256256        1.0912525900       -1.3669775212
 C          3.3184158600       -0.3358775197        0.1698892627
 C          2.3698516010        0.7926188754        0.6043558112
 C          2.3339499499       -1.3374632407       -0.4694365346
 C          1.1071795701       -1.1720502896        0.4543507354
 C          2.1863985256        1.8574143258       -0.4822968230
 H          4.0573474714        0.0155508069       -0.5555541832
 H          2.6864315245        1.2679937587        1.5385037710
 H          2.0690358129       -1.0008551302       -1.4753549570
 H          1.2163178153       -1.8156287478        1.3445785052
 H          1.9710669024        1.3712416150       -1.4381222479
 H          3.0660185324        2.4971415452       -0.5603453102
 H          4.6971481071       -0.4978543685        1.5617761541
 H          3.3514622066       -2.8270187418        0.2200562646
 H         -1.0215755764        3.8140739866       -1.6817430542
 H         -1.0815289038        2.6864142942        1.5873303525
  35
        -70.96232632
 N         -0.1390226794       -1.4589623648       -0.0714672092
 N         -1.4091327560       -1.8009934838       -1.8902509584
 N         -3.5573617445       -1.4705749649       -0.8141014718
 N         -3.4188296752       -0.9084896971        1.4968790809
 C         -1.4412303582       -1.3026334978        0.3292823201
 C         -2.2317401686       -1.5323602283       -0.8335755485
 C         -2.0958451713       -0.9727891703        1.4987191430
 C         -0.2054126469       -1.7211274062       -1.4061760000
 C         -4.0645530521       -1.1576615241        0.3631237944
 H         -1.5963621728       -0.7431613260        2.4297357273
 H          0.6659260424       -1.8734016054       -2.0120630084
 H         -5.1425320725       -1.0939809013        0.4123829123
 P         -0.4434280663        2.3218942475       -0.0865160745
 O          1.2768916059        0.1756316390        0.8687236902
 O          4.3831019644       -0.6392070833       -0.1546281688
 O          3.0698341679       -2.3833012631        1.3063110994
 O          1.0787156244        2.5257502797       -0.5813110812
 O         -1.0201193259        3.7786914002       -0.2996163450
 O         -0.4735562315        2.1974147840        1.4726362944
 O         -1.1351873606        1.2386908113       -0.8005179902
 C          3.0326762428       -0.7235211088       -0.4982394421
 C          2.3280460258        0.5570879601       -0.0108747122
 C          2.3040956309       -1.8733005123        0.2603737292
 C          1.0088429548       -1.1992336411        0.7707302222
 C          1.7577070971        1.4178061247       -1.1372946304
 H          2.9010223158       -0.8343392289       -1.5807201392
 H          3.0288406262        1.1623532326        0.5760334664
 H          2.0666054825       -2.7228173584       -0.3834892587
 H          0.7537121335       -1.5512257407        1.7776390785
 H          1.0501934377        0.8323848536       -1.7339563693
 H          2.5550300054        1.8219631053       -1.7620862568
 H          4.8819908294       -1.3694716544       -0.5513346460
 H          3.6359207769       -1.6810565996        1.6704383390
 H         -1.1938497067        4.0398815963       -1.2099498948
 H         -0.1664578946        2.9768923777        1.9539415613
  35
        -70.96189897
 N         -0.1215032924       -1.5021526675       -0.0609762536
 N         -1.3608904421       -1.9227234274       -1.8834020162
 N         -3.5226076879       -1.4723452517       -0.8794541370
 N         -3.4202661266       -0.7910994505        1.4009626324
 C         -1.4286999571       -1.2919632870        0.3008606148
 C         -2.1991390327       -1.5686933219       -0.8642119809
 C         -2.0999411739       -0.8856838423        1.4364955534
 C         -0.1660483174       -1.8477690452       -1.3785087076
 C         -4.0472087238       -1.0831483000        0.2669279849
 H         -1.6161324015       -0.6182948304        2.3655303642
 H          0.7129058260       -2.0699124618       -1.9503708551
 H         -5.1239477586       -0.9898785885        0.2874195680
 P         -0.4553130236        2.3215917182       -0.0326016204
 O          1.2716477758        0.1568023824        0.8893657138
 O          4.3387048260       -0.7568335940       -0.5095689224
 O          3.1633939997       -2.1603610245        1.4152506519
 O          1.0705305589        2.5316824433       -0.5126968398
 O         -1.0307300054        3.7828844710       -0.2130211231
 O         -0.4903849224        2.1607232388        1.5236109998
 O         -1.1431960307        1.2535339717       -0.7731216600
 C          2.9484359308       -0.7669199457       -0.5598508958
 C          2.3131723364        0.5347511202       -0.0113744795
 C          2.3213177920       -1.8661665640        0.3403082728
 C          1.0044799110       -1.2225045857        0.8021119382
 C          1.7377099413        1.4336543089       -1.1020922707
 H          2.6537663262       -0.9030170277       -1.6056224275
 H          3.0451681229        1.1096396410        0.5672185898
 H          2.1681202650       -2.8080747939       -0.1873457158
 H          0.7174823064       -1.5549907461        1.8074639925
 H          1.0216511173        0.8698002906       -1.7092611252
 H          2.5344599670        1.8424011018       -1.7244355965
 H          4.6285898428       -1.3030252249        0.2465003914
 H          3.1724618851       -1.4285448257        2.0525367933
 H         -1.1972164617        4.0688812590       -1.1171485283
 H         -0.1920442624        2.9324829040        2.0228924763
  35
        -70.96182243
 N         -0.1376149340       -1.4645222156       -0.0757343051
 N         -1.4044930252       -1.7925419085       -1.8993123102
 N         -3.5544476692       -1.4676892948       -0.8248244088
 N         -3.4199191039       -0.9197402687        1.4897663309
 C         -1.4404275869       -1.3073895170        0.3232323369
 C         -2.2288993061       -1.5296892168       -0.8423815887
 C         -2.0969389028       -0.9842152725        1.4934901701
 C         -0.2016883241       -1.7162172588       -1.4131138812
 C         -4.0637360386       -1.1621445887        0.3534496537
 H         -1.5984174316       -0.7603938952        2.4264020226
 H          0.6711998666       -1.8636582703       -2.0183268864
 H         -5.1417981834       -1.0991413225        0.4011228621
 P         -0.4385049222        2.3225592841       -0.0789852257
 O          1.2673303233        0.1781547025        0.8623380768
 O          4.4039857426       -0.7226148687       -0.2735810939
 O          3.0319795035       -2.2835219868        1.3826471248
 O          1.0810238642        2.5360655389       -0.5760266910
 O         -1.0227651608        3.7769507513       -0.2917891936
 O         -0.4665166298        2.1991534918        1.4805356757
 O         -1.1287136711        1.2370488204       -0.7909143017
 C          3.0317712801       -0.7221782509       -0.4975290020
 C          2.3299029735        0.5651342328       -0.0027290015
 C          2.2970940688       -1.8666651202        0.2655719987
 C          1.0078059301       -1.1968169298        0.7670151052
 C          1.7695148200        1.4319365634       -1.1292481389
 H          2.9024898275       -0.8306718513       -1.5768986865
 H          3.0139182928        1.1746322433        0.5991295187
 H          2.0642969247       -2.7121402405       -0.3867095091
 H          0.7593224571       -1.5461190021        1.7764632006
 H          1.0704194161        0.8482961122       -1.7371674293
 H          2.5728783448        1.8399362165       -1.7436704317
 H          4.5709219700       -0.7794253522        0.6836146377
 H          3.7020860607       -2.9306635875        1.1144641041
 H         -1.1945156894        4.0378849116       -1.2024808029
 H         -0.1421881664        2.9713254888        1.9623521134
  35
        -70.96141904
 N         -0.3177375752       -0.9897632046        0.9623782489
 N         -2.2992050978       -0.4326197888        1.8555847123
 N         -3.6898598062       -1.4509755551        0.1632018515
 N         -2.4972483063       -2.6004789029       -1.5411416019
 C         -1.2706071834       -1.4977366521        0.1156650329
 C         -2.5210834896       -1.1245720121        0.7006118496
 C         -1.3204417862       -2.2959946523       -1.0132131745
 C         -1.0057544147       -0.3668132996        1.9580867484
 C         -3.5975078686       -2.1523672579       -0.9502228825
 H         -0.4556766121       -2.7277686058       -1.4963068048
 H         -0.4981314577        0.1277281445        2.7618038066
 H         -4.5316837762       -2.4150863682       -1.4263870984
 P         -0.2069468443        2.3314560191       -0.2225419788
 O          1.4834690444        0.4789939204        0.8828492041
 O          3.9224773886       -1.3207388236        0.2693910334
 O          1.8207316664       -2.7820754300       -0.5904945723
 O          1.3280790335        2.7124019004       -0.5515358351
 O         -0.9400184292        3.6754146883       -0.6381831722
 O         -0.3964972624        2.3643362811        1.3296408938
 O         -0.6777648466        1.1288106340       -0.9279923297
 C          3.0197748124       -0.6311095525       -0.5504256624
 C          2.5962118418        0.7313712027        0.0226472925
 C          1.6867151321       -1.4070255516       -0.5040925341
 C          1.1092337560       -0.8857462480        0.8268589289
 C          2.1657446075        1.7085264133       -1.0815023298
 H          3.3941484091       -0.5389627700       -1.5738246541
 H          3.3735790176        1.1841777191        0.6469451951
 H          1.0339760882       -1.0719171259       -1.3148367260
 H          1.5781192250       -1.4168110370        1.6735885266
 H          1.6174175073        1.1635576164       -1.8555223534
 H          3.0268107302        2.2227887500       -1.5088903363
 H          4.8271620661       -1.0094199861        0.1234336117
 H          2.6132695328       -3.0483654608       -0.0907949651
 H         -1.1225585469        3.7884950240       -1.5761182151
 H         -0.2472073898        3.2341544009        1.7241730260
  35
        -70.96134490
 N         -0.1348048423       -1.4836332071       -0.0679843684
 N         -1.3989808956       -1.8751892809       -1.8808846049
 N         -3.5489744778       -1.4784420118       -0.8308907543
 N         -3.4166418738       -0.8440601699        1.4618076752
 C         -1.4374004759       -1.2982756594        0.3193387493
 C         -2.2240245447       -1.5580020568       -0.8395943775
 C         -2.0947145230       -0.9240345573        1.4740525188
 C         -0.1971428292       -1.7940285269       -1.3922708025
 C         -4.0588302918       -1.1207909556        0.3322078470
 H         -1.5965640715       -0.6735562735        2.4002208987
 H          0.6750981092       -1.9853216385       -1.9853639254
 H         -5.1361394873       -1.0417207458        0.3726860137
 P         -0.4441927611        2.3009169881       -0.0516843240
 O          1.2559625436        0.1853285483        0.8378468558
 O          4.3636811990       -0.8016864530       -0.3520963231
 O          3.0690108686       -2.1920362561        1.4147446466
 O          1.0857107462        2.5538907894       -0.4987266342
 O         -1.0412334257        3.7560523699       -0.2278128588
 O         -0.5193825570        2.1232261942        1.5004542784
 O         -1.0981801707        1.2376600961       -0.8289015898
 C          2.9838513918       -0.7355448892       -0.5494475861
 C          2.3390516778        0.5628614694       -0.0076551374
 C          2.3121902498       -1.8497376947        0.2923391618
 C          1.0073622879       -1.1949132637        0.7712623670
 C          1.7955992170        1.4882100003       -1.0972192020
 H          2.7235814992       -0.8640890204       -1.6059425883
 H          3.0498906515        1.1106233391        0.6226605591
 H          2.1120452098       -2.7487311937       -0.3051691410
 H          0.7624255190       -1.5298538096        1.7861688773
 H          1.1111059130        0.9295913449       -1.7449985464
 H          2.5975729544        1.9439741466       -1.6784140676
 H          4.8414724330       -0.3151358126       -1.0375108256
 H          4.0100777823       -2.0544198280        1.2025715054
 H         -1.1991607529        4.0468867054       -1.1319700996
 H         -0.2143168727        2.8793619668        2.0189912872
  35
        -70.96113700
 N         -0.3069586191       -1.2581656954        0.9455385124
 N         -2.4142663800       -1.2828091576        1.7229858957
 N         -3.5208697302       -1.5445119020       -0.4077162349
 N         -2.0621348254       -1.6328157151       -2.2814285605
 C         -1.1188613118       -1.3947437856       -0.1532625865
 C         -2.4524350936       -1.4142516562        0.3656718096
 C         -0.9824041906       -1.5166286733       -1.5221394849
 C         -1.1535205179       -1.1705823812        2.0098994758
 C         -3.2525437014       -1.6364033950       -1.6960756079
 H         -0.0372052731       -1.5216013743       -2.0472697891
 H         -0.7883938676       -1.0344660226        3.0092017527
 H         -4.1040881234       -1.7310696952       -2.3547892320
 P         -0.3849695915        2.4526707151        0.2738677130
 O          1.4178160403        0.3338310816        0.8148653957
 O          3.9738012822       -0.9236904023       -0.9544222619
 O          2.9390627232       -2.6050261262        0.7315087193
 O          0.9211162708        2.5571160354       -0.6693606884
 O         -0.9772668575        3.9119946464        0.1153072477
 O          0.0554737093        2.4604833803        1.7747777839
 O         -1.2834402817        1.3524953554       -0.1074771384
 C          2.5790283522       -0.8400047859       -0.9319782374
 C          2.1787819495        0.5340956383       -0.3672185669
 C          1.9619315278       -1.8748790444        0.0607976480
 C          1.1154272888       -1.0208776246        1.0377614926
 C          1.3605224716        1.3908552799       -1.3344270588
 H          2.1591927698       -0.9675142879       -1.9343065788
 H          3.0816926904        1.0858526316       -0.0767252747
 H          1.3224137561       -2.6012479410       -0.4468208066
 H          1.3935553663       -1.2578794544        2.0739889743
 H          0.4846457637        0.8302167690       -1.6767020693
 H          1.9670124572        1.7220565444       -2.1778276192
 H          4.2648197722       -1.6366717966       -1.5434798406
 H          3.7561637811       -2.0732523663        0.7775037177
 H         -1.4520057677        4.0929786430       -0.7022246954
 H          0.5167925294        3.2592974309        2.0622166184
  35
        -70.96082159
 N         -0.2954107894       -1.2792715579        0.9325599148
 N         -2.3971752930       -1.3235118066        1.7233960425
 N         -3.5177968113       -1.5342349462       -0.4061592199
 N         -2.0706910279       -1.5777644676       -2.2906515098
 C         -1.1148338065       -1.3890711498       -0.1640987520
 C         -2.4444176782       -1.4220023050        0.3631326545
 C         -0.9858608812       -1.4786356094       -1.5363664695
 C         -1.1349542776       -1.2168325099        2.0048275900
 C         -3.2573623833       -1.5950738868       -1.6979877771
 H         -0.0434590335       -1.4684165191       -2.0671332612
 H         -0.7626491332       -1.1051545172        3.0044654087
 H         -4.1128976608       -1.6742604366       -2.3535836711
 P         -0.3982605440        2.4480134291        0.2796026325
 O          1.4192285368        0.3237264458        0.8206282335
 O          3.9842837485       -0.9725451754       -1.0373753324
 O          2.9353863619       -2.5525650171        0.7680555145
 O          0.9190180906        2.5700958087       -0.6447467217
 O         -0.9974252983        3.9056224410        0.1325836620
 O          0.0251946926        2.4371932687        1.7855289376
 O         -1.2852922523        1.3469596033       -0.1253721317
 C          2.6055646091       -0.8193088821       -0.9327774593
 C          2.1902617601        0.5512097786       -0.3516821138
 C          1.9638627534       -1.8674705725        0.0306722734
 C          1.1254521120       -1.0362117187        1.0184942022
 C          1.3735989320        1.4121775824       -1.3158847820
 H          2.2182777842       -0.9307881474       -1.9480485917
 H          3.0761434192        1.1197011754       -0.0423663193
 H          1.3210305311       -2.5679394829       -0.5112593190
 H          1.4200796690       -1.2936941670        2.0456487860
 H          0.5053794450        0.8493376545       -1.6725141167
 H          1.9863813280        1.7532264990       -2.1507903486
 H          4.3671666069       -1.0677432551       -0.1479271343
 H          3.3847926069       -3.2010167819        0.2037207834
 H         -1.4706295309        4.0891014945       -0.6852241145
 H          0.4770359317        3.2348624542        2.0904733796
  35
        -70.96077881
 N         -0.6859655441       -0.8320313203        0.9732205351
 N         -2.7649127921       -0.1028094151        1.3756038566
 N         -3.9268085125       -1.8040534066        0.1028948196
 N         -2.5046743500       -3.4280806993       -0.9004246154
 C         -1.5222059003       -1.6923312399        0.3126583204
 C         -2.8398938413       -1.2063477054        0.5786096911
 C         -1.4067503058       -2.8516963663       -0.4335810203
 C         -1.4910064925        0.0803791491        1.5746647034
 C         -3.6816904904       -2.8782688617       -0.6222904814
 H         -0.4662672023       -3.3353156017       -0.6588380136
 H         -1.0886489048        0.8768486891        2.1663949514
 H         -4.5461988595       -3.3814248949       -1.0318285450
 P          0.2620163957        2.3659750642       -0.6034481363
 O          1.1976383676        0.4794601580        1.2376874094
 O          3.7946068545       -0.9419942796       -0.5838755079
 O          1.8053448911       -2.6020501202       -0.3283858601
 O          1.8564386971        2.5976604204       -0.5626496969
 O         -0.1358686529        3.5995899879       -1.5097173834
 O         -0.3225924973        2.7648414210        0.7960643051
 O         -0.1755023029        1.0715442785       -1.1516057509
 C          2.5634863724       -0.2787063297       -0.5532690815
 C          2.5016072006        0.6146318349        0.6975153159
 C          1.3848116070       -1.2765978048       -0.3599381569
 C          0.7507740312       -0.8285638678        0.9849375917
 C          2.7334382697        2.0918652431        0.4255031879
 H          2.3928064716        0.3250617514       -1.4466532784
 H          3.2476074121        0.2502359194        1.4191159196
 H          0.6482234053       -1.1551469899       -1.1576604462
 H          1.1059314135       -1.5085364165        1.7824976820
 H          3.7409844501        2.2544884337        0.0388538892
 H          2.5891435130        2.6396711278        1.3599534827
 H          4.0508753628       -1.1427890908       -1.4956412801
 H          2.7643759893       -2.6104118668       -0.1319599582
 H         -0.0692407844        3.4563055195       -2.4586114619
 H         -0.3932112467        3.7190283323        0.9350898509
  35
        -70.96065029
 N         -0.1834442780       -1.4576038103       -0.0859044627
 N         -1.4064297514       -1.7550435650       -1.9453875837
 N         -3.5849109242       -1.5752749608       -0.8981496265
 N         -3.5164769086       -1.1822985601        1.4487387949
 C         -1.4989001133       -1.3822484336        0.2974911396
 C         -2.2581206695       -1.5758213262       -0.8923856152
 C         -2.1927654084       -1.1856738971        1.4744860402
 C         -0.2161124002       -1.6578898270       -1.4338591643
 C         -4.1295954823       -1.3676819453        0.2853832837
 H         -1.7278444555       -1.0306338662        2.4380758808
 H          0.6712238760       -1.7573815420       -2.0274386968
 H         -5.2099703232       -1.3527827811        0.3141218768
 P         -0.3274182781        2.4490253875       -0.0117666420
 O          1.2367516086        0.1943496898        0.8440463155
 O          4.3252210186       -0.6387846500       -0.0826359596
 O          2.9931921242       -2.3558552303        1.3641703051
 O          1.0670171507        2.5055568544       -0.8199979210
 O         -0.9587381267        3.8347667554       -0.3658382207
 O          0.0325702370        2.6415247686        1.5192174814
 O         -1.1842097135        1.3088998639       -0.3660281977
 C          2.9932404916       -0.7501839740       -0.4874099781
 C          2.2560459541        0.5439195120       -0.0886215927
 C          2.2463873625       -1.8761983459        0.2911313141
 C          0.9486134597       -1.1822615669        0.7698507552
 C          1.6482594087        1.2997322208       -1.2712592329
 H          2.9142551577       -0.9095238463       -1.5675549321
 H          2.9472453360        1.2136283792        0.4356096402
 H          2.0078053926       -2.7379792365       -0.3368782963
 H          0.6802406033       -1.5111872080        1.7799831645
 H          0.8760578928        0.6918994042       -1.7527665435
 H          2.4197436984        1.5853105063       -1.9876772233
 H          4.8667633549       -1.3318214364       -0.4896260048
 H          3.6344076258       -1.6749937422        1.6390469917
 H         -0.4434110092        4.6108643315       -0.1097433498
 H          0.3826106364        1.8577044729        1.9547182931
  35
        -70.96054028
 N         -0.1270457066       -1.4899433921       -0.2006226268
 N         -1.6511803803       -2.0128799150       -1.7587437735
 N         -3.6131548276       -1.4176972839       -0.4610970756
 N         -3.1326484690       -0.6464206100        1.7416941422
 C         -1.3527042596       -1.2253141785        0.3535180219
 C         -2.3057884803       -1.5526119635       -0.6533118653
 C         -1.8251064248       -0.7722227764        1.5684402957
 C         -0.3880501663       -1.9411461644       -1.4563817763
 C         -3.9381900258       -0.9594494395        0.7328802822
 H         -1.1905919738       -0.5073631103        2.4016675801
 H          0.3796380433       -2.2614422608       -2.1320745942
 H         -4.9957178532       -0.8324229790        0.9178266830
 P         -0.4699770269        2.1969102344       -0.3386561824
 O          1.1611252578        0.1178921436        0.9161881218
 O          4.1015529517       -0.8203162804        1.1973313131
 O          2.9002845162       -2.7423240950       -0.2750332378
 O          1.0796255916        2.6459983347       -0.2985258591
 O         -1.1755918593        3.5704784398       -0.6789386919
 O         -0.9446752708        1.9621693236        1.1344233739
 O         -0.7221838583        1.0930970482       -1.2754902337
 C          3.3369243141       -0.3549035915        0.1233264054
 C          2.3608962276        0.7660089696        0.4883010824
 C          2.3811148943       -1.4598028730       -0.3917109591
 C          1.1201119298       -1.2270219222        0.4742067095
 C          2.0612923232        1.7055557488       -0.6821878574
 H          4.0499582668       -0.0529892988       -0.6450683095
 H          2.7086691400        1.3635775352        1.3371111726
 H          2.1423678146       -1.2735946276       -1.4422219650
 H          1.1434318114       -1.8813648678        1.3622365948
 H          1.6874539902        1.1306699714       -1.5344175650
 H          2.9467784714        2.2794485414       -0.9570719125
 H          3.5774154149       -0.8421516172        2.0120619895
 H          3.6352855874       -2.7223982122        0.3676553282
 H         -1.1322848725        3.8588896005       -1.5965878359
 H         -0.9331857248        2.7588017416        1.6817882582
  35
        -70.96044186
 N         -0.3101022276       -1.5991340386       -0.1062019032
 N         -1.8373793294       -2.3409966508       -1.5672298563
 N         -3.7961964326       -1.6070025751       -0.3406173062
 N         -3.3139783922       -0.5700179970        1.7487846936
 C         -1.5309441314       -1.2779654939        0.4230931234
 C         -2.4877773157       -1.7472937054       -0.5252955606
 C         -2.0062467739       -0.6959053543        1.5824789043
 C         -0.5717740120       -2.2206390494       -1.2851787871
 C         -4.1219204527       -1.0113611632        0.7901795854
 H         -1.3680460633       -0.3343734756        2.3752109359
 H          0.2054947849       -2.6160202895       -1.9087280904
 H         -5.1798718314       -0.8765015177        0.9660904518
 P         -0.0375607796        2.0453703969       -0.5301053547
 O          0.8672385502       -0.0076142334        1.0936197088
 O          4.2192013840       -0.2946540775        0.2678551820
 O          2.8495421489       -2.2929503509       -0.7211884655
 O          1.3369203793        2.5989821060        0.1033788238
 O         -0.5086475833        3.3674825820       -1.2619697960
 O         -1.0926768597        1.9075740711        0.6255900491
 O          0.0961924444        0.8966271796       -1.4394008879
 C          2.9238680556        0.0861930477       -0.0996067929
 C          2.1635416414        0.5636426979        1.1503363844
 C          2.0948074554       -1.1317112895       -0.6039053376
 C          0.9670694489       -1.2574337735        0.4534834246
 C          1.9892528123        2.0710206716        1.2423478979
 H          2.9212665120        0.8746102650       -0.8553074129
 H          2.6977285815        0.1974309085        2.0394476624
 H          1.6468845226       -0.9030083482       -1.5731326172
 H          1.2514812671       -2.0291602248        1.1932479603
 H          2.9603823763        2.5671849064        1.2844032264
 H          1.4065380368        2.2963073268        2.1386297991
 H          4.8297195496       -0.1858578996       -0.4757880263
 H          3.6212393819       -2.2171755126       -0.1251187622
 H         -0.1623257582        3.4930679784       -2.1504523768
 H         -1.4163631588        2.7627939821        0.9400514451
  35
        -70.96026242
 N         -0.1801482060       -1.4771470494       -0.0795389375
 N         -1.3836941433       -1.7960326360       -1.9480371277
 N         -3.5729853665       -1.5705572557       -0.9323659224
 N         -3.5294488020       -1.1317041336        1.4067491268
 C         -1.5002255035       -1.3752242356        0.2850074154
 C         -2.2466228712       -1.5845124471       -0.9099608374
 C         -2.2062384900       -1.1474134233        1.4490061610
 C         -0.1987638736       -1.7016755296       -1.4248599052
 C         -4.1302448078       -1.3338931624        0.2399551189
 H         -1.7527039404       -0.9757134694        2.4151559104
 H          0.6946458158       -1.8236704160       -2.0047183440
 H         -5.2106850810       -1.3086787287        0.2549545490
 P         -0.3273930738        2.4426237676        0.0100264528
 O          1.2256023273        0.1911558445        0.8507517614
 O          4.3239706425       -0.7692972830       -0.3711110437
 O          3.0670296093       -2.1314773665        1.4519786112
 O          1.0937939450        2.5293272797       -0.7461886500
 O         -0.9643315399        3.8292930145       -0.3318457494
 O         -0.0250093656        2.6043036478        1.5571725665
 O         -1.1626592197        1.3050091954       -0.4003661824
 C          2.9439506358       -0.7841651801       -0.5181152853
 C          2.2639139201        0.5333993568       -0.0658296526
 C          2.2489213828       -1.8730213460        0.3466058917
 C          0.9387403044       -1.1858793386        0.7892054787
 C          1.6822784839        1.3382200855       -1.2273403431
 H          2.7480897838       -0.9507163947       -1.5809863969
 H          2.9741487116        1.1632764229        0.4803773627
 H          2.0473854419       -2.7775941554       -0.2305815581
 H          0.6478749575       -1.4866815018        1.8018331871
 H          0.9178578300        0.7501262293       -1.7452898342
 H          2.4702163735        1.6404328382       -1.9182313205
 H          4.5418712887       -1.0292602257        0.5429558637
 H          2.9512399789       -3.0353188425        1.7753215457
 H         -0.4604029120        4.6041034453       -0.0504736188
 H          0.3780450453        1.8349340867        1.9726079203
  35
        -70.96015806
 N         -0.1512744748       -1.3246101479        0.9115478553
 N         -1.9526638627       -0.7843142947        2.1292188790
 N         -3.6041023370       -1.1847446515        0.4017823298
 N         -2.7012090713       -1.9557611281       -1.6632165848
 C         -1.2311185613       -1.4936530222        0.0870480669
 C         -2.3652581195       -1.1397660970        0.8782447389
 C         -1.4583841376       -1.9202613471       -1.2078623966
 C         -0.6555144839       -0.8990308217        2.0968793390
 C         -3.6851118946       -1.5801461606       -0.8536357238
 H         -0.6774421205       -2.2365195460       -1.8865584597
 H         -0.0174262631       -0.6914902762        2.9329761163
 H         -4.6800307051       -1.6168478934       -1.2751422351
 P         -0.3431463303        2.1594966459       -0.4159856035
 O          2.0568525331       -0.8071681741        1.5114222841
 O          3.9718056388       -0.5478295451       -0.7979949072
 O          1.8538572006       -1.7917436166       -1.7874294142
 O          0.3519790238        1.3559883754        0.7556718534
 O          0.8362013610        2.4518208425       -1.4225528988
 O         -0.6746895572        3.6018714610        0.1536837759
 O         -1.4968038836        1.4117290269       -0.9347507951
 C          2.7638882910        0.1022955609       -0.5191877016
 C          2.5773601391        0.4103125390        0.9703850948
 C          1.5648998882       -0.8312905563       -0.8239215357
 C          1.2523544201       -1.4558219158        0.5675404428
 C          1.6641134457        1.6118520266        1.2499336008
 H          2.7447295483        0.9957046819       -1.1426429303
 H          3.5330258698        0.5859498107        1.4720566776
 H          0.7012714363       -0.2448901977       -1.1568509155
 H          1.5054052733       -2.5267253007        0.5701529141
 H          2.0787914925        2.5093891261        0.7912813184
 H          1.5674292140        1.7477301302        2.3293609120
 H          4.1813437546       -1.1844662456       -0.0965729859
 H          2.8178589380       -1.7738962625       -1.9537040780
 H          0.5924165814        2.9956851895       -2.1810600485
 H         -1.5490690005        3.6940080209        0.5454683767
  35
        -70.96014632
 N         -0.1562493266       -1.3146077672        0.9197605104
 N         -1.9668832360       -0.7690456853        2.1219339374
 N         -3.6090423506       -1.2174658926        0.3978049214
 N         -2.6921658499       -2.0116416026       -1.6523199162
 C         -1.2317348054       -1.5085880206        0.0951793404
 C         -2.3719928258       -1.1517973934        0.8767664721
 C         -1.4508874091       -1.9558865754       -1.1942209552
 C         -0.6682464341       -0.8723580635        2.0951706659
 C         -3.6823559181       -1.6349819692       -0.8509513882
 H         -0.6642041703       -2.2719867051       -1.8661949699
 H         -0.0338865783       -0.6435191730        2.9284680221
 H         -4.6756679513       -1.6893011256       -1.2743010052
 P         -0.3323007607        2.1700769002       -0.4133360654
 O          2.0375173885       -0.7671610275        1.5246642127
 O          3.9260625181       -0.6429440904       -0.7868110373
 O          1.8092303779       -1.7926868548       -1.7848953522
 O          0.3802917414        1.3906172584        0.7630953977
 O          0.8362259407        2.4688068529       -1.4316872567
 O         -0.6789817443        3.6155356515        0.1404067308
 O         -1.4798876689        1.4037400031       -0.9183368529
 C          2.7617191195        0.0974208246       -0.5342423198
 C          2.5909568767        0.4212432664        0.9596927112
 C          1.5591455921       -0.8316712782       -0.8152683445
 C          1.2520480812       -1.4383576183        0.5858240275
 C          1.7042391042        1.6462050610        1.2272118700
 H          2.7141713711        0.9951830468       -1.1542738943
 H          3.5531157657        0.5659502316        1.4579602193
 H          0.6971795908       -0.2429336051       -1.1453386052
 H          1.5195608040       -2.5053280551        0.6052858042
 H          2.1179074229        2.5285360920        0.7390337377
 H          1.6288519521        1.8089045337        2.3043785255
 H          4.6932911229       -0.0588468284       -0.8635245499
 H          2.7638039809       -1.9955968780       -1.7699719246
 H          0.5748673599        2.9957564810       -2.1964016255
 H         -1.5480208137        3.6984306095        0.5457208808
  35
        -70.96014062
 N         -0.2615402233       -1.5861932255       -0.1023003257
 N         -1.7678633464       -2.3514932276       -1.5719716812
 N         -3.7439450813       -1.6466780193       -0.3561335295
 N         -3.2892316779       -0.5770086937        1.7234927495
 C         -1.4885467289       -1.2799229021        0.4192640375
 C         -2.4326769207       -1.7682183332       -0.5332119827
 C         -1.9783553742       -0.6872175206        1.5666738662
 C         -0.5058553556       -2.2064617680       -1.2855806605
 C         -4.0846347685       -1.0445349673        0.7671011465
 H         -1.3502686479       -0.3010279684        2.3558993148
 H          0.2876341688       -2.5729264593       -1.9071331555
 H         -5.1455717676       -0.9248408324        0.9361142457
 P         -0.1143720382        2.0730150096       -0.5032036925
 O          0.9034986534        0.0198529501        1.0971736036
 O          4.1585200382       -0.6905455794        0.5164213296
 O          2.7165941357       -2.1745023305       -1.0603144111
 O          1.3774461808        2.5108953897       -0.0759942878
 O         -0.5966373044        3.4139490259       -1.1967095784
 O         -0.9969694021        2.0242203435        0.7940434372
 O         -0.1843965316        0.9079257193       -1.3980204401
 C          3.0473458054        0.0114105667        0.0245785364
 C          2.2003786287        0.6021779591        1.1770717309
 C          2.0925851307       -1.0041481135       -0.6541426003
 C          1.0145319317       -1.2159851861        0.4364269564
 C          2.0059981365        2.1119850435        1.1272102065
 H          3.3335317172        0.7910948019       -0.6830794186
 H          2.6648441990        0.3170803201        2.1322978674
 H          1.6043408088       -0.5451433616       -1.5184403123
 H          1.3510790283       -1.9932110962        1.1480554123
 H          2.9620463935        2.6364699063        1.1475363624
 H          1.3924452618        2.4033757126        1.9825305309
 H          4.9712000858       -0.1763103737        0.4193282034
 H          3.5110313509       -2.2998780900       -0.5052440106
 H         -0.3797550540        3.4913632196       -2.1305275873
 H         -1.3257051025        2.8912978163        1.0685348743
  35
        -70.96012100
 N         -0.1796593706       -1.4569498702       -0.0897344099
 N         -1.4005902837       -1.7433938769       -1.9520865836
 N         -3.5801530639       -1.5719717622       -0.9056421203
 N         -3.5143018365       -1.1927532690        1.4434978642
 C         -1.4955395460       -1.3826365222        0.2928029670
 C         -2.2534885743       -1.5703353925       -0.8988071684
 C         -2.1905923512       -1.1941826359        1.4704518680
 C         -0.2108924073       -1.6478694262       -1.4397253618
 C         -4.1262694050       -1.3721760822        0.2786443562
 H         -1.7265770383       -1.0441136119        2.4352498992
 H          0.6776777833       -1.7422301877       -2.0326166853
 H         -5.2066801008       -1.3592889196        0.3064720046
 P         -0.3281332867        2.4497706194       -0.0092379835
 O          1.2354980233        0.1963166697        0.8446305657
 O          4.3550653120       -0.7254224797       -0.1984234131
 O          2.9553431725       -2.2672000203        1.4313170094
 O          1.0705647722        2.5155907936       -0.8085152172
 O         -0.9635638504        3.8344358518       -0.3606210344
 O          0.0220975359        2.6374038451        1.5249767891
 O         -1.1794648131        1.3080745192       -0.3717292623
 C          2.9951169891       -0.7510029660       -0.4864910093
 C          2.2619898470        0.5513939709       -0.0805130149
 C          2.2399138752       -1.8707424206        0.2951882834
 C          0.9504815912       -1.1790473172        0.7676241579
 C          1.6601229608        1.3135954622       -1.2616854249
 H          2.9195863802       -0.9080193543       -1.5646109451
 H          2.9411330021        1.2264443200        0.4518471747
 H          2.0056084648       -2.7281708824       -0.3410787376
 H          0.6860114569       -1.5073804633        1.7790456893
 H          0.8941640335        0.7068378969       -1.7539749689
 H          2.4374053955        1.6037743042       -1.9699415168
 H          4.4779990819       -0.7560666058        0.7667328542
 H          3.6386091434       -2.9091707462        1.1851872029
 H         -0.4509639063        4.6113768465       -0.1017619565
 H          0.3725565694        1.8528383112        1.9588818601
  35
        -70.95996167
 N         -0.1466011773       -1.5010545696       -0.1763673637
 N         -1.6711963232       -2.0840551996       -1.7118025255
 N         -3.6336416614       -1.4905139276       -0.4134301077
 N         -3.1515532285       -0.6756243233        1.7735467874
 C         -1.3709936616       -1.2434202375        0.3809285741
 C         -2.3252587149       -1.6079172661       -0.6126208679
 C         -1.8433717655       -0.7838931524        1.5934472599
 C         -0.4069957811       -1.9849216881       -1.4194734271
 C         -3.9581183567       -1.0154763034        0.7741130707
 H         -1.2055538065       -0.5066161339        2.4197933063
 H          0.3672354197       -2.3086451358       -2.0863484314
 H         -5.0164070450       -0.9011029867        0.9629401445
 P         -0.4005670228        2.1986401851       -0.3655944241
 O          1.1095403341        0.1501375306        0.8975117217
 O          3.9352198568       -1.0137282718        1.2150336465
 O          2.8112566520       -2.6152177698       -0.6342852892
 O          1.1022307519        2.7124190338       -0.0751359160
 O         -1.0894765315        3.5193942490       -0.8989719165
 O         -1.0738090960        1.9213150318        1.0326620160
 O         -0.5085177631        1.0957458661       -1.3227563095
 C          3.3149300044       -0.3358424465        0.1575361438
 C          2.3653997820        0.7770696241        0.6292531059
 C          2.3275997883       -1.3251050679       -0.4960942359
 C          1.1116251401       -1.1898929621        0.4464918545
 C          2.1764660508        1.8676934297       -0.4309133825
 H          4.0439323047        0.0365056362       -0.5673361228
 H          2.6895154674        1.2289619393        1.5724099006
 H          2.0465113420       -0.9630115236       -1.4889964200
 H          1.2355280507       -1.8536226746        1.3200630812
 H          1.9575387344        1.4064707332       -1.3978764915
 H          3.0577961168        2.5066971245       -0.4968846901
 H          4.7168676694       -0.5327097968        1.5221696533
 H          3.3638828019       -2.8248688210        0.1399193863
 H         -0.7429370583        4.3650876476       -0.5869616697
 H         -1.0200072765        2.6408121808        1.6756996859
  35
        -70.95985667
 N         -0.0983943090       -0.9621015565        1.0722331067
 N         -1.9105388033        0.2000100572        1.6889306397
 N         -3.4837489995       -0.8882682968        0.2070337783
 N         -2.5255686987       -2.5750066987       -1.1738270704
 C         -1.1334015728       -1.4352008958        0.3090065838
 C         -2.2766497409       -0.6862080730        0.7192763073
 C         -1.3163413269       -2.4015124467       -0.6627743448
 C         -0.6311490631        0.0011126594        1.8576834875
 C         -3.5226431852       -1.8202178066       -0.7250283994
 H         -0.5265475918       -3.0387916557       -1.0378082711
 H         -0.0351134400        0.5343462263        2.5729961140
 H         -4.4892029628       -2.0037935335       -1.1726533104
 P         -0.6516055986        2.1449570437       -0.6294661029
 O          2.0694623197       -0.2955626364        1.6128507162
 O          4.1477561046       -1.0953793438       -0.3959622885
 O          2.1222656413       -2.6496518819       -0.9005150059
 O          0.6524797636        1.2688656474       -0.4203535991
 O         -0.0721577101        3.3824993099       -1.4236661680
 O         -1.0375278361        2.7901811660        0.7665045293
 O         -1.6912558919        1.3568884795       -1.3025434610
 C          2.9658976712       -0.3607186577       -0.5554196834
 C          2.6809324624        0.5576498241        0.6484129720
 C          1.7861452804       -1.3624313180       -0.5051354562
 C          1.3173536808       -1.2841014452        0.9786467318
 C          1.7988781576        1.7570270838        0.2793694382
 H          2.9544083597        0.1970084755       -1.4948647278
 H          3.5986776377        0.9212259921        1.1166987785
 H          0.9780967591       -1.0115500856       -1.1535428032
 H          1.4927660623       -2.2409302542        1.4897127199
 H          2.3457196825        2.4440892736       -0.3694008362
 H          1.4790293638        2.2833866629        1.1810389035
 H          4.9156979480       -0.5787779942       -0.6762055155
 H          3.0707155606       -2.7876047942       -0.7168999047
 H         -0.7213636865        4.0292616122       -1.7218410822
 H         -1.7753217301        2.3575329494        1.2166914085
  35
        -70.95976378
 N         -0.1455557855       -1.4102771350       -0.2870007332
 N         -1.7111482863       -1.5250584899       -1.8856120617
 N         -3.6273075266       -1.1749344492       -0.4420345339
 N         -3.0909458231       -0.9684215200        1.8701299781
 C         -1.3487069091       -1.2532126855        0.3467316245
 C         -2.3281574170       -1.3090213959       -0.6877880860
 C         -1.7926102403       -1.0878781326        1.6449245896
 C         -0.4406699755       -1.5722010417       -1.6036578717
 C         -3.9198094763       -1.0016370774        0.8318241468
 H         -1.1334683617       -1.0509821497        2.5003105140
 H          0.3211640063       -1.7492688759       -2.3375979494
 H         -4.9689332128       -0.8833852444        1.0648963244
 P         -0.3780450784        2.0833032473       -0.4926996235
 O          1.1587410625       -0.7248111557        1.5252852416
 O          4.1297938348       -0.9153584295        0.8404138220
 O          2.9363694272       -1.7378589390       -1.3633347301
 O          1.1566078948        1.9564311785       -0.0228961294
 O         -0.3668816013        1.3328740928       -1.8671742549
 O         -0.5406091130        3.5968296309       -0.9237636517
 O         -1.3355828384        1.6102357518        0.5154012843
 C          3.1273882478       -0.0363601039        0.4065064327
 C          2.1281625938        0.3235964713        1.5186019907
 C          2.2458965353       -0.8123384515       -0.5952989133
 C          1.1674043066       -1.4431585415        0.3247356731
 C          1.4800694297        1.7025109299        1.3351159075
 H          3.5460247162        0.8614483853       -0.0556255619
 H          2.5954415172        0.2969771801        2.5080053450
 H          1.7567186676       -0.1112450841       -1.2766072103
 H          1.4196867908       -2.4941277843        0.5437789629
 H          2.1762457777        2.4826405274        1.6498228756
 H          0.5696858306        1.7349093294        1.9396146276
 H          4.8349049699       -0.4341962112        1.2951128698
 H          3.6795198704       -2.0826783878       -0.8353352825
 H         -0.1701882814        1.8996022070       -2.6250085826
 H         -0.9607592580        4.1729532700       -0.2767181448
  35
        -70.95976321
 N         -0.0391124699       -1.4341232536       -0.3075349528
 N         -1.5978744599       -1.4359151296       -1.9182341196
 N         -3.4922628832       -0.9312496651       -0.4934716716
 N         -2.9644742377       -0.7746680055        1.8238056035
 C         -1.2315334530       -1.1752233006        0.3144612169
 C         -2.2048973459       -1.1603864552       -0.7280497965
 C         -1.6770921411       -0.9893609615        1.6098332630
 C         -0.3374212952       -1.5834304177       -1.6248163886
 C         -3.7821936734       -0.7358867441        0.7774771808
 H         -1.0288754282       -1.0166416922        2.4745465903
 H          0.4108329007       -1.8294290248       -2.3529128098
 H         -4.8213074835       -0.5381188070        1.0012435520
 P         -0.6151288132        2.0766658510       -0.4860258447
 O          1.2928245500       -0.9387408285        1.5563883005
 O          4.2337925530       -0.8120115360        0.9289163024
 O          3.1815502910       -1.9196737055       -1.1913904330
 O          0.8331130014        1.4732646136       -0.1576791885
 O         -0.8515035486        1.5389516500       -1.9347765885
 O         -0.3409316185        3.6337230947       -0.6386454811
 O         -1.6505493317        1.7490188995        0.5023205573
 C          3.1608623433       -0.0635749047        0.4271537058
 C          2.0972534186        0.2350904241        1.4992264628
 C          2.3916301060       -0.9665060456       -0.5654284843
 C          1.2656482155       -1.5804306443        0.3170436348
 C          1.2754849451        1.4924461684        1.1949875229
 H          3.4999287461        0.8519877860       -0.0639340042
 H          2.5343595629        0.3390308258        2.4959243779
 H          1.9345537602       -0.3486807596       -1.3423088925
 H          1.4475926279       -2.6529655156        0.4828670144
 H          1.8884326158        2.3838695879        1.3484234577
 H          0.4038793904        1.5228883298        1.8555672281
 H          4.8714905094       -0.2395988651        1.3770495145
 H          3.9126671697       -2.1542620992       -0.5907581019
 H         -0.4214237534        2.0372987173       -2.6429247127
 H         -0.9931145094        4.2037318745       -0.2169615203
  35
        -70.95975648
 N         -0.1256532465       -0.9253073512        1.0093084992
 N         -1.9799383590        0.0704571948        1.7758132764
 N         -3.5333401966       -0.9736304726        0.2417190073
 N         -2.5302169110       -2.4981131018       -1.2885247771
 C         -1.1561821861       -1.3986318673        0.2418293132
 C         -2.3251839578       -0.7483174033        0.7426509284
 C         -1.3176823003       -2.3000407639       -0.7929041760
 C         -0.6886273858       -0.0590134622        1.8875406347
 C         -3.5498527627       -1.8298592996       -0.7611229977
 H         -0.5099514729       -2.8718462871       -1.2302977376
 H         -0.1022472722        0.4535350456        2.6250039473
 H         -4.5176451682       -2.0254022491       -1.2013946399
 P         -0.6226979508        2.1427602409       -0.5886439065
 O          2.0529181077       -0.3128882566        1.6056975535
 O          4.1988281073       -1.0779104841       -0.3716977450
 O          2.1150493800       -2.6030233606       -0.9531757935
 O          0.7202685413        1.3142447562       -0.4507447921
 O         -0.2440425909        3.4403493282       -1.4288093195
 O         -0.8455817882        2.7207148435        0.8570381831
 O         -1.6689969779        1.3155170097       -1.2027753643
 C          3.0109633643       -0.3551988740       -0.5226001515
 C          2.7017164621        0.5538206396        0.6743330032
 C          1.7898304200       -1.3127860860       -0.5453049777
 C          1.2844048371       -1.2633329040        0.9256363101
 C          1.8464022142        1.7688962274        0.3006935146
 H          3.1003905863        0.1975339348       -1.4575550933
 H          3.6091838026        0.9097895276        1.1687865826
 H          1.0121572535       -0.9149039194       -1.2045702831
 H          1.4290604060       -2.2397772630        1.4117806246
 H          2.4284458491        2.4614739238       -0.3111461830
 H          1.5028978934        2.2732005365        1.2048909388
 H          4.2986770848       -1.3704208548        0.5479934289
 H          3.0893402171       -2.6691976465       -1.0082180179
 H         -0.5205431121        3.4153044996       -2.3502978200
 H         -1.6322603507        3.2645745927        0.9742731863
  35
        -70.95971063
 N         -0.1386121858       -0.9125727411        1.0046961472
 N         -2.0104284337        0.0564916862        1.7637209562
 N         -3.5443893198       -1.0221627671        0.2340878547
 N         -2.5147728692       -2.5401289596       -1.2852202541
 C         -1.1603478068       -1.4089354465        0.2401016939
 C         -2.3406828530       -0.7744730795        0.7355106353
 C         -1.3059897762       -2.3189100772       -0.7896931350
 C         -0.7168740588       -0.0510301839        1.8771248609
 C         -3.5457644493       -1.8854629431       -0.7629006639
 H         -0.4881024771       -2.8791698724       -1.2230381217
 H         -0.1381312636        0.4750501789        2.6110487660
 H         -4.5098483472       -2.0995243666       -1.2027580408
 P         -0.6035296168        2.1552130575       -0.5749719953
 O          2.0230999390       -0.2556757261        1.5970096051
 O          4.1454258431       -1.1594224424       -0.3152890381
 O          2.0686357534       -2.5996604046       -0.9509143855
 O          0.7583152503        1.3524611522       -0.4856677962
 O         -0.2759298155        3.4705596944       -1.4101663459
 O         -0.7985760856        2.7136329471        0.8827354135
 O         -1.6487657366        1.3136411894       -1.1712136870
 C          3.0117791721       -0.3645711166       -0.5297854575
 C          2.7136100021        0.5669808812        0.6596460830
 C          1.7836694323       -1.3057078596       -0.5360375674
 C          1.2779856524       -1.2317275643        0.9342085271
 C          1.8941115934        1.7985755794        0.2569888110
 H          3.0780153494        0.1899552821       -1.4694530837
 H          3.6233401476        0.8944684257        1.1687381178
 H          1.0110531466       -0.9040988632       -1.1973692405
 H          1.4375507935       -2.1952379305        1.4408043372
 H          2.4906524152        2.4633623541       -0.3716213006
 H          1.5628681201        2.3301526630        1.1496318043
 H          4.9533460903       -0.6610823407       -0.5007714707
 H          2.9981317116       -2.7929398303       -0.7270686167
 H         -0.5884543877        3.4561844166       -2.3203475677
 H         -1.5837446348        3.2548174759        1.0212696176
  35
        -70.95969215
 N         -0.2463496556       -0.9443029259        1.1021596972
 N         -2.0564436593        0.1706032042        1.8120380701
 N         -3.6544789166       -0.8840278699        0.3317797616
 N         -2.7371011237       -2.5856932161       -1.0566805084
 C         -1.3002210762       -1.4255258518        0.3714650552
 C         -2.4374020633       -0.6886768898        0.8250215498
 C         -1.5152755988       -2.4082986521       -0.5762537993
 C         -0.7725171998       -0.0112954144        1.9350218298
 C         -3.7180396654       -1.8162329159       -0.5991750934
 H         -0.7457248603       -3.0680121610       -0.9545026049
 H         -0.1667373314        0.5021958781        2.6548872706
 H         -4.6932089337       -1.9898891831       -1.0319055251
 P         -0.2354763209        1.9428468389       -0.7254268914
 O          1.9587067240       -0.3706257750        1.6475306959
 O          3.7985122195       -0.4121718961       -1.0897128335
 O          2.3252886382       -2.5497507752       -0.7578262535
 O          0.5653511951        1.9562485456        0.6453768240
 O          0.5862193047        2.9900153230       -1.5987674606
 O         -1.5893135629        2.6078835418       -0.3131226484
 O         -0.4466757742        0.6506772123       -1.3981983490
 C          2.5017103618       -0.1013596815       -0.6667663719
 C          2.5805774403        0.5292187104        0.7319717467
 C          1.6294417997       -1.3748256996       -0.4861373791
 C          1.1599122975       -1.3040716818        0.9905173110
 C          1.9771440529        1.9348987636        0.8077064976
 H          2.0083957710        0.5841529966       -1.3624661022
 H          3.6339536232        0.6006562295        1.0287215001
 H          0.7690974434       -1.3374925107       -1.1554557189
 H          1.3019058377       -2.2794768221        1.4790373085
 H          2.4520596734        2.5712687571        0.0586885892
 H          2.1413917602        2.3413605598        1.8079087433
 H          3.8002479230       -0.6363387628       -2.0324854746
 H          3.2616421293       -2.4284051167       -0.5134695467
 H          0.3204472916        3.0533674402       -2.5227892554
 H         -1.5402099919        3.4469505038        0.1646622436
  35
        -70.95967769
 N         -0.0281117092       -1.4319124257       -0.3175771731
 N         -1.5917358722       -1.4088830081       -1.9230754782
 N         -3.4746842622       -0.8827129689       -0.4916802183
 N         -2.9387640758       -0.7400548111        1.8241365863
 C         -1.2145019272       -1.1558658112        0.3088619757
 C         -2.1910607438       -1.1260363244       -0.7307211554
 C         -1.6547955600       -0.9702630027        1.6060136819
 C         -0.3328185593       -1.5744006583       -1.6343285028
 C         -3.7588287324       -0.6868639232        0.7805752964
 H         -1.0070413087       -1.0116547924        2.4706429544
 H          0.4095106765       -1.8299794636       -2.3651747389
 H         -4.7947619251       -0.4772567639        1.0079858365
 P         -0.6413177412        2.0712470305       -0.4951353349
 O          1.3211985220       -1.0007745226        1.5576216620
 O          4.2785169103       -0.7240881624        0.9594488293
 O          3.2304206170       -1.9328128076       -1.1530436464
 O          0.7782626864        1.4030400447       -0.1636142020
 O         -0.8969749540        1.5511983765       -1.9464693730
 O         -0.2975181946        3.6149928702       -0.6374698145
 O         -1.6926921840        1.7834411246        0.4889694998
 C          3.1545389992       -0.0685988769        0.4459902498
 C          2.0775661185        0.2075794508        1.5027494392
 C          2.4086579296       -0.9766324689       -0.5668082561
 C          1.2768434480       -1.6054930955        0.2971043963
 C          1.2196051578        1.4367929623        1.1890546492
 H          3.5175293140        0.8435230128       -0.0272593080
 H          2.5044708081        0.3433716948        2.5001753318
 H          1.9582248756       -0.3633698513       -1.3524411041
 H          1.4466402571       -2.6845334674        0.4298812100
 H          1.8107784645        2.3427330610        1.3428728954
 H          0.3459025801        1.4492127551        1.8480640889
 H          4.0121762372       -1.3839812957        1.6183101261
 H          4.0854815624       -1.9328144828       -0.6792102219
 H         -0.4474338630        2.0365729500       -2.6513693529
 H         -0.9284672741        4.2116328964       -0.2204414024
  35
        -70.95965163
 N         -0.3401485255       -1.5447098439       -0.1559763726
 N         -1.9074152691       -2.1501291181       -1.6377617994
 N         -3.8336601252       -1.5682623895       -0.2829831236
 N         -3.2926368243       -0.7219225546        1.8766487218
 C         -1.5483399743       -1.2888278772        0.4371853413
 C         -2.5308137019       -1.6731431983       -0.5217177772
 C         -1.9901563261       -0.8134261103        1.6568227092
 C         -0.6351183721       -2.0444618133       -1.3839663660
 C         -4.1278280987       -1.0887299345        0.9099802656
 H         -1.3300762193       -0.5055664180        2.4545572588
 H          0.1160353789       -2.3647269763       -2.0769454266
 H         -5.1805651079       -0.9886556405        1.1334906184
 P          0.0233894357        2.0210752115       -0.5986253918
 O          0.8311452091        0.0112897333        1.0779737816
 O          4.2462257697       -0.2067790452        0.2123210467
 O          2.8476107248       -2.3349108143       -0.4727159735
 O          1.3012696392        2.6226903831        0.1709027402
 O         -0.4184601376        3.3397317265       -1.3553660557
 O         -1.1496145173        1.8269997680        0.4306090783
 O          0.2800713718        0.8920161858       -1.5065011160
 C          2.9139236926        0.0861724820       -0.0642368408
 C          2.1321262213        0.5646958418        1.1793616927
 C          2.1068470016       -1.1517387711       -0.5581008915
 C          0.9320178381       -1.2380276437        0.4353818477
 C          1.9753949766        2.0721715163        1.2857865265
 H          2.9067943458        0.8674706892       -0.8272640339
 H          2.6289856779        0.1875407571        2.0853671034
 H          1.7271272678       -0.9655577403       -1.5643915554
 H          1.1754798292       -2.0178636809        1.1820297719
 H          2.9565649630        2.5508545111        1.3087487528
 H          1.4161869453        2.3046873637        2.1957881198
 H          4.3024224438       -1.1004228388        0.5955244764
 H          3.4715220243       -2.3875249005       -1.2128957639
 H          0.0590976617        3.5292715885       -2.1691813883
 H         -1.5138762547        2.6679612218        0.7380518781
  35
        -70.95964706
 N         -0.1780597770       -1.4615117551       -0.0881751395
 N         -1.3973012619       -1.7791860565       -1.9468308224
 N         -3.5779811991       -1.5867723085       -0.9064565708
 N         -3.5142638615       -1.1696924746        1.4364676989
 C         -1.4943699922       -1.3821185791        0.2916202972
 C         -2.2511543465       -1.5879391886       -0.8976854215
 C         -2.1906411747       -1.1728216323        1.4651109130
 C         -0.2081393675       -1.6771450388       -1.4336442308
 C         -4.1250416726       -1.3670930123        0.2737450400
 H         -1.7267376740       -1.0083501269        2.4275966556
 H          0.6801712369       -1.7868649788       -2.0236126867
 H         -5.2054311804       -1.3505130516        0.2999088471
 P         -0.3334655229        2.4444164555        0.0086611379
 O          1.2348210516        0.2007690273        0.8329685175
 O          4.3269257991       -0.7926146068       -0.2104570605
 O          2.9773095159       -2.2255999130        1.4501557807
 O          1.0764071585        2.5266596596       -0.7711755946
 O         -0.9687372092        3.8322999108       -0.3313777496
 O         -0.0054066663        2.6132827316        1.5491737376
 O         -1.1752951659        1.3073434134       -0.3884615400
 C          2.9662187311       -0.7660632930       -0.5199840436
 C          2.2672309450        0.5476521512       -0.0892272702
 C          2.2512071376       -1.8608340128        0.3155727508
 C          0.9495791470       -1.1762338681        0.7693490220
 C          1.6635259862        1.3357659460       -1.2538391927
 H          2.7977723674       -0.9436110251       -1.5870698932
 H          2.9639262948        1.1924965142        0.4582509425
 H          2.0373511665       -2.7545430495       -0.2849297534
 H          0.6845665764       -1.4984347894        1.7821331287
 H          0.8938459020        0.7368507455       -1.7511298363
 H          2.4295694044        1.6467556781       -1.9652506358
 H          4.8526177365       -0.3587182540       -0.8957453660
 H          3.9182047421       -2.0240685960        1.2930528168
 H         -0.4671554600        4.6060436716       -0.0430415965
 H          0.3704849342        1.8341627739        1.9715329254
  35
        -70.95958652
 N         -0.1542892538       -1.4731349168       -0.2038572181
 N         -1.7064358255       -1.9545211267       -1.7485262773
 N         -3.6465140021       -1.4373140972       -0.3855596896
 N         -3.1256692828       -0.7330624304        1.8304662524
 C         -1.3706749676       -1.2433101968        0.3850714097
 C         -2.3418598132       -1.5474387933       -0.6113507501
 C         -1.8211517988       -0.8365134321        1.6249778160
 C         -0.4383482407       -1.8720082706       -1.4722639592
 C         -3.9502409421       -1.0240741753        0.8299945208
 H         -1.1691642421       -0.5904087408        2.4505751870
 H          0.3143562770       -2.1410814842       -2.1850528080
 H         -5.0046909011       -0.9174284368        1.0429575858
 P         -0.3972350671        2.1667875454       -0.3880065937
 O          1.1123808461        0.1772312132        0.8446188173
 O          4.0012880144       -0.8515042936        1.2599230732
 O          2.8010926353       -2.7015876581       -0.2999907391
 O          1.1138026953        2.6962562166       -0.1841823835
 O         -1.1341461108        3.5181138640       -0.7651628703
 O         -1.0159386145        1.8800125600        1.0222809665
 O         -0.5130612108        1.0929950060       -1.3855104925
 C          3.3215132602       -0.3470259309        0.1462089949
 C          2.3736052818        0.7831758234        0.5631312393
 C          2.3420744443       -1.3926660105       -0.4405786328
 C          1.0993274623       -1.1758166575        0.4380870189
 C          2.1800091711        1.8378029131       -0.5299352243
 H          4.0446457331        0.0021895568       -0.6018935145
 H          2.7144667856        1.2577111483        1.4887889377
 H          2.1076346789       -1.1299622455       -1.4762657442
 H          1.1754759088       -1.8158117108        1.3342159786
 H          1.9410444259        1.3444146148       -1.4769135697
 H          3.0638340422        2.4680226860       -0.6292040676
 H          4.0109283121       -1.8247065833        1.2050895278
 H          3.3963993414       -2.9358223335       -1.0283381944
 H         -1.0259669594        3.8243104539       -1.6714465873
 H         -1.0507184392        2.6602710634        1.5917795732
  35
        -70.95957672
 N         -0.3243956603       -1.3157045780        0.9036497474
 N         -2.4298072187       -1.4514466496        1.6766494527
 N         -3.5317065509       -1.6086407455       -0.4659078905
 N         -2.0724989003       -1.5734801903       -2.3397266392
 C         -1.1339055136       -1.4109530365       -0.2021009258
 C         -2.4660711015       -1.4947462867        0.3138499362
 C         -0.9948657107       -1.4731158194       -1.5750680829
 C         -1.1730038159       -1.3246815095        1.9712090000
 C         -3.2631188753       -1.6253045382       -1.7571482514
 H         -0.0494322708       -1.4527924546       -2.0995808602
 H         -0.8136338877       -1.2557410318        2.9794540891
 H         -4.1126547561       -1.7025669088       -2.4205726959
 P         -0.3455907996        2.5246326058        0.3481030641
 O          1.4001041701        0.2998256463        0.8403488557
 O          3.9732585209       -0.8589489426       -0.9000570959
 O          2.9249067495       -2.6311942072        0.6693951468
 O          0.8535085474        2.5589292986       -0.7309747717
 O         -1.0499985653        3.9005617048        0.1077452297
 O          0.3231737499        2.7517208949        1.7646380180
 O         -1.2520615985        1.3781755288        0.1938437784
 C          2.5766160641       -0.8122714992       -0.9356568862
 C          2.1158886702        0.5407691302       -0.3663010216
 C          1.9524726727       -1.8824891439        0.0140739929
 C          1.0939944002       -1.0660853715        1.0127272780
 C          1.2459398400        1.3444573947       -1.3342048164
 H          2.2015654399       -0.9345394748       -1.9554603000
 H          2.9935447304        1.1404596936       -0.0969167261
 H          1.3193644390       -2.5907875704       -0.5258040415
 H          1.3703258036       -1.3380360128        2.0403608731
 H          0.3492572862        0.7741253739       -1.5932073350
 H          1.8074438963        1.6127405406       -2.2297932526
 H          4.3106254027       -1.5233100174       -1.5193652883
 H          3.7418479648       -2.0993274336        0.7303644372
 H         -0.4960381017        4.6842042507        0.2192452422
 H          0.8400139404        2.0102850282        2.0964171418
  35
        -70.95956586
 N         -0.1355766350       -1.4798002723       -0.2109846597
 N         -1.6694609321       -1.9652203171       -1.7726176727
 N         -3.6243440301       -1.4087290567       -0.4473088865
 N         -3.1299173686       -0.6808320890        1.7671130113
 C         -1.3586993470       -1.2306018476        0.3562866330
 C         -2.3179111877       -1.5360076228       -0.6512539815
 C         -1.8235209472       -0.8011792364        1.5828973676
 C         -0.4047868123       -1.8956897976       -1.4771454647
 C         -3.9420512354       -0.9764775078        0.7581356736
 H         -1.1831416447       -0.5498633882        2.4159072934
 H          0.3550665072       -2.1882094796       -2.1735597353
 H         -4.9984591287       -0.8559086585        0.9533325419
 P         -0.4637102184        2.1917679912       -0.3411713628
 O          1.1559185474        0.1316315118        0.8870255178
 O          4.2088639006       -0.7458090929        1.0966097514
 O          2.8255222111       -2.7822669131       -0.0595447663
 O          1.0819814723        2.6507488565       -0.2925231383
 O         -1.1759474400        3.5651406491       -0.6729541312
 O         -0.9493143065        1.9422666799        1.1261068066
 O         -0.7091461722        1.0979274083       -1.2916630050
 C          3.3405928479       -0.3636252773        0.0760102272
 C          2.3665006693        0.7609313933        0.4696563079
 C          2.3730647415       -1.4985617176       -0.3586183764
 C          1.1089126229       -1.2174477413        0.4710878358
 C          2.0709372861        1.7210594502       -0.6847605187
 H          3.9850035627       -0.0486249827       -0.7471284506
 H          2.7340337997        1.3334711519        1.3273419572
 H          2.1527731362       -1.3790576393       -1.4263013257
 H          1.1175441437       -1.8580614188        1.3695483448
 H          1.7034248608        1.1576021699       -1.5478675884
 H          2.9550693973        2.3035186697       -0.9450682757
 H          3.7255215463       -1.1525948633        1.8308613275
 H          3.6756814492       -2.9484231726       -0.4951970068
 H         -1.1281543497        3.8615529429       -1.5878482312
 H         -0.9302807235        2.7313277587        1.6839285081
  35
        -70.95930722
 N         -0.1681876051       -1.4850134365       -0.0799088014
 N         -1.3657520456       -1.8229595540       -1.9483291576
 N         -3.5579381946       -1.5695927929       -0.9456522709
 N         -3.5219591448       -1.1078946472        1.3889575385
 C         -1.4894668145       -1.3748934797        0.2787420718
 C         -2.2319104573       -1.5931590438       -0.9166742811
 C         -2.1993122783       -1.1316159015        1.4373238791
 C         -0.1824166631       -1.7310377231       -1.4218076202
 C         -4.1189481485       -1.3168747138        0.2214346044
 H         -1.7498654063       -0.9543701493        2.4043162303
 H          0.7121599672       -1.8711714106       -1.9954259509
 H         -5.1991990018       -1.2827224515        0.2309635451
 P         -0.3397755008        2.4498333303        0.0206590869
 O          1.2379214604        0.1786954720        0.8702571037
 O          4.3146767155       -0.7473051671       -0.3761207853
 O          3.0701139902       -2.1923633041        1.4483598412
 O          1.0683751772        2.5155658857       -0.7617732935
 O         -0.9742260105        3.8350730054       -0.3273822270
 O         -0.0030737927        2.6260239231        1.5591777909
 O         -1.1837434001        1.3071127203       -0.3553392775
 C          2.9312603055       -0.7884203822       -0.5317412120
 C          2.2491385179        0.5264922173       -0.0793205091
 C          2.2591468621       -1.8702631608        0.3596249628
 C          0.9445269777       -1.1998348906        0.7962187218
 C          1.6359043742        1.3123291900       -1.2366712227
 H          2.7147459276       -0.9660126002       -1.5909354933
 H          2.9655036355        1.1723743757        0.4401012992
 H          2.0898762112       -2.8058957693       -0.1745492534
 H          0.6419572484       -1.5164728208        1.8010685281
 H          0.8551053363        0.7185977213       -1.7225420260
 H          2.4060242675        1.5963841119       -1.9549838955
 H          4.5711183773       -1.3745364117        0.3272124310
 H          3.1170006036       -1.4513677738        2.0737718413
 H         -0.4619706087        4.6113282965       -0.0659328525
 H          0.3605865401        1.8433767235        1.9853029767
  35
        -70.95917973
 N         -0.7144755988       -0.8127915311        0.9493237885
 N         -2.7986769904       -0.0575438827        1.2659364472
 N         -3.9398028880       -1.8328282427        0.0765591070
 N         -2.5024939584       -3.5212462982       -0.7888474273
 C         -1.5406039318       -1.7113071188        0.3288093022
 C         -2.8619626308       -1.2076601075        0.5366619742
 C         -1.4139780384       -2.9178425154       -0.3343927075
 C         -1.5286147026        0.1363950405        1.4777698905
 C         -3.6830253028       -2.9510167214       -0.5747900128
 H         -0.4714430540       -3.4214407961       -0.4956933512
 H         -1.1363985645        0.9663085989        2.0284729673
 H         -4.5402345143       -3.4765916425       -0.9711462258
 P          0.2996392119        2.3893303797       -0.6349780695
 O          1.1718393198        0.4858509760        1.2490054071
 O          3.7932453336       -0.9258769938       -0.6613486738
 O          1.7975491197       -2.5963009135       -0.2099575170
 O          1.8950561092        2.5968209558       -0.5581808159
 O         -0.0608381322        3.6134505827       -1.5679775692
 O         -0.3067917330        2.8188965000        0.7468807909
 O         -0.1481562576        1.0917118530       -1.1668459340
 C          2.5673329792       -0.2838988974       -0.5143211702
 C          2.4892917294        0.6165787454        0.7362533535
 C          1.3758381910       -1.2695501195       -0.3389613869
 C          0.7221324923       -0.8180907062        0.9845120059
 C          2.7376715628        2.0906544734        0.4587970719
 H          2.4226859723        0.3171648409       -1.4139054603
 H          3.2118045437        0.2656599534        1.4882126075
 H          0.6586108373       -1.1461197934       -1.1576616138
 H          1.0607411430       -1.5069453865        1.7821576025
 H          3.7570155420        2.2365773325        0.0962772695
 H          2.5738682029        2.6503679203        1.3831886556
 H          3.9191037432       -1.5671233972        0.0580985156
 H          2.3026570184       -2.8441512200       -1.0016539743
 H          0.0394735332        3.4589443291       -2.5121293234
 H         -0.3648886835        3.7760751326        0.8703371363
  35
        -70.95916545
 N         -0.3160160128       -1.0082025026        0.9540352836
 N         -2.2908022863       -0.4717817898        1.8745615716
 N         -3.6939752843       -1.4648281181        0.1776318798
 N         -2.5137381861       -2.5803074925       -1.5577965712
 C         -1.2751347021       -1.5023976404        0.1064467456
 C         -2.5212581078       -1.1431238758        0.7093106875
 C         -1.3330245330       -2.2800156844       -1.0362127996
 C         -0.9966251357       -0.4049597409        1.9664823998
 C         -3.6097543657       -2.1467624029       -0.9483590839
 H         -0.4713772496       -2.6996892718       -1.5353151145
 H         -0.4832330553        0.0741382271        2.7756187662
 H         -4.5476518230       -2.4063707603       -1.4189225510
 P         -0.2067636197        2.3551068972       -0.2157556993
 O          1.4928313378        0.4523702859        0.9051446241
 O          3.9216993650       -1.3386437679        0.2258361924
 O          1.8092571495       -2.7700129061       -0.6538342960
 O          1.3444774817        2.7283076089       -0.4712792111
 O         -0.9379488731        3.6534134047       -0.7518108166
 O         -0.4415752580        2.3629856580        1.3408137809
 O         -0.6754421493        1.1482194538       -0.9024069146
 C          3.0149257094       -0.6245252875       -0.5681862684
 C          2.6014283240        0.7233959459        0.0451651154
 C          1.6794550992       -1.3969261734       -0.5325771105
 C          1.1111805296       -0.9074605700        0.8141240228
 C          2.1752532367        1.7340283538       -1.0303372265
 H          3.3807979750       -0.5065574316       -1.5919133061
 H          3.3858384865        1.1517206356        0.6781098892
 H          1.0226621760       -1.0397656934       -1.3308160622
 H          1.5804602676       -1.4636703936        1.6442550731
 H          1.6228350265        1.2167702386       -1.8198882239
 H          3.0400039841        2.2537021985       -1.4438621576
 H          4.8271873802       -1.0323944907        0.0741455803
 H          2.6046464192       -3.0512554438       -0.1664625755
 H         -0.4829708982        4.4998092026       -0.6531544087
 H         -0.1098144872        3.1325105689        1.8219811899
  35
        -70.95912507
 N         -0.1357906880       -1.4868636703       -0.0733474026
 N         -1.4044955912       -1.8720897625       -1.8845439013
 N         -3.5518747615       -1.4775457269       -0.8282771198
 N         -3.4139932569       -0.8521591706        1.4665594376
 C         -1.4375276491       -1.3017010697        0.3173927469
 C         -2.2269349635       -1.5566310360       -0.8406450461
 C         -2.0921125032       -0.9329221800        1.4753090741
 C         -0.2015163289       -1.7933757276       -1.3982984236
 C         -4.0587550657       -1.1235810385        0.3372315645
 H         -1.5923421371       -0.6875460955        2.4018863007
 H          0.6687850768       -1.9843399172       -1.9943265120
 H         -5.1359806814       -1.0443887526        0.3802791888
 P         -0.4460126590        2.3206285223       -0.0544753876
 O          1.2599689279        0.1684547669        0.8515170537
 O          4.3602731643       -0.8065856075       -0.3694768004
 O          3.0728639775       -2.2086222219        1.3957211292
 O          1.0978959567        2.5608658203       -0.4555818042
 O         -1.0598104085        3.7503444061       -0.3318113015
 O         -0.5471064202        2.1218707903        1.5045249649
 O         -1.1068805583        1.2535534948       -0.8102823975
 C          2.9790506657       -0.7370117487       -0.5558317081
 C          2.3399641035        0.5555684732        0.0064754414
 C          2.3117238746       -1.8594922516        0.2783041218
 C          1.0085041125       -1.2095825931        0.7675918303
 C          1.7979419412        1.4970237215       -1.0697648254
 H          2.7094456290       -0.8529072424       -1.6113167246
 H          3.0560020530        1.0915778574        0.6412430426
 H          2.1110506278       -2.7537160902       -0.3260191940
 H          0.7645766056       -1.5571315600        1.7784653232
 H          1.1072568993        0.9526719893       -1.7226602390
 H          2.6010417545        1.9533395719       -1.6491552580
 H          4.8343995688       -0.3253990097       -1.0611220897
 H          4.0134489956       -2.0764000940        1.1781373189
 H         -0.4647110837        4.5088348041       -0.2698145999
 H         -0.1103762766        2.7734499402        2.0679983289
  35
        -70.95904477
 N         -0.2299589448       -0.9764952899        1.0894794582
 N         -2.0317945203        0.0916148887        1.8869086847
 N         -3.6491173484       -0.8851861349        0.3736276036
 N         -2.7490262396       -2.5075510819       -1.1166866162
 C         -1.2935154505       -1.4199669410        0.3494434287
 C         -2.4256260238       -0.7129198431        0.8592194730
 C         -1.5214749841       -2.3531180251       -0.6437335189
 C         -0.7458261604       -0.0916388605        1.9800401498
 C         -3.7244182409       -1.7648790437       -0.6062709912
 H         -0.7584280345       -2.9953096306       -1.0616264506
 H         -0.1295696829        0.3858096656        2.7156262003
 H         -4.7052183086       -1.9165346406       -1.0344176939
 P         -0.2402618721        1.9503173991       -0.7247023447
 O          1.9782085850       -0.4282464162        1.6400589715
 O          3.8203629315       -0.3974051807       -1.1300499323
 O          2.2925893612       -2.5116653546       -0.8016469239
 O          0.5183926788        1.8920508597        0.6683837315
 O          0.5991425192        3.0399124776       -1.5224701850
 O         -1.6096385136        2.5893893054       -0.3189527161
 O         -0.4309313242        0.6885409798       -1.4578710574
 C          2.5521071598       -0.0723713161       -0.6508167906
 C          2.5814367828        0.5285821267        0.7695998394
 C          1.6205371712       -1.3126616221       -0.5374415647
 C          1.1752663390       -1.3242700852        0.9386200833
 C          1.9246544209        1.9098269146        0.8720941307
 H          2.1330679348        0.6436255846       -1.3610804378
 H          3.6188524778        0.6411174807        1.1052595039
 H          0.7555694314       -1.1837975890       -1.1930723310
 H          1.3340939712       -2.3269091643        1.3626665212
 H          2.4001769794        2.5832996020        0.1565832439
 H          2.0473312240        2.2911249969        1.8884388077
 H          4.1670741669       -1.1588153215       -0.6344414356
 H          2.5691327816       -2.5283923010       -1.7313541197
 H          0.3807691960        3.1210499900       -2.4573715824
 H         -1.5765785447        3.4163357630        0.1805819011
  35
        -70.95904047
 N         -0.6927202661       -0.8489475719        0.9755560309
 N         -2.7702237104       -0.1113717753        1.3701675189
 N         -3.9339828603       -1.8116511794        0.0971655133
 N         -2.5133931087       -3.4403732548       -0.9015236982
 C         -1.5299832448       -1.7069619642        0.3138065034
 C         -2.8468021055       -1.2161764490        0.5751754300
 C         -1.4152420426       -2.8664358831       -0.4319418239
 C         -1.4960193291        0.0683819919        1.5712442176
 C         -3.6895422527       -2.8871143010       -0.6265028586
 H         -0.4750019091       -3.3515249272       -0.6554804089
 H         -1.0923149491        0.8657806271        2.1606319567
 H         -4.5542959888       -3.3885696912       -1.0376347441
 P          0.2805734290        2.3878990089       -0.6091081604
 O          1.1971631499        0.4464910132        1.2689076202
 O          3.7753905870       -0.9081636305       -0.6334203673
 O          1.8120360752       -2.5967207852       -0.3523111848
 O          1.8712513720        2.6242606347       -0.5168677227
 O         -0.0808375577        3.5459378427       -1.6159272335
 O         -0.3400438156        2.7840914046        0.7877008529
 O         -0.1804920918        1.0874683519       -1.1065148928
 C          2.5370980742       -0.2614585942       -0.5624774554
 C          2.4913036254        0.6005464625        0.7100194207
 C          1.3736475041       -1.2764542337       -0.3680201303
 C          0.7445281694       -0.8524633018        0.9872122716
 C          2.7234707125        2.0837654427        0.4764326770
 H          2.3395748615        0.3594742769       -1.4385977060
 H          3.2492509280        0.2187250019        1.4103782934
 H          0.6292655370       -1.1572266945       -1.1590291885
 H          1.0951215770       -1.5528731314        1.7689573591
 H          3.7394678315        2.2539633038        0.1156958305
 H          2.5596331954        2.6049576920        1.4226717699
 H          4.0052054735       -1.1027587530       -1.5536239077
 H          2.7741620277       -2.5938848131       -0.1716089524
 H          0.5262449827        4.2951327650       -1.6724707643
 H         -0.3548037441        3.7237450095        1.0112984035
  35
        -70.95901657
 N         -0.2984463856       -1.2788259175        0.9415937886
 N         -2.3974055606       -1.3359876877        1.7398167317
 N         -3.5247299411       -1.5442023607       -0.3862650081
 N         -2.0844757296       -1.5733038681       -2.2762379082
 C         -1.1212584237       -1.3882812514       -0.1520630981
 C         -2.4490072563       -1.4286697539        0.3795801312
 C         -0.9981342357       -1.4702221939       -1.5250255349
 C         -1.1340662935       -1.2259883335        2.0167449891
 C         -3.2688073506       -1.5998118022       -1.6790368574
 H         -0.0582229623       -1.4527989763       -2.0594060979
 H         -0.7595388454       -1.1184639051        3.0160404889
 H         -4.1263547221       -1.6834402340       -2.3314700027
 P         -0.3983693298        2.4617616109        0.2668368319
 O          1.4261192801        0.3125120759        0.8312712850
 O          3.9765157932       -0.9180395142       -0.9758953573
 O          2.9347301455       -2.6363197896        0.6657397715
 O          0.9596921461        2.5825641592       -0.5969235945
 O         -1.0322024340        3.8927086420        0.0429126639
 O         -0.0319409960        2.4136151492        1.7966724180
 O         -1.2790497175        1.3638475285       -0.1429500318
 C          2.5828000963       -0.8224358348       -0.9443058671
 C          2.1987688340        0.5384417457       -0.3382165874
 C          1.9604770790       -1.8796497158        0.0208139367
 C          1.1252730984       -1.0465255696        1.0254466710
 C          1.4028367519        1.4331971165       -1.2893968420
 H          2.1561212977       -0.9174631171       -1.9472961932
 H          3.1089644706        1.0653640660       -0.0244875192
 H          1.3120823676       -2.5851828205       -0.5046607061
 H          1.4128707812       -1.3102617124        2.0528272697
 H          0.5284662725        0.8919455061       -1.6642697728
 H          2.0263723625        1.7841402147       -2.1122781450
 H          4.2584902963       -1.6138721667       -1.5889240181
 H          3.7582560092       -2.1144273792        0.7143589104
 H         -0.4447760509        4.5954898522       -0.2628517255
 H          0.5363962209        3.1152737263        2.1388834672
  35
        -70.95901314
 N         -0.6592075306       -0.9169264874        0.9832084002
 N         -2.7231634927       -0.1816242523        1.4469563110
 N         -3.9218045899       -1.8029762111        0.1055954924
 N         -2.5312134115       -3.3833878935       -1.0061816492
 C         -1.5139026697       -1.7303465398        0.2894216930
 C         -2.8218465215       -1.2439074018        0.5976146793
 C         -1.4207328237       -2.8453876272       -0.5245723052
 C         -1.4439991046       -0.0244311615        1.6368926976
 C         -3.6984893224       -2.8385628925       -0.6799994051
 H         -0.4875748825       -3.3210005817       -0.7932903207
 H         -1.0167452942        0.7297261660        2.2669171057
 H         -4.5738755020       -3.3103977891       -1.1034778698
 P          0.2522526148        2.4193711277       -0.5819963983
 O          1.2067208729        0.3944832541        1.2858567524
 O          3.7981543727       -0.9197461080       -0.5970065647
 O          1.7978542778       -2.5838421704       -0.4899175012
 O          1.8378575225        2.5732157644       -0.5405091430
 O         -0.1044920564        3.5508029197       -1.6179795004
 O         -0.1992826196        2.9438757415        0.8477792853
 O         -0.3110211747        1.1347531495       -1.0230673331
 C          2.5684152232       -0.2529283972       -0.5558414147
 C          2.4938525934        0.5957895295        0.7265637437
 C          1.3870249039       -1.2576036679       -0.4158886638
 C          0.7774590104       -0.9039118841        0.9665962947
 C          2.6687473071        2.0892855597        0.5003330651
 H          2.4101227587        0.3819098292       -1.4299239358
 H          3.2644919614        0.2357459484        1.4240607910
 H          0.6383066029       -1.0736385359       -1.1905771273
 H          1.1542314267       -1.6259293622        1.7150331219
 H          3.6891872991        2.3121995467        0.1854940633
 H          2.4247861749        2.6090773894        1.4292893706
 H          4.0862500731       -1.0519228568       -1.5116652030
 H          2.7533697911       -2.6170552270       -0.2795866848
 H          0.2937241836        4.4179507182       -1.4656584450
 H         -1.1506511068        2.9441417448        0.9892848356
  35
        -70.95898186
 N         -0.1630400865       -1.4698549303       -0.2054246188
 N         -1.7165758254       -1.8736537491       -1.7727228187
 N         -3.6559739338       -1.4067519882       -0.3907721440
 N         -3.1336823324       -0.7766851246        1.8469336202
 C         -1.3803307029       -1.2522617097        0.3883978889
 C         -2.3517237082       -1.5128531694       -0.6195092038
 C         -1.8295324674       -0.8794534523        1.6393494216
 C         -0.4489857991       -1.8043587744       -1.4935712597
 C         -3.9590752109       -1.0346826506        0.8382397510
 H         -1.1774735053       -0.6565466621        2.4715589868
 H          0.3010725242       -2.0290159040       -2.2248753422
 H         -5.0132352321       -0.9329763558        1.0548180173
 P         -0.3969831886        2.1640295813       -0.3992102551
 O          1.1145505494        0.1754266671        0.8336349062
 O          3.9961943585       -0.8058011562        1.2909123818
 O          2.9149640180       -2.6993273810       -0.2294887140
 O          1.1216554967        2.6809944625       -0.2246452040
 O         -1.1285886353        3.5210637991       -0.7652664834
 O         -0.9988884515        1.8806074368        1.0192910869
 O         -0.5385481261        1.0889561335       -1.3918659594
 C          3.3207348294       -0.3666206542        0.1496636717
 C          2.3739560702        0.7727964569        0.5355085852
 C          2.3513869855       -1.4370040666       -0.4009382843
 C          1.0887502580       -1.1859540201        0.4515065526
 C          2.1747904341        1.8072641562       -0.5744482860
 H          4.0356530363       -0.0505412781       -0.6210524871
 H          2.7196257916        1.2648147890        1.4502903802
 H          2.1401351346       -1.2109254311       -1.4514445452
 H          1.1348125779       -1.8025079493        1.3657156186
 H          1.9158196675        1.2989105546       -1.5081531822
 H          3.0622189420        2.4274708439       -0.6996406666
 H          4.3206097649       -1.7082898905        1.1324954352
 H          2.4284208353       -3.3778329005       -0.7168898212
 H         -1.0235964673        3.8311550432       -1.6706172961
 H         -1.0214442843        2.6590140080        1.5917235504
  35
        -70.95890920
 N         -0.2351913575       -1.5720945693       -0.2311411506
 N         -1.7280067115       -2.2085613236       -1.7733879407
 N         -3.7164635111       -1.6288733326       -0.5126018590
 N         -3.2814783666       -0.7577244999        1.6618538284
 C         -1.4688032007       -1.3193998475        0.3085713704
 C         -2.4024595353       -1.7254905043       -0.6897596642
 C         -1.9698625714       -0.8308194104        1.5012593024
 C         -0.4683694628       -2.0914690449       -1.4649400670
 C         -4.0679530165       -1.1431368077        0.6615377582
 H         -1.3498282106       -0.4970458720        2.3196817815
 H          0.3312561503       -2.4030646617       -2.1085946346
 H         -5.1306354621       -1.0542245529        0.8390083909
 P         -0.2000621621        2.2247025893       -0.2420706863
 O          0.9048325702       -0.0834014233        1.1102152166
 O          4.1155915250       -0.8605713075        0.6506761078
 O          2.7493532014       -2.0831979347       -1.2140222790
 O          1.3886334376        2.4028235647       -0.0288034385
 O         -0.3610251087        1.1122662752       -1.3482013047
 O         -0.5479133188        3.5193774711       -1.0864815767
 O         -0.9691993695        2.0545630629        0.9956453008
 C          3.0931492926       -0.0491801423        0.1362874258
 C          2.1866101837        0.5200328664        1.2554694375
 C          2.1413081262       -0.9594374177       -0.6779752391
 C          1.0349807088       -1.2645128862        0.3614812261
 C          1.9660134027        2.0286518021        1.2062928191
 H          3.4879492061        0.7530499917       -0.4909460686
 H          2.6026122222        0.2409198921        2.2331611834
 H          1.6863154156       -0.3925514006       -1.4949386472
 H          1.3501812412       -2.0993761013        1.0144226208
 H          2.9044968855        2.5766064677        1.2887350429
 H          1.2831317379        2.2948198326        2.0171152828
 H          4.9176534671       -0.3480297617        0.8212823693
 H          3.5032306378       -2.3254359566       -0.6441740274
 H         -0.2957489874        1.4924951041       -2.2344431994
 H         -0.7095739977        4.3213624807       -0.5781214524
  35
        -70.95888362
 N         -0.0276270073       -1.4314881451       -0.3214888935
 N         -1.5984857989       -1.4084643226       -1.9205712784
 N         -3.4724691189       -0.8639067472       -0.4848109659
 N         -2.9275927825       -0.7189615158        1.8285254792
 C         -1.2104330764       -1.1463694870        0.3081785645
 C         -2.1911055525       -1.1154270656       -0.7273815901
 C         -1.6457843515       -0.9567922293        1.6067254964
 C         -0.3398657269       -1.5811887178       -1.6356343707
 C         -3.7509568749       -0.6623537396        0.7876499345
 H         -0.9953443463       -1.0024734395        2.4691746630
 H          0.3937506771       -1.8493074662       -2.3703929701
 H         -4.7846062835       -0.4453545345        1.0183441117
 P         -0.6485932570        2.0654634602       -0.4985237461
 O          1.3238022240       -1.0171766882        1.5551338016
 O          4.3335938103       -0.5572510335        0.9029849182
 O          3.2311724209       -2.0695769590       -1.0022838646
 O          0.7623875285        1.3848516946       -0.1566074601
 O         -0.8993799101        1.5417368624       -1.9497726392
 O         -0.2895289748        3.6051959327       -0.6481036595
 O         -1.7093580438        1.7939635911        0.4800721348
 C          3.1355653661       -0.0425507178        0.4094777379
 C          2.0699097064        0.1949858428        1.4968217972
 C          2.4182106700       -1.0252542131       -0.5588096376
 C          1.2752289186       -1.6196495563        0.2971353520
 C          1.1927559000        1.4147080256        1.2007461575
 H          3.3965261021        0.8904175569       -0.0914391361
 H          2.5194264465        0.3250632278        2.4846008629
 H          1.9933746042       -0.4599216941       -1.3973097671
 H          1.4348592906       -2.7003228074        0.4311552669
 H          1.7680220302        2.3284281615        1.3675422805
 H          0.3146729150        1.4068860907        1.8536516197
 H          4.1838525893       -1.4169537124        1.3252151993
 H          4.0590676951       -1.7138026451       -1.3613992380
 H         -0.4560325213        2.0329419015       -2.6546170480
 H         -0.9120510632        4.2094234859       -0.2294658576
  35
        -70.95888082
 N         -0.3370899606       -0.9632029552        0.9558644744
 N         -2.3349465734       -0.3381711719        1.7637913036
 N         -3.6920928504       -1.4359415331        0.0947988609
 N         -2.4696556219       -2.6993634249       -1.5039711218
 C         -1.2730363180       -1.5109764929        0.1152363452
 C         -2.5343977512       -1.0912950361        0.6439323438
 C         -1.3036318122       -2.3781486419       -0.9621920241
 C         -1.0443861225       -0.2792228132        1.8971132180
 C         -3.5792603554       -2.2024046479       -0.9730270728
 H         -0.4334169970       -2.8530297532       -1.3928764450
 H         -0.5533350440        0.2557080446        2.6851508167
 H         -4.5033781963       -2.4805288608       -1.4598207962
 P         -0.2244243725        2.3779017146       -0.2270947881
 O          1.5095250012        0.4612845044        0.9039548350
 O          4.0492140327       -1.2563030335        0.2051559998
 O          1.9077056792       -2.8581387233       -0.3813486648
 O          1.3062570634        2.6713169625       -0.6532901484
 O         -0.9249149319        3.7344750513       -0.6467873369
 O         -0.3112463039        2.4623295844        1.3321583546
 O         -0.7745596753        1.1667315663       -0.8552599636
 C          3.0196555262       -0.6670768127       -0.5345459351
 C          2.5690243136        0.7051498976       -0.0268405281
 C          1.7107864181       -1.4854130109       -0.4180245847
 C          1.0986982040       -0.8950185623        0.8697035791
 C          2.0636590972        1.5980359131       -1.1681161703
 H          3.3766063276       -0.6296756139       -1.5650486294
 H          3.3541008786        1.2325458441        0.5249434368
 H          1.0509861631       -1.2396361844       -1.2552912205
 H          1.5018349449       -1.4123634574        1.7580387211
 H          1.4320836589        1.0110912872       -1.8410115569
 H          2.8994032206        2.0398079812       -1.7111364691
 H          3.9452198872       -1.0820560966        1.1523877783
 H          2.8237363137       -3.0342994388       -0.0941615962
 H         -1.1501304429        3.8279448474       -1.5777107499
 H         -0.0894742059        3.3312926813        1.6931684857
  35
        -70.95873066
 N         -0.2597418769       -0.8909415766        1.1747069074
 N         -2.0350301417        0.4372543410        1.4838541896
 N         -3.5980091509       -0.8331708624        0.1422453723
 N         -2.6964523485       -2.8260177797       -0.7942247589
 C         -1.2913759630       -1.4641515399        0.4771538788
 C         -2.4062055888       -0.5980550993        0.6764963590
 C         -1.4986371616       -2.6069684098       -0.2733293139
 C         -0.7760130035        0.2157989900        1.7547662815
 C         -3.6596806766       -1.9383934155       -0.5754772662
 H         -0.7407487713       -3.3555917810       -0.4618098900
 H         -0.1932174145        0.8316969014        2.4101412906
 H         -4.6146332695       -2.1563321601       -1.0319844381
 P         -0.2618059948        1.9832836607       -0.7351793813
 O          1.9331327901       -0.2274324304        1.6451270243
 O          3.7279468410       -0.5916396697       -1.1539863538
 O          2.3285832891       -2.6850197081       -0.4660163650
 O          0.7020468768        2.1201071946        0.5444561832
 O          0.3293003112        2.9564674178       -1.8207403915
 O         -1.5445345319        2.7250900158       -0.2216913150
 O         -0.4306327751        0.6198152147       -1.2650538839
 C          2.4510465378       -0.2442427429       -0.6970178052
 C          2.5985215152        0.5197809788        0.6284189754
 C          1.6078304563       -1.5004645989       -0.3457466945
 C          1.1496602756       -1.2505695858        1.1160509727
 C          2.1136482732        1.9743240091        0.5638973445
 H          1.9112124587        0.3639260380       -1.4283563640
 H          3.6631840595        0.5421279745        0.8951837219
 H          0.7389965850       -1.5620129077       -1.0045030496
 H          1.3036057924       -2.1559436806        1.7206876831
 H          2.5629274776        2.4480556475       -0.3126613333
 H          2.4229553240        2.4944498993        1.4732755347
 H          3.6981165284       -0.8266994924       -2.0930917281
 H          3.2805839023       -2.4809493207       -0.3909061844
 H          0.1664984544        3.8968242484       -1.6655237743
 H         -2.0777042920        2.2502397346        0.4333886504
  35
        -70.95869957
 N         -0.2380832415       -1.4416110036        0.7726918524
 N         -2.2113653309       -1.8615580721        1.7628174164
 N         -3.5879126020       -1.7041691532       -0.2104038719
 N         -2.4081913085       -1.2308478256       -2.2147019939
 C         -1.1846742231       -1.3936994735       -0.2238880903
 C         -2.4283646083       -1.6620065246        0.4307934108
 C         -1.2419502289       -1.1897953538       -1.5904520996
 C         -0.9323293668       -1.7080878702        1.9157367227
 C         -3.5028770598       -1.4716867456       -1.5048470291
 H         -0.3881661798       -0.9934234612       -2.2253675146
 H         -0.4423546400       -1.8030832693        2.8653094089
 H         -4.4321699635       -1.4887146503       -2.0562972395
 P         -0.3615505715        2.5101779833        0.3354933898
 O          1.3768935502        0.2736422514        0.7979640633
 O          4.1299953497       -0.8126679542       -0.1609002381
 O          2.5810462643       -2.8983122539       -0.1532899433
 O          0.8696099994        2.6421480552       -0.6987089997
 O         -1.0801350091        3.8855685192        0.1412468168
 O          0.2554632957        2.6716702243        1.7856800128
 O         -1.2372359270        1.3552719672        0.0944426303
 C          2.9188776597       -0.5553767800       -0.8165773951
 C          2.2249816923        0.7029097099       -0.2658481930
 C          1.9443164348       -1.7003448519       -0.4456305984
 C          1.1675388535       -1.1252742960        0.7658813728
 C          1.4036347101        1.4788130003       -1.2964407659
 H          3.0531078817       -0.4942371199       -1.8994864062
 H          2.9535829232        1.3862524136        0.1845482768
 H          1.2524268470       -1.9016596106       -1.2648626717
 H          1.5771703342       -1.5508429777        1.6936475895
 H          0.5808532263        0.8599274033       -1.6628297587
 H          2.0263361303        1.8252898160       -2.1222583432
 H          4.8601418559       -0.3381251694       -0.5814024049
 H          3.4671941743       -2.6974329336        0.2031896050
 H         -0.5407167802        4.6676033340        0.3155129890
 H          0.6495465750        1.8746877081        2.1532729474
  35
        -70.95869126
 N         -0.5341274317       -1.0258373992        0.9932467240
 N         -2.5588723081       -0.3898183216        1.7136633895
 N         -3.8561249765       -1.7154135677        0.1596185147
 N         -2.5582515092       -3.0487894031       -1.3242226515
 C         -1.4393580221       -1.6856134396        0.2057050036
 C         -2.7201003094       -1.2670400088        0.6817739928
 C         -1.4131767081       -2.6200894636       -0.8143377514
 C         -1.2696093362       -0.2725603901        1.8502381656
 C         -3.6956414449       -2.5753201677       -0.8274172990
 H         -0.5063483166       -3.0402893815       -1.2257526885
 H         -0.7979604217        0.3535806899        2.5810250232
 H         -4.6013866704       -2.9519750946       -1.2814981173
 P          0.0985158200        2.3881762761       -0.4608918314
 O          1.2931226524        0.3381088693        1.2599693733
 O          3.8442536764       -1.1033709086       -0.4589424781
 O          1.7088220855       -2.5072655096       -0.8355282646
 O          1.6822381444        2.4701639473       -0.6292647357
 O         -0.3528556395        3.5436453672       -1.4334714377
 O         -0.1356149688        2.9116851269        1.0193536173
 O         -0.5701178470        1.1337393928       -0.8342758413
 C          2.7113213996       -0.2823792451       -0.5651153333
 C          2.5605821904        0.6190279319        0.6812187587
 C          1.4412444246       -1.1766541702       -0.5435109910
 C          0.8974525856       -0.9589914767        0.8894362246
 C          2.6030810340        2.1121264288        0.3881718602
 H          2.7234872887        0.3215926715       -1.4733684275
 H          3.3515813679        0.3583535428        1.3993980366
 H          0.6985367332       -0.7960814804       -1.2506055988
 H          1.3489915064       -1.7063013873        1.5680683788
 H          3.5826848732        2.4097696120        0.0124643761
 H          2.3588663340        2.6510393419        1.3055288468
 H          4.5338877159       -0.8341434161       -1.0801822788
 H          2.6571236798       -2.6671542943       -0.6535092513
 H          0.0823641011        4.3994004533       -1.3248270856
 H         -1.0496356884        2.8736686321        1.3156183525
  35
        -70.95858252
 N         -0.3062938502       -1.6388312918       -0.0980068064
 N         -1.8291209036       -2.4076692979       -1.5501110986
 N         -3.7900625271       -1.6216910549       -0.3599797640
 N         -3.3148357730       -0.5336440559        1.7049484759
 C         -1.5277345711       -1.2920840862        0.4124976381
 C         -2.4816148781       -1.7785293948       -0.5304673072
 C         -2.0071642163       -0.6778046221        1.5532300032
 C         -0.5646128823       -2.2900911791       -1.2614450764
 C         -4.1189798859       -0.9912454490        0.7509115967
 H         -1.3713393605       -0.3080066941        2.3437418087
 H          0.2150163283       -2.7072702670       -1.8679565455
 H         -5.1770047479       -0.8404937305        0.9131237530
 P         -0.0342092878        2.0807842003       -0.5092862279
 O          0.8718595521       -0.0644857577        1.1250757463
 O          4.2060551692       -0.2331975386        0.1845095378
 O          2.8661483932       -2.2720939777       -0.7574054200
 O          1.3240903410        2.6162028401        0.1704910866
 O         -0.4117759974        3.3631466476       -1.3462365427
 O         -1.1188626459        1.9487108986        0.6337243699
 O          0.0550667385        0.8988642196       -1.3713559626
 C          2.8859560298        0.1060256950       -0.1314048137
 C          2.1558557624        0.5368993451        1.1519795088
 C          2.0814073850       -1.1322237586       -0.6241563878
 C          0.9754417450       -1.2949289273        0.4522108782
 C          1.9617475486        2.0372859255        1.2944698057
 H          2.8276394961        0.9034029216       -0.8756756768
 H          2.7269829177        0.1604551125        2.0138878068
 H          1.6102814057       -0.9134547780       -1.5850826536
 H          1.2815339839       -2.0836616993        1.1650027010
 H          2.9286545681        2.5376441088        1.3723490968
 H          1.3636437333        2.2178530587        2.1906157231
 H          4.7799779593       -0.1174463685       -0.5867171494
 H          3.6550998415       -2.1680725565       -0.1883397638
 H         -0.0729426693        4.2152918522       -1.0427899877
 H         -1.3813513250        2.7746444248        1.0609571614
  35
        -70.95835800
 N         -0.7125227527       -1.0097339124        0.0675194603
 N         -2.4517332340       -0.9393751225       -1.3410973473
 N         -3.8812549814       -2.4709620182       -0.1223340150
 N         -2.9270089395       -3.3206598155        1.8860780488
 C         -1.6660776178       -1.8380238346        0.5992535093
 C         -2.7628393970       -1.7811211700       -0.3139515579
 C         -1.8012311974       -2.6443652089        1.7130099872
 C         -1.2480923831       -0.5148532727       -1.0824574894
 C         -3.8874856605       -3.2017961584        0.9762175631
 H         -1.0434474631       -2.7681475207        2.4743466156
 H         -0.7261354004        0.1959669807       -1.6930961541
 H         -4.7852146885       -3.7746948770        1.1597460065
 P          0.3830209899        2.9610269743       -0.8246015066
 O          0.9064296521        0.5849840661        0.6110769696
 O          3.4695512928       -1.2958781087        1.3613950381
 O          1.8534711461       -2.8052756494       -0.0724852305
 O          1.8463134676        2.9770935980       -0.1443074855
 O          0.1807528017        4.4977644200       -1.1432587591
 O         -0.6977422330        2.7304006800        0.2831357207
 O          0.3057087677        2.0536970608       -1.9798738463
 C          2.9489671993       -0.6229431439        0.2471595801
 C          2.3270602660        0.7421460847        0.6209366409
 C          1.7310747866       -1.4362272435       -0.2442993730
 C          0.5983096249       -0.7880528162        0.5937044777
 C          2.6791990347        1.8575817006       -0.3625360755
 H          3.6964250885       -0.5153281756       -0.5425932794
 H          2.6222517415        1.0291674135        1.6386205454
 H          1.5307436857       -1.2400496088       -1.3026302882
 H          0.6185147154       -1.2010757115        1.6154046857
 H          2.5243035589        1.4970109285       -1.3839481994
 H          3.7040027522        2.2010409732       -0.2197121462
 H          4.3839495514       -1.0293384929        1.5305498808
 H          2.4343044416       -2.9647898644        0.6952030769
 H          0.6244482585        4.8294992521       -1.9307933229
 H         -0.7256953087        3.4136009684        0.9649287077
  35
        -70.95833447
 N         -0.8332500872       -0.7802534632        0.7638547942
 N         -2.9446182697       -0.0399949603        0.7924857357
 N         -3.9793642031       -2.0695276315       -0.0366865890
 N         -2.4530158849       -3.8445637205       -0.4735455064
 C         -1.6040627757       -1.8201100408        0.3138468267
 C         -2.9441599710       -1.3258938556        0.3381667891
 C         -1.4045232158       -3.1232403085       -0.1049354722
 C         -1.6940646386        0.2378870640        1.0298911945
 C         -3.6592035711       -3.2898207352       -0.4233327761
 H         -0.4348909604       -3.5987973785       -0.1556454453
 H         -1.3463623058        1.1848359209        1.3922886788
 H         -4.4808084026       -3.9182338237       -0.7367860653
 P          0.4126351110        2.7123087571       -0.5332141914
 O          1.0253236413        0.5391804514        1.1348618491
 O          3.8054130606       -1.0967839612       -0.1606649234
 O          1.7372350029       -2.6611438174       -0.1334042131
 O          2.0029609224        2.4780445101       -0.6439129994
 O         -0.2645548961        1.4572024115       -1.2119979803
 O          0.1978549809        3.7996588147       -1.6619159707
 O         -0.0549188726        3.0952967808        0.8057338525
 C          2.6191108493       -0.3826157790       -0.3598526837
 C          2.4035626589        0.5964999005        0.8121112127
 C          1.3786664954       -1.3274301596       -0.2856957998
 C          0.5925402311       -0.7798177355        0.9407170031
 C          2.7249783093        2.0493484792        0.4920895437
 H          2.6220947062        0.1703683294       -1.3006980094
 H          3.0089993851        0.2595204870        1.6658779860
 H          0.7537072831       -1.2372974941       -1.1786606433
 H          0.8440705556       -1.4011414202        1.8213326998
 H          3.7808992506        2.1751728600        0.2529931738
 H          2.4387809146        2.6576965977        1.3536664887
 H          4.2305004719       -1.3028960372       -1.0060022828
 H          2.6636256624       -2.6894167312        0.1825439101
 H         -0.4457348572        1.6184253883       -2.1473496224
 H          0.3639288614        4.7101089302       -1.3964265448
  35
        -70.95823237
 N         -0.1513732602       -1.2937988536       -0.0869134931
 N         -1.4697590469       -0.8353130446       -1.8438216399
 N         -3.5887598638       -1.0144650065       -0.6789277245
 N         -3.3909224310       -1.5175404757        1.6409243451
 C         -1.4429394293       -1.3326802741        0.3748322684
 C         -2.2638910294       -1.0468322045       -0.7536716827
 C         -2.0682609615       -1.5575872840        1.5845813717
 C         -0.2530455374       -0.9581175216       -1.4029365476
 C         -4.0657008997       -1.2520061176        0.5283273920
 H         -1.5465910434       -1.7553188559        2.5108245548
 H          0.6007861241       -0.8462751967       -2.0407865707
 H         -5.1420567443       -1.2297210864        0.6251463691
 P         -0.4787554521        2.1643333687       -0.3523925331
 O          1.3243642575       -0.2292838073        1.4174348402
 O          4.3212277583       -0.5130388316       -0.4374645113
 O          3.1789164638       -2.5445930120        0.7784274337
 O          1.0261113044        1.7446939654       -0.6860893426
 O         -1.1428141964        2.0980284054       -1.7660850328
 O         -0.3156480048        3.7060498592        0.0157152599
 O         -1.1936947365        1.3997085921        0.6776526658
 C          2.9372491125       -0.4608102569       -0.3406402563
 C          2.4268642728        0.4393499882        0.8110658506
 C          2.2861265567       -1.8306606924       -0.0299364143
 C          1.0208246668       -1.4282721602        0.7543165523
 C          2.0172511824        1.8310496266        0.3331160324
 H          2.5692127033       -0.0652173657       -1.2912171123
 H          3.2060870988        0.5505819482        1.5751543611
 H          2.0354706011       -2.3834663270       -0.9388867969
 H          0.7696607596       -2.1621742536        1.5300275560
 H          2.8817417955        2.3332631084       -0.1061590659
 H          1.6324044879        2.4047935920        1.1771710587
 H          4.6533332013       -1.1508248466        0.2189820037
 H          2.9865313630       -3.4921466485        0.7634885909
 H         -0.7473545199        2.6510784480       -2.4536100714
 H         -1.0148617562        4.0620564701        0.5745156029
  35
        -70.95821003
 N         -0.1748324846       -1.5301358983       -0.0912923640
 N         -1.3528541035       -1.8615646737       -1.9735215209
 N         -3.5553118643       -1.5928075024       -0.9958798496
 N         -3.5430092756       -1.1458557404        1.3420644290
 C         -1.4994609381       -1.4125149441        0.2516077845
 C         -2.2294130807       -1.6249738830       -0.9519162219
 C         -2.2214824314       -1.1765354579        1.4045154242
 C         -0.1745354341       -1.7788445058       -1.4324060253
 C         -4.1278159987       -1.3422295631        0.1656998992
 H         -1.7792986061       -1.0140993950        2.3772250199
 H          0.7262397697       -1.9309946786       -1.9932519267
 H         -5.2078491269       -1.3008295438        0.1630424363
 P         -0.2988238567        2.4901733241        0.0687004403
 O          1.1922814953        0.1621123355        0.8545040954
 O          4.2952093354       -0.7038011008       -0.3447905313
 O          3.0635784900       -2.1408276314        1.4899636009
 O          0.9816318842        2.4728453971       -0.8885405416
 O         -0.9320956511        3.8826998651       -0.3040235639
 O          0.3227184316        2.7017637282        1.5131840702
 O         -1.2499226286        1.3809929813       -0.0885728208
 C          2.9161877796       -0.7836485817       -0.5191435780
 C          2.1861611626        0.5200220671       -0.1026146439
 C          2.2595550069       -1.8671395320        0.3821398777
 C          0.9261688357       -1.2193198753        0.7939709586
 C          1.5489949237        1.2411238213       -1.2881308199
 H          2.7246392766       -0.9869890646       -1.5782295840
 H          2.8718682433        1.2113793647        0.3990033315
 H          2.1226041649       -2.8176573584       -0.1345975356
 H          0.6166161373       -1.5289740011        1.7987023108
 H          0.7654482722        0.6156276442       -1.7275115624
 H          2.3056326848        1.4888602699       -2.0344422714
 H          4.5493614248       -1.2719324695        0.4083350544
 H          3.0589042242       -1.3898001107        2.1050401385
 H         -0.3439071494        4.6456577879       -0.2343944737
 H         -0.2072423294        2.3732036740        2.2442434698
  35
        -70.95819644
 N         -0.2781606152       -1.1164836192        1.1578812916
 N         -2.1063539362       -0.2976879426        2.1584263251
 N         -3.7258143991       -1.2178398788        0.6066796226
 N         -2.7749878667       -2.5126463183       -1.1524028556
 C         -1.3416780415       -1.5395660493        0.4079269778
 C         -2.4948917879       -1.0057752725        1.0600853649
 C         -1.5383691523       -2.3129010671       -0.7216149823
 C         -0.8058318397       -0.3868748137        2.1711942506
 C         -3.7812948481       -1.9615667333       -0.4811248386
 H         -0.7369009052       -2.7700189937       -1.2860383696
 H         -0.1848536883        0.0581864618        2.9226687933
 H         -4.7693576302       -2.1504339577       -0.8765944087
 P          0.0513344681        2.2927383904       -0.9355305035
 O          1.9256355469       -0.5535372631        1.6993202748
 O          3.8403731971       -0.8322204330       -0.6220929967
 O          1.7204434187       -2.1427509203       -1.3693296654
 O          0.3979086332        1.6153932001        0.4691685672
 O         -0.6672598771        3.6589271309       -0.6115129479
 O         -1.0644830627        1.2864848853       -1.4305971402
 O          1.2010285239        2.4860100297       -1.8285487829
 C          2.6773744708       -0.0592980536       -0.4788825961
 C          2.5240785180        0.4989374856        0.9460100923
 C          1.4685108978       -1.0140116503       -0.6018855263
 C          1.1269519397       -1.3500163292        0.8803766816
 C          1.7050975431        1.7936032466        1.0056022732
 H          2.6210533524        0.7345064303       -1.2265796788
 H          3.4952152411        0.6833129975        1.4131916995
 H          0.6245821072       -0.4845986000       -1.0529121801
 H          1.3497446876       -2.4064996564        1.0907697280
 H          2.2294748254        2.5744890738        0.4496628861
 H          1.5765990338        2.0912434205        2.0483733850
 H          4.5884619210       -0.2800504487       -0.8863163494
 H          2.6779628017       -2.3271785970       -1.3286669597
 H         -1.4072342999        3.6396878005        0.0091946864
 H         -1.4137497656        1.5141358150       -2.3004045818
  35
        -70.95817340
 N         -0.8615083217       -1.0237998050        0.0722483218
 N         -2.6292920919       -0.8597431967       -1.2936285689
 N         -4.1060563853       -2.3203811991       -0.0437135542
 N         -3.1477330595       -3.2272062997        1.9372584444
 C         -1.8462430683       -1.8005003745        0.6276621795
 C         -2.9593931577       -1.6867826834       -0.2593479405
 C         -1.9943357912       -2.6061587666        1.7403206753
 C         -1.4014927011       -0.4964855952       -1.0615337783
 C         -4.1232069522       -3.0550674807        1.0523135004
 H         -1.2243003864       -2.7738424744        2.4811358474
 H         -0.8460979051        0.1717940874       -1.6887746377
 H         -5.0443382993       -3.5817886323        1.2567035793
 P          0.7443243348        2.5619017065       -0.9915970889
 O          0.6298570007        0.5399669897        0.9641395864
 O          3.8458689562       -0.7381894882        0.5653485385
 O          2.0464369012       -2.4793830745       -0.1830734158
 O          1.9605852453        2.8802708212        0.0056457269
 O          0.7563784012        3.9148772425       -1.8067839510
 O         -0.6200670646        2.6395204603       -0.2233101787
 O          0.9195484524        1.3616796103       -1.8272744238
 C          2.7064212930       -0.1198915783        0.0388582239
 C          2.0241715802        0.7027212851        1.1498296332
 C          1.6180699803       -1.1668950648       -0.3495757924
 C          0.4450514876       -0.8131196483        0.6074654740
 C          2.3419974658        2.1863801039        1.1776194498
 H          2.9338723177        0.5178053775       -0.8159681444
 H          2.3260163834        0.2640122978        2.1143271781
 H          1.2979756765       -1.0321419479       -1.3849848102
 H          0.5335789357       -1.4458279922        1.5066959394
 H          3.4204258484        2.3301067090        1.2771123428
 H          1.8233130514        2.6321525113        2.0309894566
 H          4.4896820888       -0.9162678211       -0.1357423604
 H          2.7948677172       -2.4733625114        0.4468248911
 H          1.4098991463        3.9701774645       -2.5110648780
 H         -0.8868856005        3.5312299453        0.0341960899
  35
        -70.95806875
 N         -0.1126764275       -1.3339687955       -0.0936512036
 N         -1.4559535144       -0.5693326227       -1.7143978775
 N         -3.5487290693       -0.8341433706       -0.5217697154
 N         -3.3096478527       -1.6585001101        1.6986795590
 C         -1.3919895197       -1.3866000023        0.4034480498
 C         -2.2304310900       -0.9101432541       -0.6412089687
 C         -1.9927492181       -1.7470323918        1.5935521778
 C         -0.2301815362       -0.8147850286       -1.3394730368
 C         -4.0038053031       -1.2167626723        0.6564818486
 H         -1.4535804486       -2.0939159282        2.4639247676
 H          0.6093663131       -0.6428528854       -1.9833899767
 H         -5.0747868296       -1.1647110150        0.7912425955
 P         -0.5497048774        2.1965638862       -0.5066850230
 O          1.3375404342       -0.4277517072        1.5097594343
 O          4.3946300163       -0.4616841979       -0.1123740588
 O          3.1386710888       -2.7180813462        0.5401368237
 O          0.9718023780        1.6590777668       -0.6578149577
 O         -1.0690371497        2.1404406896       -1.9850265429
 O         -0.4146876337        3.7387591918       -0.2239747765
 O         -1.3081543795        1.5134564209        0.5501209383
 C          3.0085848534       -0.3945018299       -0.2132823206
 C          2.3466496297        0.4005902659        0.9396684030
 C          2.3336479396       -1.7966339747       -0.1427519500
 C          1.0789754118       -1.5435682576        0.7054338844
 C          1.7955119063        1.7603600238        0.5011830431
 H          2.7939718221        0.0933094429       -1.1665598454
 H          3.0758833229        0.5927717087        1.7360331222
 H          2.0634793581       -2.1760141159       -1.1317094400
 H          0.8835889292       -2.3896977965        1.3747450512
 H          2.6343467611        2.4146211756        0.2525231681
 H          1.2159549993        2.1858862897        1.3246335040
 H          4.6314572640       -0.9984362549        0.6636734458
 H          3.8107150332       -3.0755561501       -0.0604978820
 H         -1.4407532451        1.2858358084       -2.2680874727
 H         -0.1826283277        4.2857881193       -0.9869387051
  35
        -70.95796268
 N         -0.1503952944       -1.2710582332       -0.0839359992
 N         -1.4948764924       -0.7945473369       -1.8159913658
 N         -3.5973101694       -1.0237372518       -0.6300966639
 N         -3.3646654141       -1.5680855917        1.6776627281
 C         -1.4349390754       -1.3383768997        0.3910500372
 C         -2.2729922456       -1.0396074313       -0.7218119033
 C         -2.0423603903       -1.5926937489        1.6040491900
 C         -0.2715377678       -0.9117650003       -1.3907444648
 C         -4.0560309296       -1.2901440178        0.5781591048
 H         -1.5051000706       -1.8035944571        2.5184187813
 H          0.5729188174       -0.7717431873       -2.0353041702
 H         -5.1312628953       -1.2820134929        0.6889396479
 P         -0.4951472385        2.1696864040       -0.3914688377
 O          1.3401542224       -0.2464635104        1.4269365042
 O          4.3687196995       -0.5231134551       -0.1668249550
 O          3.0993631308       -2.6903169990        0.6215075881
 O          1.0120601792        1.7302133238       -0.6979341390
 O         -1.1408608925        2.1013063778       -1.8125735665
 O         -0.3166494588        3.7128872710       -0.0354870070
 O         -1.2232812924        1.4210780901        0.6407503033
 C          2.9823201977       -0.4343732382       -0.3112828532
 C          2.4224808556        0.4509522373        0.8206626497
 C          2.2868823804       -1.8046912985       -0.0888462599
 C          1.0359393289       -1.4267797456        0.7321222262
 C          1.9821051744        1.8330672518        0.3397739041
 H          2.6951430749       -0.0122059775       -1.2791263892
 H          3.1972232362        0.5882040888        1.5859390525
 H          1.9975414918       -2.2955530997       -1.0235739539
 H          0.8137906826       -2.1989655814        1.4788201761
 H          2.8388842577        2.3686585399       -0.0745330167
 H          1.5660603497        2.3843375484        1.1837835212
 H          4.7810250492       -0.8279953366       -0.9891318265
 H          3.9031789099       -2.2168303169        0.9096800759
 H         -0.7428127556        2.6569301146       -2.4971087160
 H         -1.0188075653        4.0851481217        0.5089252753
  35
        -70.95794716
 N         -0.1357843909       -1.7035281047       -0.0421232138
 N         -1.7444427823       -2.1596037522       -1.5371894592
 N         -3.5458893667       -1.0227856360       -0.3894463570
 N         -2.9393989642       -0.0903174074        1.7140841846
 C         -1.2813257410       -1.1358657168        0.4465599620
 C         -2.2870411315       -1.4224054454       -0.5271609441
 C         -1.6802749104       -0.4830890499        1.5983929444
 C         -0.4892713424       -2.2878868310       -1.2168906889
 C         -3.7820533899       -0.3531271312        0.7211275356
 H         -1.0235195017       -0.2880776991        2.4334994064
 H          0.2136347533       -2.8342702623       -1.8149136885
 H         -4.7936432690        0.0037912097        0.8533363310
 P         -0.3280567484        1.8156277383       -0.6429137576
 O          1.2784093415       -0.7518448332        1.5710538859
 O          4.0581809412        0.3609704485       -0.0320778090
 O          3.3054974214       -2.0478197464       -0.7012270753
 O          0.0028418442        1.6605208492        0.9001713334
 O          0.4321344000        3.1642576064       -1.0149259328
 O         -1.8625833938        2.1336596065       -0.5848578802
 O         -0.0195349182        0.6978978474       -1.5480035062
 C          2.6667925021        0.2452554757       -0.1152807358
 C          2.0815570065        0.3926593316        1.2967445981
 C          2.2320627649       -1.1693839929       -0.5851241453
 C          1.2155538561       -1.6335622560        0.4923332163
 C          1.2854551730        1.6847159878        1.5062385502
 H          2.2380321791        0.9991188515       -0.7803970551
 H          2.9149875733        0.3940915622        2.0128324066
 H          1.7331307181       -1.1108123399       -1.5558413065
 H          1.4876743754       -2.6405837315        0.8462204360
 H          1.8664241338        2.5309960382        1.1330351106
 H          1.0740781424        1.8122601360        2.5698096223
 H          4.4372972374        0.5215549423       -0.9092874128
 H          4.0411950119       -1.7202992977       -0.1490026749
 H          0.4872063936        3.3620194399       -1.9567336973
 H         -2.0938610520        2.9417718987       -0.1074747367
  35
        -70.95793562
 N         -0.9928397638       -0.8857718975        0.2534096787
 N         -2.8817863446       -0.5547088489       -0.9021706370
 N         -4.1015544727       -2.4577993198       -0.0255358983
 N         -2.8825951729       -3.7692706900        1.5436228809
 C         -1.8450410895       -1.8949210648        0.6207268904
 C         -3.0412143026       -1.6646018641       -0.1248897428
 C         -1.8126922545       -2.9930628087        1.4587644704
 C         -1.6728207133       -0.1377695423       -0.6568114099
 C         -3.9492106893       -3.4659643773        0.8119486157
 H         -0.9595604462       -3.2774133785        2.0592860400
 H         -1.2271252783        0.7194146055       -1.1188569473
 H         -4.7959877266       -4.1294825317        0.9144703819
 P          0.8412921127        2.6608425045       -1.0119670085
 O          0.6198500816        0.6280698500        1.0188316366
 O          3.7334740119       -0.8421069380        0.4693650442
 O          1.8001085090       -2.4781179020       -0.1728827950
 O          2.1605538647        2.8342925140       -0.1115703053
 O          0.9705332967        3.9680816679       -1.8880324780
 O         -0.4242026253        2.9474522054       -0.1318776818
 O          0.7827567242        1.4168257725       -1.7971683838
 C          2.6064298949       -0.1599019491       -0.0023976200
 C          2.0310417424        0.7157777972        1.1285575109
 C          1.4397351746       -1.1435271474       -0.3184638085
 C          0.3507889442       -0.7181772531        0.7085681088
 C          2.4409764294        2.1769465777        1.1087297480
 H          2.8242109913        0.4541957242       -0.8765900446
 H          2.3547800436        0.2751144585        2.0849533657
 H          1.0582783987       -0.9847879361       -1.3306944396
 H          0.4691533636       -1.3405394515        1.6122969968
 H          3.5214122088        2.2584090096        1.2456399478
 H          1.9172325504        2.6865741284        1.9217821375
 H          4.3544670585       -1.0140336591       -0.2533595765
 H          2.6089273937       -2.5103972424        0.3779768024
 H          1.5390395023        3.8965138061       -2.6611415775
 H         -0.5535743498        3.8752142587        0.1040532652
  35
        -70.95786651
 N         -0.2755856664       -1.1520368469        1.1788495892
 N         -2.0954544462       -0.2795009395        2.1521923934
 N         -3.7092478017       -1.0905733076        0.5365799107
 N         -2.7723091790       -2.4018379631       -1.2168713022
 C         -1.3361906000       -1.5141192362        0.3929756352
 C         -2.4830736647       -0.9428084670        1.0261564166
 C         -1.5406778583       -2.2693428165       -0.7477141104
 C         -0.8013422158       -0.4249547730        2.1959472715
 C         -3.7691548636       -1.8089810905       -0.5677722664
 H         -0.7505522802       -2.7712910316       -1.2899775094
 H         -0.1830380221       -0.0255161559        2.9749333507
 H         -4.7532383787       -1.9409958948       -0.9948819173
 P          0.0323019889        2.3067258876       -0.9332942445
 O          1.9270838889       -0.6121799878        1.7475160908
 O          3.8491346733       -0.6604234140       -0.6653824329
 O          1.9192810796       -2.2835472781       -1.2202629823
 O          0.3312902877        1.5512705666        0.4391213994
 O         -1.3338326523        3.0570244533       -0.7039916878
 O         -0.3871646322        1.1127128935       -1.8692862267
 O          1.1541013223        3.1435374508       -1.3975800801
 C          2.6084845173       -0.0481942627       -0.4455277626
 C          2.4594257182        0.4744543797        0.9948272497
 C          1.5130012835       -1.1396768872       -0.5445309584
 C          1.1330934184       -1.4215518541        0.9391061814
 C          1.5902053526        1.7326573909        1.0767121388
 H          2.4165135944        0.7516515245       -1.1676579498
 H          3.4303465988        0.6951692432        1.4464655237
 H          0.6411307387       -0.7391219854       -1.0657450818
 H          1.3341337507       -2.4721533312        1.1924775232
 H          2.1161533271        2.5629414697        0.5975678129
 H          1.3848455982        1.9663188173        2.1232374757
 H          4.5107546137       -0.0109138506       -0.9389049272
 H          2.8922559359       -2.3375805361       -1.1715172685
 H         -1.2779904459        3.9490137985       -0.3427035629
 H         -0.6864657982        1.3828677246       -2.7458258466
  35
        -70.95786482
 N         -0.1919661506       -1.3213103972        0.7745112328
 N         -2.0449772658       -1.1692677382        2.0280415354
 N         -3.6402522282       -1.2888255077        0.2138594378
 N         -2.6701785915       -1.5844193955       -1.9388431791
 C         -1.2448697905       -1.3835274520       -0.0996623578
 C         -2.4124980577       -1.2714658761        0.7195814836
 C         -1.4361613588       -1.5760991482       -1.4560550202
 C         -0.7447397461       -1.1881722993        2.0091399336
 C         -3.6847302298       -1.4250187338       -1.0976218849
 H         -0.6370568116       -1.7430593775       -2.1647571998
 H         -0.1322344553       -1.1064160742        2.8848364185
 H         -4.6706863914       -1.4258161750       -1.5408004738
 P         -0.3491462682        2.1859649285        0.0219224026
 O          1.9005509408       -0.5752054130        1.4611397566
 O          3.9762421918       -1.0244078317       -0.7098018772
 O          1.7370022815       -1.8399901566       -1.8468438484
 O          1.2414893316        2.0805807308       -0.1969105929
 O         -0.9050674680        1.5924011978       -1.3189692994
 O         -0.6654233112        3.7326327282       -0.1010703926
 O         -0.8179137583        1.5490887835        1.2572165989
 C          2.9362521032       -0.0900345234       -0.6054580798
 C          2.7223323847        0.4091261044        0.8312694593
 C          1.6202456806       -0.8458978894       -0.8860724924
 C          1.2332188581       -1.3710342192        0.5186050261
 C          2.1044204384        1.8154895285        0.9003065943
 H          3.0662624015        0.7425907172       -1.3017855852
 H          3.6540717748        0.4159646179        1.4047870126
 H          0.8530015136       -0.1432947807       -1.2197763588
 H          1.5679845813       -2.4152712632        0.6363498606
 H          2.8932557505        2.5689196055        0.8619334743
 H          1.5485082796        1.8906135986        1.8378106856
 H          4.8345927971       -0.5790900938       -0.7392676282
 H          2.6350157088       -2.2155319518       -1.7913632206
 H         -0.8564975902        2.1997006419       -2.0700145825
 H         -0.9307126626        4.1695385113        0.7152085988
  35
        -70.95785818
 N         -0.2442749583       -1.1797363935        1.1695181563
 N         -2.0536765110       -0.3226266593        2.1763959278
 N         -3.6743122009       -1.0284290936        0.5203739457
 N         -2.7547529975       -2.2716857545       -1.2900109234
 C         -1.3076537658       -1.4864276765        0.3635706001
 C         -2.4474185395       -0.9254805484        1.0190230062
 C         -1.5231215652       -2.1860711449       -0.8104002472
 C         -0.7626407823       -0.4916890792        2.2175313203
 C         -3.7431234946       -1.6906662374       -0.6178673499
 H         -0.7424119409       -2.6828755232       -1.3707497893
 H         -0.1406322172       -0.1377421816        3.0155007857
 H         -4.7275816430       -1.7826877059       -1.0544980330
 P         -0.0407916745        2.2914947646       -0.8942286782
 O          1.9551897409       -0.6342997752        1.7408163913
 O          3.8813596820       -0.6607841698       -0.6468105741
 O          1.9577898443       -2.2806124423       -1.2418757629
 O          0.3117466682        1.4904147548        0.4387752824
 O         -1.5230083544        2.7751680694       -0.6813973177
 O         -0.2109043100        1.1349495377       -1.9500747923
 O          0.9468511264        3.3329217986       -1.2309899264
 C          2.6376371768       -0.0506297069       -0.4418906630
 C          2.4665380290        0.4684706674        0.9968953551
 C          1.5468734110       -1.1453765314       -0.5546631575
 C          1.1654929101       -1.4425668555        0.9255692428
 C          1.5639583171        1.7033331887        1.0794642894
 H          2.4533370179        0.7500571993       -1.1657971023
 H          3.4274353915        0.7117046346        1.4578544512
 H          0.6761277702       -0.7415575774       -1.0742318931
 H          1.3729013856       -2.4933755066        1.1720078209
 H          2.0618187953        2.5556268083        0.6089394909
 H          1.3508889668        1.9239966871        2.1276471344
 H          4.5529497982       -0.0066534389       -0.8822114976
 H          2.9294362558       -2.3405457151       -1.1805299579
 H         -1.6378146777        3.6118845603       -0.2174040035
 H         -0.4190528766        1.4384307742       -2.8417447640
  35
        -70.95783499
 N         -0.2349513533       -1.6394685075       -0.2337241815
 N         -1.7687680429       -2.0896568423       -1.8032373252
 N         -3.7208192072       -1.6966987384       -0.4210074258
 N         -3.2279520936       -1.0583957876        1.8210240712
 C         -1.4510033167       -1.4762933011        0.3688009801
 C         -2.4130865785       -1.7614635712       -0.6465040005
 C         -1.9202296838       -1.1248498631        1.6191212719
 C         -0.5016038329       -1.9892414015       -1.5187220165
 C         -4.0406839068       -1.3390670615        0.8075781851
 H         -1.2749154358       -0.8907879997        2.4534330241
 H          0.2827986286       -2.1814132870       -2.2252413598
 H         -5.0985250182       -1.2693113643        1.0196505969
 P         -0.1063811424        2.3477235599       -0.4727956007
 O          0.9722450094       -0.5168187425        1.4118124084
 O          4.0022867462       -0.9567125036        0.6259452333
 O          2.6480684001       -1.6400668022       -1.5495161254
 O          1.3894712137        2.2588249545        0.0824592999
 O          0.1576328447        2.9007656986       -1.9143153665
 O         -0.7206369329        3.5290733288        0.3935661397
 O         -0.9101766536        1.1190941808       -0.4623611386
 C          3.0132138730       -0.0276406002        0.2707187282
 C          2.1039703568        0.3591339419        1.4522861386
 C          2.0382166022       -0.7509358511       -0.6790730488
 C          1.0684433086       -1.4070025145        0.3325630556
 C          1.6559418024        1.8235881804        1.4084020522
 H          3.4406626613        0.8582882941       -0.2050727488
 H          2.6090028647        0.1778298032        2.4087628633
 H          1.4713307226       -0.0230814077       -1.2706821927
 H          1.4838285888       -2.3717095820        0.6777567680
 H          2.4569064764        2.4674063582        1.7778329129
 H          0.7669117953        1.9366032114        2.0307857335
 H          4.7723411091       -0.5094837282        1.0042126724
 H          3.4235823014       -2.0237421197       -1.0995088226
 H          0.6759506904        3.7149367788       -1.9675592442
 H         -1.6769546656        3.4975987878        0.4998457403
  35
        -70.95780333
 N         -0.1789469156       -1.4505419098       -0.0784586983
 N         -1.4033258562       -1.7438621641       -1.9376055556
 N         -3.5809163002       -1.5655052188       -0.8885448000
 N         -3.5108491187       -1.1784754676        1.4592324225
 C         -1.4939668178       -1.3764728450        0.3063443585
 C         -2.2541283959       -1.5676793012       -0.8834580302
 C         -2.1870469477       -1.1820118554        1.4842432081
 C         -0.2126110215       -1.6479684065       -1.4268893268
 C         -4.1248933977       -1.3609057739        0.2958918154
 H         -1.7213971363       -1.0284891703        2.4477394164
 H          0.6745694547       -1.7461776108       -2.0209179953
 H         -5.2052340446       -1.3454045806        0.3256181016
 P         -0.3298586465        2.4301928483       -0.0220127047
 O          1.2423820135        0.2066905597        0.8400918350
 O          4.3322320939       -0.6395201015       -0.0789559864
 O          2.9955611540       -2.3476036671        1.3737411489
 O          1.0668289024        2.5030923628       -0.8184673179
 O         -0.9240225474        3.8547152597       -0.3039274462
 O         -0.0216392111        2.6252398470        1.5080995854
 O         -1.1762836264        1.2891206774       -0.4208919126
 C          3.0000915076       -0.7487847954       -0.4837597060
 C          2.2664096083        0.5487970875       -0.0904646199
 C          2.2501155497       -1.8697908211        0.2990318762
 C          0.9535870139       -1.1713407120        0.7746172897
 C          1.6595503038        1.3035242870       -1.2738052749
 H          2.9214940702       -0.9118957548       -1.5633764142
 H          2.9581758422        1.2186266399        0.4328213838
 H          2.0096628176       -2.7334630029       -0.3257746016
 H          0.6861872294       -1.4939684224        1.7870406409
 H          0.8924115076        0.6914558296       -1.7580820079
 H          2.4313719339        1.5976529238       -1.9860567629
 H          4.8720631049       -1.3349921601       -0.4841281239
 H          3.6377515192       -1.6672360359        1.6471083082
 H         -1.4367181446        3.9296924210       -1.1158541592
 H          0.3671559516        1.8584270500        1.9418849970
  35
        -70.95778966
 N         -0.8229330832       -1.0558679045        0.0282569847
 N         -2.5852235161       -0.9016962629       -1.3461834312
 N         -4.1048699365       -2.2599150794       -0.0337000959
 N         -3.1759260007       -3.0998312168        1.9900144424
 C         -1.8321038636       -1.7748276754        0.6183134721
 C         -2.9403156996       -1.6703792369       -0.2752559571
 C         -2.0043778654       -2.5234987408        1.7668831377
 C         -1.3495240935       -0.5605273590       -1.1275128989
 C         -4.1452372437       -2.9408924820        1.0959715495
 H         -1.2400412914       -2.6785195937        2.5161630471
 H         -0.7788552543        0.0692802952       -1.7806501194
 H         -5.0816093879       -3.4302129216        1.3227120399
 P          0.7196993706        2.5276189695       -0.9832775057
 O          0.6322743884        0.5149623326        0.9597786783
 O          3.9131894383       -0.7024764597        0.5159081058
 O          2.0765555908       -2.4676667639       -0.1231028744
 O          1.8989537704        2.8852471098        0.0418390458
 O          0.7080039092        3.8833700108       -1.7944329033
 O         -0.6680279351        2.5613621085       -0.2530703600
 O          0.9432994789        1.3365842690       -1.8206432443
 C          2.7365789920       -0.1112811922        0.0616011781
 C          2.0217431337        0.7008696116        1.1696733603
 C          1.6596079895       -1.1545120722       -0.3650060259
 C          0.4768018998       -0.8332481104        0.5768506853
 C          2.3157350632        2.1892066750        1.2004429797
 H          2.9903138412        0.5393303212       -0.7772592308
 H          2.3084556292        0.2734583749        2.1434317792
 H          1.3602458462       -0.9911763771       -1.4013880608
 H          0.5738276406       -1.4843537628        1.4624243534
 H          3.3948664597        2.3429116365        1.2784740460
 H          1.8092797240        2.6279752748        2.0649371226
 H          3.7044392298       -1.5983422552        0.8411148038
 H          2.5569738595       -2.8142449314       -0.8894185209
 H          1.3890372882        3.9693629010       -2.4687595249
 H         -0.9536566801        3.4388700959        0.0316938980
  35
        -70.95775854
 N         -0.1450377380       -1.5003459743       -0.1993880646
 N         -1.6463736614       -2.0803041641       -1.7606723685
 N         -3.6309893747       -1.5326433405       -0.4798437205
 N         -3.1898302962       -0.7422646408        1.7222102913
 C         -1.3808094757       -1.2667661682        0.3467703395
 C         -2.3199125388       -1.6286239698       -0.6636204755
 C         -1.8782040711       -0.8327130818        1.5583059894
 C         -0.3878698228       -1.9706815113       -1.4529480312
 C         -3.9795336291       -1.0772558059        0.7088300651
 H         -1.2640371381       -0.5735675716        2.4091217650
 H          0.3918594944       -2.2791095708       -2.1202195714
 H         -5.0413985501       -0.9790756839        0.8851517660
 P         -0.4054357051        2.2728299652       -0.3078322838
 O          1.1267030418        0.1612031194        0.8631248178
 O          3.9215065757       -0.9205622185        1.2716123079
 O          2.8350266159       -2.7182614281       -0.4017802703
 O          1.1490696053        2.7053500316       -0.3284332490
 O         -1.1341755950        3.5917635355       -0.7270426794
 O         -0.8079428819        2.1626720358        1.2221056183
 O         -0.7193444157        1.1420737395       -1.1908163513
 C          3.3189556810       -0.3626338275        0.1370573956
 C          2.3569705202        0.7841539917        0.4793602258
 C          2.3488404544       -1.4220755016       -0.4261313258
 C          1.1003488334       -1.1977172894        0.4582321758
 C          2.1107579964        1.7369016884       -0.6939989281
 H          4.0581665197       -0.0639055339       -0.6107501525
 H          2.6907405807        1.3601400808        1.3480959553
 H          2.1090054569       -1.1759111582       -1.4632427746
 H          1.1644052230       -1.8229337219        1.3641399014
 H          1.7391228167        1.1782980902       -1.5576614816
 H          3.0157285122        2.2889624673       -0.9494855882
 H          4.6947661398       -0.4056078945        1.5415839676
 H          3.3699858621       -2.8364034007        0.4036741169
 H         -0.9753863532        4.3628685001       -0.1664904013
 H         -0.3084220695        1.5032538366        1.7140715927
  35
        -70.95775129
 N         -0.7043173817       -1.1445112881       -0.0717676205
 N         -2.4115637625       -1.1055915935       -1.5227412444
 N         -4.0747865666       -2.0803050583       -0.0518045028
 N         -3.2757953469       -2.5936666433        2.1306254990
 C         -1.7887117247       -1.6584823376        0.5955727673
 C         -2.8592996137       -1.6355417229       -0.3468096363
 C         -2.0549040052       -2.1592694401        1.8554408677
 C         -1.1596164027       -0.8223108042       -1.3159132885
 C         -4.2024328967       -2.5340743680        1.1809233841
 H         -1.3281228264       -2.2222926502        2.6537827976
 H         -0.5332582342       -0.3566635845       -2.0497057921
 H         -5.1815266239       -2.9014504889        1.4530460238
 P          0.5758139992        2.3917551232       -0.9362318671
 O          0.6772005410        0.4313540087        0.9449301962
 O          4.0212257446       -0.6126215522        0.5123408233
 O          2.2721783374       -2.4699209733       -0.1084483948
 O          1.6807356319        2.8726564278        0.1202611655
 O          0.4273131050        3.7573451955       -1.7208792948
 O         -0.8326939468        2.2658662997       -0.2535539603
 O          0.9517367673        1.2548328177       -1.7934296635
 C          2.8155205694       -0.0836139599        0.0588534699
 C          2.0525517157        0.6798159591        1.1692088137
 C          1.8000990629       -1.1814640353       -0.3836582573
 C          0.5763819400       -0.9102517834        0.5177654480
 C          2.2611876445        2.1835011973        1.2110178466
 H          3.0378578132        0.5855050912       -0.7740161876
 H          2.3540024755        0.2585627523        2.1408273667
 H          1.5323658731       -1.0495164931       -1.4318960873
 H          0.6598705339       -1.5801153348        1.3913432573
 H          3.3319490310        2.4025456625        1.1922871434
 H          1.8134970088        2.5797650714        2.1269842682
 H          3.8544599176       -1.5057395236        0.8673764216
 H          2.7915602739       -2.8030184260       -0.8550579932
 H          1.1191094424        3.9457610389       -2.3627236786
 H         -1.2030184001        3.1045808002        0.0493217907
  35
        -70.95772365
 N         -0.9172157713       -0.9247394915        0.1629884898
 N         -2.7493936794       -0.7510210690       -1.1079839209
 N         -3.8818918675       -2.7225000741       -0.2576215059
 N         -2.6594836136       -3.9149462391        1.4041286149
 C         -1.7147536388       -1.9859279828        0.5011415856
 C         -2.8775896017       -1.8544187674       -0.3164493586
 C         -1.6437678592       -3.0655754071        1.3610046732
 C         -1.5904843397       -0.2395063898       -0.7995990735
 C         -3.7042411627       -3.6993460936        0.6115011327
 H         -0.7963336355       -3.2741608548        1.9995629851
 H         -1.1892008832        0.6511897579       -1.2438228057
 H         -4.5069314694       -4.4193241723        0.6843065081
 P          0.5110441431        3.2007107939       -0.6676597984
 O          0.8176440086        0.6045447063        0.3152328668
 O          3.8187579489       -1.1665537280        0.5417543923
 O          1.7668593128       -2.6051383976        1.2527120581
 O          2.0686169544        2.9330496607       -0.3363523686
 O          0.5141981679        4.7720059688       -0.8524821958
 O         -0.3134274786        3.0463124456        0.6549305186
 O          0.0154471206        2.4228158137       -1.8124900330
 C          2.6673558417       -0.8114538263       -0.1639663546
 C          2.2333087193        0.6070990772        0.2504754380
 C          1.4521186190       -1.6989238734        0.2469872269
 C          0.3833067932       -0.6638565717        0.7169010581
 C          2.6325850179        1.7000826943       -0.7318069887
 H          2.8156795796       -0.8527829054       -1.2455879917
 H          2.6494692811        0.8251882228        1.2452044956
 H          1.0593539656       -2.2605349907       -0.6075354747
 H          0.3022356689       -0.7237889503        1.8169156141
 H          2.2531368897        1.4397139811       -1.7244656574
 H          3.7138327680        1.8391222461       -0.7436238719
 H          4.3528135350       -1.7979601927        0.0376768497
 H          2.6223270714       -2.3378061426        1.6460282321
 H          0.8274258948        5.0972436607       -1.7028097048
 H         -0.0989762449        3.6943325075        1.3383672635
  35
        -70.95772207
 N         -0.1112106167       -1.2925983048       -0.0915771883
 N         -1.4187698527       -0.8626488064       -1.8625302925
 N         -3.5405455010       -0.9533761685       -0.6931779005
 N         -3.3546243166       -1.3997124269        1.6392145477
 C         -1.4035973609       -1.2940905445        0.3696196248
 C         -2.2173802865       -1.0215434266       -0.7666317422
 C         -2.0336046441       -1.4728677275        1.5846247771
 C         -0.2052688807       -1.0018756468       -1.4189185772
 C         -4.0227272200       -1.1455418207        0.5200484554
 H         -1.5166311627       -1.6602518914        2.5155790317
 H          0.6500735877       -0.9343193936       -2.0606772511
 H         -5.0981576346       -1.0927774082        0.6160710855
 P         -0.5474874841        2.1392763709       -0.3508212439
 O          1.3754700588       -0.2940599270        1.4596692415
 O          4.3368799501       -0.4972223400       -0.4147714446
 O          3.1983880976       -2.6146959619        0.7394908350
 O          0.9449265316        1.6747013815       -0.6846793800
 O         -1.2454647019        2.0315285441       -1.7440575541
 O         -0.3469521024        3.6902350929       -0.0470069922
 O         -1.2430356678        1.4259193623        0.7282292701
 C          2.9468928032       -0.4595292737       -0.3444479978
 C          2.4200776339        0.4318014915        0.8085416234
 C          2.3216176124       -1.8416614243       -0.0275543879
 C          1.0525734044       -1.4650454595        0.7515828087
 C          1.9349169034        1.7997376840        0.3326563131
 H          2.5724753141       -0.0674422603       -1.2949954927
 H          3.2119531655        0.6027725922        1.5481283648
 H          2.1080045947       -2.4292873656       -0.9209177346
 H          0.7872546968       -2.2261154459        1.4962678597
 H          2.7740002951        2.3474959545       -0.1016251562
 H          1.5243971808        2.3479792412        1.1818971760
 H          4.6471525865       -1.3300125780       -0.0113644512
 H          3.2668842178       -2.2600207345        1.6399526078
 H         -0.8757487306        2.5671520424       -2.4594244373
 H         -1.0384021084        4.0889965532        0.4924972098
  35
        -70.95767214
 N         -0.2554051363       -1.6327835138       -0.1360072714
 N         -1.7354912434       -2.4937634669       -1.5795762657
 N         -3.7327182299       -1.8235915603       -0.3811317225
 N         -3.3150495945       -0.6354877850        1.6405036114
 C         -1.4901450799       -1.3485547901        0.3755328661
 C         -2.4186169127       -1.9035419665       -0.5577940034
 C         -2.0002177352       -0.7073766869        1.4868241727
 C         -0.4787884649       -2.2987763761       -1.2986249230
 C         -4.0945081162       -1.1866804122        0.7159576599
 H         -1.3840085627       -0.2492212092        2.2469450116
 H          0.3283359464       -2.6485515118       -1.9127153360
 H         -5.1587909844       -1.1024178501        0.8850054138
 P         -0.1008186303        2.2299910832       -0.4393601627
 O          0.9029758687       -0.0739716485        1.1472932498
 O          4.0977715963       -0.8120428229        0.5127331446
 O          2.6502208385       -2.0416711573       -1.2806300411
 O          1.4324707625        2.4549121651       -0.0629250198
 O         -0.3788090938        3.4950377278       -1.3376811655
 O         -0.8337910348        2.4723871449        0.9498778844
 O         -0.4665885606        1.0097995422       -1.1707389539
 C          3.0393736852       -0.0122792601        0.0549062834
 C          2.1886379769        0.5419153714        1.2228974268
 C          2.0546090599       -0.9283536418       -0.7075830316
 C          1.0216528560       -1.2555700154        0.3971495284
 C          1.9830926175        2.0497129847        1.1806218664
 H          3.3874865962        0.7955354688       -0.5917494336
 H          2.6591212813        0.2577263844        2.1748144665
 H          1.5333775525       -0.3654439552       -1.4887411638
 H          1.4047121500       -2.0731781311        1.0368599676
 H          2.9342706664        2.5764273110        1.2662605426
 H          1.3086087248        2.3360056212        1.9889874062
 H          4.9123217500       -0.2978164223        0.5973810547
 H          3.4431316095       -2.2639694541       -0.7555216878
 H         -0.0807792305        4.3489883840       -0.9977097278
 H         -1.7929137481        2.4302783818        0.9092173238
  35
        -70.95764202
 N          0.0304382670       -1.6752676758       -0.1129934565
 N         -1.5394787038       -2.2726947700       -1.5982441014
 N         -3.4131237760       -1.2237943505       -0.4822350791
 N         -2.8548481818       -0.1120026405        1.5477128767
 C         -1.1463064793       -1.1555722413        0.3508177020
 C         -2.1316682364       -1.5435414413       -0.6099336074
 C         -1.5744614585       -0.4344337282        1.4482313825
 C         -0.2794260492       -2.3137680615       -1.2720909292
 C         -3.6855698118       -0.5054167384        0.5885945357
 H         -0.9244293223       -0.1291914330        2.2563668763
 H          0.4692348362       -2.8145054333       -1.8555031090
 H         -4.7192917152       -0.2142940700        0.7128931626
 P         -0.7741433442        2.1161057761       -0.4908146903
 O          1.4275811321       -0.7488175090        1.5500481637
 O          4.3151997356       -0.7158158345        0.6644693347
 O          3.0984385669       -2.0074514087       -1.2725183059
 O          0.5030716530        1.2456532684       -0.1368818803
 O         -0.2099271779        3.4860814151       -1.0745767314
 O         -1.3308556760        2.5422212911        0.9181273081
 O         -1.6653692041        1.3931845457       -1.4061266915
 C          3.2013379184       -0.0193579158        0.1750344888
 C          2.2328081748        0.4021487752        1.2945055434
 C          2.3563309758       -1.0240611974       -0.6358357072
 C          1.3728718619       -1.5826882036        0.4339130394
 C          1.3710989498        1.6175289511        0.9350956161
 H          3.4997616922        0.8315210778       -0.4429960483
 H          2.7623460311        0.6111162951        2.2281800733
 H          1.7742037261       -0.4974278260       -1.3987805135
 H          1.6779163760       -2.5959626426        0.7383077657
 H          1.9956651413        2.4580994376        0.6245747119
 H          0.7678127114        1.9070796761        1.7962609160
 H          4.9856066459       -0.1033739667        0.9983392740
 H          3.8939364618       -2.1856723141       -0.7373025533
 H         -0.2494101536        3.5582387066       -2.0338964621
 H         -1.9650308554        3.2687132514        0.9204975850
  35
        -70.95763458
 N         -0.2052821757       -1.1056436268        1.1246736267
 N         -2.0215488831       -0.2790709963        2.1406132142
 N         -3.6535659083       -1.1313320682        0.5648266904
 N         -2.7256461995       -2.4104571548       -1.2165951478
 C         -1.2747302159       -1.4917015741        0.3617052077
 C         -2.4194621398       -0.9512942075        1.0232238661
 C         -1.4869271764       -2.2472067616       -0.7776754591
 C         -0.7233515989       -0.3920899806        2.1549960068
 C         -3.7216573044       -1.8470111097       -0.5401779868
 H         -0.6967467593       -2.7251912534       -1.3409063515
 H         -0.0955508580        0.0256886687        2.9165694408
 H         -4.7120575548       -2.0063859440       -0.9426171920
 P         -0.1678917022        2.1702554985       -0.8230034090
 O          2.0008051044       -0.5120254680        1.6277810913
 O          3.9005568107       -0.7800019765       -0.7646635509
 O          1.8471349765       -2.2708188147       -1.3233925301
 O          0.4230038797        1.6607062815        0.5666018235
 O          0.1593095942        3.7220397726       -0.8022753139
 O         -1.7062202407        2.0014147500       -0.5813542454
 O          0.3157710476        1.4782038964       -2.0276398935
 C          2.6970742520       -0.0805418066       -0.5892306041
 C          2.5846347937        0.5139960912        0.8268690374
 C          1.5369956359       -1.1010955561       -0.6408553842
 C          1.2007140504       -1.3524722668        0.8561107334
 C          1.7944166716        1.8264969739        0.9104859604
 H          2.5509435393        0.6787479801       -1.3605166502
 H          3.5774260856        0.6896165577        1.2527875986
 H          0.6789792506       -0.6375407505       -1.1361060832
 H          1.4258147628       -2.3948560896        1.1260692483
 H          2.2581606849        2.5775379439        0.2692779364
 H          1.7961989907        2.1724130080        1.9470551888
 H          4.5865751136       -0.2007580960       -1.1237374711
 H          2.8161616781       -2.3880124173       -1.2968197665
 H          0.2447759789        4.1269615680       -1.6729957109
 H         -2.0823533328        2.6071969666        0.0701386852
  35
        -70.95756083
 N         -0.0103006303       -1.4597024124       -0.3138050091
 N         -1.5381998213       -1.0540432905       -1.8984595683
 N         -3.4275230675       -0.7222709940       -0.4220667819
 N         -2.9157528413       -0.9512176151        1.8899637756
 C         -1.1943248282       -1.2337682073        0.3420297920
 C         -2.1508177446       -0.9766580086       -0.6805096402
 C         -1.6414177268       -1.2123674912        1.6508164494
 C         -0.2919278653       -1.3446902168       -1.6318559770
 C         -3.7233155765       -0.7145408902        0.8621854376
 H         -1.0058869931       -1.4005953397        2.5046543816
 H          0.4410407405       -1.5095098640       -2.3970747165
 H         -4.7531489039       -0.5015828766        1.1114474774
 P         -0.6589922150        2.0710375945       -0.5990574263
 O          1.2983042583       -1.0758719080        1.5779426497
 O          4.2073788802       -0.7387472526        1.0518990472
 O          3.3022583737       -1.9432573641       -1.0766598100
 O          0.7139676023        1.3049990335       -0.2097109199
 O         -0.8146109300        1.7279969015       -2.1232890249
 O         -0.2825935723        3.5968694255       -0.6049969585
 O         -1.7586835745        1.7671990563        0.3242913656
 C          3.1118817882       -0.0605348362        0.5028921979
 C          1.9873589690        0.1673444210        1.5292635928
 C          2.4400747570       -1.0118528440       -0.5169936088
 C          1.2891340389       -1.6618451309        0.3114479121
 C          1.0733869279        1.3442639465        1.1687039444
 H          3.4123925309        0.8745210234        0.0235350702
 H          2.3707161221        0.3277921746        2.5395899340
 H          2.0143508092       -0.4191154166       -1.3296686873
 H          1.4559111938       -2.7409394974        0.4317096206
 H          1.5892084064        2.2859712982        1.3729749211
 H          0.1618061957        1.2997187322        1.7729670576
 H          4.7772305917       -0.1308215298        1.5422437959
 H          4.0134141609       -2.1292587739       -0.4365847365
 H         -1.3432610453        0.9484543664       -2.3504601407
 H          0.2467864899        3.8940720604       -1.3573540215
  35
        -70.95752928
 N         -0.2568407268       -0.8921811635        1.1704357741
 N         -2.0328223577        0.4303156227        1.4976049043
 N         -3.5986937435       -0.8318980237        0.1504556779
 N         -2.6972844945       -2.8157670090       -0.8044671067
 C         -1.2903979766       -1.4611215198        0.4726055678
 C         -2.4058000485       -0.5987209779        0.6826095285
 C         -1.4988103932       -2.5987623235       -0.2843417055
 C         -0.7725315490        0.2095907841        1.7611763966
 C         -3.6608293806       -1.9309669444       -0.5769551448
 H         -0.7428631167       -3.3481857237       -0.4751356439
 H         -0.1884496763        0.8211914845        2.4193575397
 H         -4.6166603938       -2.1460484763       -1.0329097443
 P         -0.2604344812        1.9827341893       -0.7368179361
 O          1.9365080097       -0.2353124718        1.6438706228
 O          3.7405152775       -0.6084161425       -1.2013898770
 O          2.2911987312       -2.6739447704       -0.4411727677
 O          0.6926816997        2.1144167596        0.5506485814
 O          0.3298817321        2.9650095383       -1.8131493051
 O         -1.5508300033        2.7153772957       -0.2272920687
 O         -0.4191238841        0.6203303469       -1.2717799268
 C          2.4985910761       -0.2381285310       -0.6874406075
 C          2.6090612238        0.5317070011        0.6452747398
 C          1.5958468367       -1.4623772642       -0.3689517087
 C          1.1528544842       -1.2456167752        1.0925017566
 C          2.1049415180        1.9809724990        0.5754998027
 H          2.0215959761        0.3808285128       -1.4510522847
 H          3.6632104084        0.5816368159        0.9462871377
 H          0.7269248945       -1.4554181381       -1.0336769784
 H          1.3187070750       -2.1671667293        1.6694577357
 H          2.5536451691        2.4543714264       -0.3017366954
 H          2.4052797831        2.5089589522        1.4836848519
 H          4.1238788499       -1.3065892397       -0.6423366334
 H          2.5514746928       -2.8417592703       -1.3603652489
 H          0.1627085661        3.9036647093       -1.6522083329
 H         -2.0785992158        2.2434824983        0.4339548146
  35
        -70.95747272
 N         -0.1697271473       -1.4665466789       -0.0676553618
 N         -1.3826814366       -1.8033701602       -1.9266121898
 N         -3.5662546803       -1.5470989947       -0.9061780038
 N         -3.5101052454       -1.0654278686        1.4243728199
 C         -1.4874401930       -1.3494415223        0.3005231657
 C         -2.2399911281       -1.5719435360       -0.8884427123
 C         -2.1866829603       -1.0910164968        1.4622173219
 C         -0.1951719562       -1.7085281583       -1.4097661569
 C         -4.1170631408       -1.2862087022        0.2641800057
 H         -1.7277896409       -0.8987247534        2.4219392354
 H          0.6950618142       -1.8414988353       -1.9919439248
 H         -5.1972132623       -1.2521305158        0.2831285723
 P         -0.3494809148        2.3960619732       -0.0141972833
 O          1.2406980978        0.2030296937        0.8506933017
 O          4.3305384765       -0.7898367841       -0.4225363627
 O          3.0892952964       -2.1086566662        1.4524917465
 O          1.1158569074        2.5431809328       -0.6613755565
 O         -0.9643310441        3.8186839276       -0.2684968561
 O         -0.2030047696        2.5007398924        1.5489126433
 O         -1.1252029825        1.2677902551       -0.5648965583
 C          2.9469885749       -0.7834188466       -0.5271359303
 C          2.2979570192        0.5391062694       -0.0473280027
 C          2.2604845961       -1.8649416040        0.3517670854
 C          0.9526064272       -1.1753290386        0.7955897223
 C          1.7372099391        1.3866659091       -1.1875223886
 H          2.7171041397       -0.9405209806       -1.5845706945
 H          3.0203081803        1.1365093051        0.5192962073
 H          2.0581952825       -2.7765651439       -0.2145112323
 H          0.6643408356       -1.4717027679        1.8104571472
 H          0.9936244263        0.8110121336       -1.7482949667
 H          2.5364734474        1.7319760445       -1.8436634446
 H          4.5737546804       -1.0466914809        0.4857172782
 H          2.9554535649       -2.9985971193        1.8062636457
 H         -1.4446637947        3.9118343016       -1.0982401411
 H          0.3800369653        1.8455781108        1.9477779084
  35
        -70.95746446
 N         -0.2649802135       -1.1151725169        1.1480846030
 N         -2.0798429959       -0.3005028350        2.1752257893
 N         -3.7160886423       -1.1782626794        0.6161120413
 N         -2.7863582520       -2.4512744084       -1.1699706958
 C         -1.3363755008       -1.5144555086        0.3964171886
 C         -2.4809616995       -0.9834791576        1.0653759859
 C         -1.5456432396       -2.2679062871       -0.7439585247
 C         -0.7805711794       -0.4008367004        2.1789282366
 C         -3.7840260466       -1.9029155911       -0.4838206952
 H         -0.7515518509       -2.7236092616       -1.3199695195
 H         -0.1524634449        0.0235198062        2.9364883369
 H         -4.7759112191       -2.0776104155       -0.8762015924
 P          0.0275132335        2.2622024166       -0.9309004219
 O          1.9546445013       -0.5892961116        1.6842617670
 O          3.8901610065       -0.7684873590       -0.6453208146
 O          1.7493978244       -2.1290925634       -1.3872487318
 O          0.3741993748        1.5740086201        0.4698187205
 O         -0.6218693829        3.6600224528       -0.5948324931
 O         -1.1418279805        1.3020379369       -1.3918052759
 O          1.1625612817        2.4015105077       -1.8513485340
 C          2.6972639114       -0.0572581515       -0.4714958754
 C          2.5246406926        0.4940564692        0.9475954461
 C          1.4784893358       -1.0014015989       -0.6191601480
 C          1.1335277480       -1.3596826327        0.8563243447
 C          1.6751980091        1.7684240527        1.0145755407
 H          2.6867872652        0.7278428714       -1.2282756297
 H          3.4878059081        0.7123368046        1.4174599810
 H          0.6394035975       -0.4584194539       -1.0664534092
 H          1.3408019409       -2.4234188244        1.0466103809
 H          2.1910585276        2.5628534767        0.4700109575
 H          1.5360604013        2.0536321184        2.0597476066
 H          4.0837187372       -1.2955102217        0.1463379350
 H          2.7067198575       -2.1389920539       -1.5859428430
 H         -1.3575990837        3.6720527311        0.0313884558
 H         -1.4923649449        1.5368552530       -2.2592291940
  35
        -70.95744143
 N         -0.2791164925       -1.6118969676       -0.2001551231
 N         -1.7909565720       -2.2350541684       -1.7301716474
 N         -3.7587102822       -1.8455092799       -0.3669688380
 N         -3.2914479547       -1.0481644418        1.8293432125
 C         -1.5013535560       -1.4602457431        0.3925678352
 C         -2.4503091753       -1.8584494073       -0.5973005919
 C         -1.9822032222       -1.0558469639        1.6218886061
 C         -0.5293997721       -2.0597691530       -1.4573488359
 C         -4.0923251208       -1.4334224569        0.8412465470
 H         -1.3475869575       -0.7338048022        2.4350173612
 H          0.2617394716       -2.2748325032       -2.1489993109
 H         -5.1513286019       -1.4083576828        1.0566492293
 P         -0.0397038432        2.3540447478       -0.5087724564
 O          0.8716634368       -0.2008770054        1.2431975528
 O          3.9950470369       -0.9601411814        0.6558900709
 O          2.6230199466       -1.8929717761       -1.3901774491
 O          1.4800681203        2.3912614251       -0.0253189673
 O         -0.0041146378        3.4308604766       -1.6531983470
 O         -0.7993491661        2.9928467840        0.7319598608
 O         -0.5912266235        1.0825670986       -0.9946498177
 C          3.0249946282       -0.0560836290        0.1960276119
 C          2.1281452368        0.4756286545        1.3364325588
 C          2.0388589531       -0.8541589129       -0.6822758491
 C          0.9985754323       -1.2963872495        0.3716730851
 C          1.8839516471        1.9796236250        1.2715497830
 H          3.4715522508        0.7647875804       -0.3698930032
 H          2.5758632356        0.2261294540        2.3078707533
 H          1.5328085623       -0.1889534514       -1.3896283438
 H          1.3755278779       -2.1775828928        0.9245946207
 H          2.8074420795        2.5239157435        1.4768329866
 H          1.1155219709        2.2452592470        1.9989300470
 H          4.7948672987       -0.4953216286        0.9392571486
 H          3.3757532100       -2.2302155120       -0.8690856183
 H          0.3950858767        4.2822748040       -1.4296894387
 H         -1.7591616774        2.9577622460        0.6836229635
  35
        -70.95740807
 N         -0.1384194730       -1.6814004608       -0.0552734907
 N         -1.7528591605       -2.1208919300       -1.5490894273
 N         -3.5549416281       -1.0170090704       -0.3705951334
 N         -2.9417277469       -0.1174578480        1.7451889998
 C         -1.2844280802       -1.1287714720        0.4493289868
 C         -2.2940689023       -1.4047253502       -0.5231296652
 C         -1.6808789804       -0.4990323476        1.6151364655
 C         -0.4956548562       -2.2471513412       -1.2381498640
 C         -3.7891118663       -0.3693105457        0.7532310447
 H         -1.0202191897       -0.3138841403        2.4493557127
 H          0.2045302160       -2.7804694688       -1.8505399376
 H         -4.8023866256       -0.0223493047        0.8984276671
 P         -0.3124890393        1.8133690431       -0.6641999971
 O          1.2760079719       -0.7600003683        1.5748636976
 O          4.0900362510        0.3662407855       -0.0539046921
 O          3.2678103189       -2.0607007993       -0.6554953296
 O         -0.0129342687        1.6419845955        0.8833468046
 O          0.4260676179        3.1804936984       -1.0045314109
 O         -1.8544727016        2.1012250503       -0.6337759779
 O          0.0343849385        0.7102233645       -1.5729665649
 C          2.7017956544        0.2517332478       -0.0736386404
 C          2.0722902631        0.3967188510        1.3270636321
 C          2.2215367538       -1.1340835041       -0.5876868129
 C          1.2142846136       -1.6156005127        0.4767149977
 C          1.2571431782        1.6818536958        1.5137668840
 H          2.3368512174        1.0388370526       -0.7363146491
 H          2.8720201917        0.4088959777        2.0796363746
 H          1.7156188210       -1.0172121128       -1.5498574729
 H          1.4982121299       -2.6272510980        0.8085338756
 H          1.8389253135        2.5300779033        1.1458279778
 H          1.0231103383        1.8155961852        2.5720885715
 H          4.4706767728       -0.4505828337        0.3147656473
 H          3.8090594545       -1.8887387473       -1.4410314852
 H          0.5309815182        3.3714705083       -1.9433646569
 H         -2.1092997028        2.9100537965       -0.1698741333
  35
        -70.95739435
 N         -0.2874602498       -0.9708693590        1.0085600076
 N         -2.1816736749       -0.0374933921        1.7534276797
 N         -3.6900797693       -1.1999225591        0.2566048594
 N         -2.6176026337       -2.7099249895       -1.2420615666
 C         -1.2973290106       -1.5177327911        0.2646150302
 C         -2.4925948931       -0.9096008007        0.7524648607
 C         -1.4135131319       -2.4343280156       -0.7627384410
 C         -0.8834358837       -0.1021897769        1.8597435877
 C         -3.6682837477       -2.0874013778       -0.7189936766
 H         -0.5729987879       -2.9438935684       -1.2136108190
 H         -0.3140863916        0.4586064117        2.5746604593
 H         -4.6274070972       -2.3440619741       -1.1469034266
 P         -0.2755931179        2.1741896539       -0.5912956749
 O          1.8302737479       -0.2465113387        1.6201269212
 O          3.9671853630       -1.1935872635       -0.3739080732
 O          1.7718630487       -2.3156383493       -1.2244249577
 O          1.3108302198        2.0281951377       -0.5873259747
 O         -0.5151584246        3.3622696485       -1.5938583326
 O         -0.5982249757        2.7126940982        0.8654075764
 O         -1.0012088634        0.9751092343       -1.0289724776
 C          2.9151616333       -0.2729206518       -0.4861536452
 C          2.7025919850        0.5362990806        0.8036783154
 C          1.6055072437       -1.0847385837       -0.6039195773
 C          1.1361356192       -1.1997671812        0.8727564492
 C          2.1628272744        1.9523960365        0.5522514564
 H          3.0385190487        0.3836022694       -1.3508396049
 H          3.6305389323        0.6224354549        1.3779216773
 H          0.8545719964       -0.5206169198       -1.1662591458
 H          1.3622266415       -2.2055024396        1.2620102719
 H          2.9999275040        2.6189061843        0.3327099638
 H          1.6351053199        2.2947186300        1.4428290673
 H          4.8142630255       -0.7727476496       -0.5767671929
 H          2.6863919806       -2.6158005584       -1.0596446220
 H         -0.0705404513        4.1981341481       -1.3999864423
 H         -1.5344633572        2.7152159107        1.0881336742
  35
        -70.95739031
 N         -0.6709735551       -0.9033550646        0.9730152364
 N         -2.7337579578       -0.1339535213        1.3827814486
 N         -3.9297081027       -1.7947406328        0.0868063954
 N         -2.5397629482       -3.4339472533       -0.9364580073
 C         -1.5245973173       -1.7359882312        0.3018460736
 C         -2.8320220087       -1.2262177786        0.5722943829
 C         -1.4320462214       -2.8871663065       -0.4585543965
 C         -1.4560207685        0.0201301123        1.5826652696
 C         -3.7057511802       -2.8630270031       -0.6539238307
 H         -0.5011880136       -3.3894683738       -0.6808815280
 H         -1.0303379179        0.7928256221        2.1906527386
 H         -4.5795304046       -3.3419453314       -1.0725996498
 P          0.2717202716        2.4211491345       -0.6061489707
 O          1.2003147379        0.3884106206        1.3046635705
 O          3.8028033806       -0.8886248735       -0.6984290560
 O          1.8068041002       -2.5861396920       -0.3833124424
 O          1.8553591828        2.5717600052       -0.5330739499
 O         -0.0643981022        3.5377608428       -1.6638227775
 O         -0.2062515571        2.9634492946        0.8090961150
 O         -0.2875342144        1.1308142277       -1.0357346250
 C          2.5746209027       -0.2554737841       -0.5296379344
 C          2.4924498124        0.5971244487        0.7552680607
 C          1.3865811670       -1.2531776196       -0.3994839678
 C          0.7662637748       -0.9034793408        0.9685905946
 C          2.6655925486        2.0910244646        0.5248806693
 H          2.4322167973        0.3785747942       -1.4071970293
 H          3.2534241535        0.2562097115        1.4729421204
 H          0.6498312917       -1.0652747401       -1.1887793008
 H          1.1312753435       -1.6398443387        1.7094961383
 H          3.6917082634        2.3097759228        0.2250078486
 H          2.4056392321        2.6171453307        1.4462430002
 H          3.9243479357       -1.5652482337       -0.0115058443
 H          2.3091978158       -2.7682940349       -1.1941356915
 H          0.3431988735        4.4027982577       -1.5253596917
 H         -1.1612947102        2.9974399113        0.9202453725
  35
        -70.95737110
 N         -0.9161935419       -1.1076159110        0.0605016836
 N         -2.6812995362       -0.9938563543       -1.3140849705
 N         -4.1074934698       -2.5261308523       -0.0919409450
 N         -3.1259379770       -3.4216093140        1.8826426594
 C         -1.8719031115       -1.9313465649        0.5980457957
 C         -2.9838770481       -1.8483009684       -0.2937131864
 C         -1.9957138486       -2.7558657602        1.7001697811
 C         -1.4685189442       -0.5883738201       -1.0710651568
 C         -4.1030241249       -3.2744894764        0.9946405486
 H         -1.2236713852       -2.9031154383        2.4430468587
 H         -0.9345437803        0.1107073146       -1.6855478023
 H         -5.0050748421       -3.8372667315        1.1876443197
 P          0.8555159315        2.7557544963       -0.9714799733
 O          0.5172503453        0.5004472170        0.9729443101
 O          3.7589882710       -0.7170402534        0.6000989924
 O          2.0154401618       -2.4498094708       -0.2740234608
 O          2.1461617281        2.8052416047       -0.0397789812
 O          1.1366395266        3.9831143280       -1.9136051369
 O         -0.3159652975        3.1792007797        0.0099559146
 O          0.6377682375        1.5371995143       -1.7652775658
 C          2.6244699709       -0.0916270726        0.0707124899
 C          1.9055549480        0.6951745356        1.1856129528
 C          1.5600928273       -1.1402643896       -0.3737157961
 C          0.3815666661       -0.8543032225        0.5975282127
 C          2.2096044768        2.1829383346        1.2302535515
 H          2.8615001304        0.5749059869       -0.7598975149
 H          2.1937093185        0.2473068165        2.1497187597
 H          1.2370816804       -0.9563943282       -1.4013426732
 H          0.5012287536       -1.4989060108        1.4844356050
 H          3.2305559490        2.3443255242        1.5797554292
 H          1.4899242699        2.6570494900        1.9014657425
 H          4.4564830463       -0.7809640839       -0.0675492946
 H          2.7840032317       -2.4521435054        0.3324487477
 H          1.3355213278        4.8244653979       -1.4827609717
 H         -1.2062775156        3.0184030284       -0.3147887562
  35
        -70.95736435
 N         -0.2625635174       -0.9425541079        1.1033838501
 N         -2.0707218130        0.2168704158        1.7415136414
 N         -3.6626321396       -0.8962787535        0.2977015676
 N         -2.7420838388       -2.6630955671       -1.0051223956
 C         -1.3124391291       -1.4495660666        0.3849878626
 C         -2.4488410766       -0.6856041429        0.7931300116
 C         -1.5234557343       -2.4705861662       -0.5221485974
 C         -0.7890149753        0.0322192789        1.8854143392
 C         -3.7231070363       -1.8696514595       -0.5902233385
 H         -0.7525621307       -3.1473250511       -0.8662703401
 H         -0.1860237236        0.5724421653        2.5876396784
 H         -4.6954339382       -2.0585743026       -1.0229516046
 P         -0.2177067063        1.9730881975       -0.7191395521
 O          1.9337217875       -0.3481272117        1.6452002488
 O          3.7745319098       -0.4368225070       -1.1104133524
 O          2.3290473322       -2.5765452463       -0.7049303601
 O          0.6079346343        2.0351246031        0.6549168726
 O          0.5643344757        2.9292578436       -1.7164113855
 O         -1.5599361043        2.6620902372       -0.3115569780
 O         -0.4133453201        0.6512613023       -1.3244901739
 C          2.4803715265       -0.1253846644       -0.6765996040
 C          2.5752016110        0.5208895966        0.7145678372
 C          1.6193767766       -1.4019808746       -0.4681913248
 C          1.1441745034       -1.3006424939        1.0048937950
 C          2.0204320472        1.9478792572        0.7733014148
 H          1.9748351262        0.5463225850       -1.3768195285
 H          3.6325483721        0.5671449839        1.0046659776
 H          0.7603533790       -1.3881435737       -1.1407274905
 H          1.2884190039       -2.2653914797        1.5135448387
 H          2.5064310453        2.5335553939       -0.0106072821
 H          2.2357004506        2.3743753165        1.7553880760
 H          3.7728239110       -0.6361335950       -2.0584175815
 H          3.2732161098       -2.4187300561       -0.5152096671
 H          0.4671241521        3.8847817824       -1.6122674010
 H         -1.5339913797        3.3711425842        0.3448308875
  35
        -70.95736046
 N         -0.1471634749       -1.2789007796       -0.0865969761
 N         -1.4843523809       -0.7940247106       -1.8217906623
 N         -3.5912275974       -1.0165694780       -0.6426345508
 N         -3.3681401809       -1.5636317897        1.6652924701
 C         -1.4334500606       -1.3396555572        0.3852303518
 C         -2.2668572107       -1.0369008540       -0.7300200609
 C         -2.0456943401       -1.5930067805        1.5960131623
 C         -0.2628268738       -0.9153488546       -1.3934824753
 C         -4.0549887715       -1.2820515874        0.5639794248
 H         -1.5125098331       -1.8062721854        2.5121921678
 H          0.5849499342       -0.7763611165       -2.0342829572
 H         -5.1305310137       -1.2700313411        0.6711821190
 P         -0.4899232391        2.1711809436       -0.3843869359
 O          1.3314659367       -0.2405438296        1.4244597680
 O          4.3667255273       -0.5224893362       -0.3168423891
 O          3.0789811177       -2.6506872579        0.7162509858
 O          1.0173170270        1.7366668166       -0.6916892551
 O         -1.1339037184        2.1096533724       -1.8069026103
 O         -0.3168493353        3.7126543866       -0.0178825119
 O         -1.2208981359        1.4153959893        0.6409359504
 C          2.9788029395       -0.4376343898       -0.3088118612
 C          2.4226236439        0.4536127585        0.8267574672
 C          2.2833870611       -1.8078585539       -0.0732434404
 C          1.0353098428       -1.4257189821        0.7369078765
 C          1.9905658074        1.8376153671        0.3430587337
 H          2.6905233509       -0.0223557794       -1.2772354569
 H          3.1826422478        0.5912413573        1.6065528210
 H          2.0012139724       -2.2974095877       -1.0085084319
 H          0.8126067623       -2.1913373469        1.4903827750
 H          2.8514252601        2.3608255445       -0.0790012907
 H          1.5808037275        2.3994289702        1.1834291208
 H          4.6615892067       -0.9737881529        0.4925032368
 H          3.6929140413       -3.1481988378        0.1549473710
 H         -0.7269695823        2.6605506799       -2.4899205703
 H         -1.0230354401        4.0794613511        0.5250707646
  35
        -70.95730930
 N          0.0079761908       -1.5877025379       -0.1436332204
 N         -1.5854034295       -2.0277930372       -1.6585326693
 N         -3.4425524234       -1.1138999707       -0.4028960253
 N         -2.8580495942       -0.2581836556        1.7408678378
 C         -1.1622774885       -1.1246155027        0.3923163214
 C         -2.1622050391       -1.4078087526       -0.5902566806
 C         -1.5759555103       -0.5476169979        1.5773366316
 C         -0.3208034853       -2.1004905065       -1.3586586703
 C         -3.7024405605       -0.5384309160        0.7550006181
 H         -0.9135426788       -0.3327566518        2.4042099008
 H          0.4152900306       -2.5459327147       -1.9999581508
 H         -4.7364843569       -0.2772044519        0.9316751237
 P         -0.7194673999        2.0573074644       -0.6431992859
 O          1.4241310750       -0.8178545253        1.5857856173
 O          4.3488142603       -0.5843129522        0.7513346651
 O          3.1794161864       -2.0095465931       -1.1562571536
 O          0.5487770524        1.2192383997       -0.1881638715
 O         -0.1792541060        3.5054527672       -1.0156520973
 O         -1.5042628252        2.3145469467        0.6979908347
 O         -1.4196982430        1.3623557431       -1.7288277376
 C          3.1765882106       -0.0012260455        0.2576095095
 C          2.1764279011        0.3758469016        1.3581290962
 C          2.3795835249       -1.0204376647       -0.5950387575
 C          1.3461702311       -1.5869208720        0.4220394151
 C          1.2785018238        1.5598117669        0.9901015419
 H          3.4893666985        0.8576135766       -0.3361273362
 H          2.6798406593        0.6085736354        2.3009090681
 H          1.8366671060       -0.5047237450       -1.3945076571
 H          1.5936206384       -2.6285766882        0.6789134325
 H          1.8824063935        2.4503871200        0.8033243102
 H          0.5759100397        1.7543228435        1.8021527184
 H          4.1452662967       -1.1792282245        1.4895523236
 H          4.0654477459       -1.9551977100       -0.7460125644
 H         -0.0814014780        3.6642169833       -1.9603225366
 H         -2.0067884669        3.1374634156        0.7355393915
  35
        -70.95729822
 N         -0.1745958673       -1.4512086968       -0.0813759589
 N         -1.3956374192       -1.7361022888       -1.9438284460
 N         -3.5750126373       -1.5620956942       -0.8977964920
 N         -3.5092040435       -1.1842484645        1.4515191376
 C         -1.4903205917       -1.3763259810        0.3013345055
 C         -2.2483619759       -1.5632236618       -0.8904877097
 C         -2.1854328050       -1.1870250050        1.4789039708
 C         -0.2058954854       -1.6418238132       -1.4314945131
 C         -4.1212605837       -1.3626078593        0.2865346700
 H         -1.7213712558       -1.0366521822        2.4436478566
 H          0.6829002155       -1.7365788268       -2.0239433985
 H         -5.2016418408       -1.3476743494        0.3143190454
 P         -0.3310360749        2.4302773640       -0.0178548259
 O          1.2410238060        0.2083198537        0.8406047238
 O          4.3606522732       -0.7286523257       -0.2046869657
 O          2.9600461455       -2.2525306014        1.4445837116
 O          1.0703547645        2.5132872926       -0.8042060779
 O         -0.9294778148        3.8542671987       -0.2943654797
 O         -0.0340543295        2.6173415011        1.5157731414
 O         -1.1716095363        1.2888115745       -0.4280571282
 C          2.9991816045       -0.7512164362       -0.4854024241
 C          2.2718711213        0.5552812511       -0.0832073040
 C          2.2442336619       -1.8643121133        0.3059209438
 C          0.9554697028       -1.1686396578        0.7737263669
 C          1.6702874662        1.3179735395       -1.2637032298
 H          2.9187172662       -0.9140215346       -1.5622985089
 H          2.9529576153        1.2293470298        0.4479723877
 H          2.0092246491       -2.7268874647       -0.3233788574
 H          0.6915919772       -1.4895488953        1.7876475805
 H          0.9086043465        0.7079675806       -1.7587045163
 H          2.4472971852        1.6171697790       -1.9681426788
 H          4.4891700461       -0.7419757349        0.7599055690
 H          3.6493131341       -2.8891002817        1.2008773092
 H         -1.4368821483        3.9321238564       -1.1093107236
 H          0.3600340089        1.8511540062        1.9460344307
  35
        -70.95729370
 N         -0.4629121735       -1.7007117075        0.8707785259
 N         -2.3231062186       -1.5069660068        2.1040026826
 N         -3.8805468417       -2.2607931583        0.4054521388
 N         -2.8630916067       -2.8614757461       -1.6628302057
 C         -1.4969788528       -2.0946476865        0.0631553377
 C         -2.6705349896       -1.9610758810        0.8657075593
 C         -1.6476971187       -2.5658587979       -1.2291106896
 C         -1.0274008436       -1.3732640954        2.0609429348
 C         -3.8939717265       -2.6932389765       -0.8401143441
 H         -0.8263805356       -2.7068251376       -1.9184237113
 H         -0.4331067426       -1.0411042506        2.8886668243
 H         -4.8641747399       -2.9460152987       -1.2438502377
 P          0.5525931062        3.1200500577       -0.4198486051
 O          1.6790154047       -0.9870029720        1.4989981227
 O          3.4710464985       -0.3969745728       -0.8097124802
 O          1.4777753248       -1.6941134597       -1.8902780992
 O          1.2820162726        2.6254887615        0.9374024879
 O          1.7233524775        3.4681321693       -1.3980936685
 O         -0.0158320642        4.5405426458       -0.0452826692
 O         -0.4069915630        2.1306395131       -0.9323529846
 C          2.2338569999        0.1658886792       -0.4685868639
 C          2.0587599860        0.3110231471        1.0503475398
 C          1.1425055524       -0.8661211451       -0.8287595754
 C          0.9425298526       -1.6407314628        0.5091065780
 C          0.9860306245        1.3404576081        1.4384489389
 H          2.0585261638        1.1061614654       -0.9963260641
 H          3.0036513751        0.5441841482        1.5471485716
 H          0.2186031397       -0.3403332424       -1.0927361335
 H          1.3173732507       -2.6696957612        0.4141785530
 H          0.9370500254        1.4219968165        2.5263018310
 H          0.0176725946        1.0142627468        1.0490015812
 H          4.1662781479        0.2754523683       -0.8184271645
 H          2.4498095051       -1.7717072872       -1.9203832634
 H          2.2537765445        4.2395113467       -1.1552004926
 H         -0.8604601214        4.5674109266        0.4173369449
  35
        -70.95728032
 N         -0.1906347545       -1.2599132114        1.1149205148
 N         -1.9808028037       -0.5030909931        2.2310468302
 N         -3.6176390917       -0.9521183960        0.5051622188
 N         -2.7310533453       -1.9729941052       -1.4529759360
 C         -1.2614379750       -1.4392138708        0.2800692583
 C         -2.3880729311       -0.9431097148        1.0067953600
 C         -1.4981111337       -1.9832412638       -0.9700606613
 C         -0.6939439455       -0.7005506414        2.2447065070
 C         -3.7036578226       -1.4547406284       -0.7106138495
 H         -0.7353357457       -2.4357416064       -1.5894468085
 H         -0.0632092220       -0.4587233929        3.0772775904
 H         -4.6895590238       -1.4615883862       -1.1534978370
 P         -0.1657580138        2.2751135614       -0.7892520044
 O          2.0081535146       -0.7196842846        1.6994675223
 O          3.9737623013       -0.6057448488       -0.6203202589
 O          2.0196702456       -2.2160089385       -1.3530274412
 O          0.2746978625        1.3708910377        0.4482208395
 O         -1.7260793981        2.3830308237       -0.6230647003
 O         -0.0084122478        1.2912540670       -2.0108338882
 O          0.5778383555        3.5428802912       -0.8916644100
 C          2.7078885613       -0.0443996584       -0.4256047372
 C          2.4741131372        0.4404184759        1.0094835975
 C          1.5983686408       -1.1134538814       -0.6139176545
 C          1.2174834349       -1.4953009828        0.8446730205
 C          1.5054985853        1.6234592944        1.1145138587
 H          2.6093836314        0.7626902009       -1.1537229244
 H          3.4064600689        0.7328842551        1.5000243517
 H          0.7361952044       -0.6620004361       -1.1093491472
 H          1.4391123043       -2.5547535403        1.0365798909
 H          1.9628864828        2.5204916418        0.6892864370
 H          1.2683300705        1.7927070389        2.1679303298
 H          4.2326072875       -1.1251178414        0.1575457535
 H          2.9756195782       -2.1163428635       -1.5319700126
 H         -2.0379152557        3.1539287337       -0.1361982653
 H         -0.1256215668        1.7040121365       -2.8748287410
  35
        -70.95727049
 N         -0.3168876477       -1.0371254533        0.9427206206
 N         -2.2995734417       -0.5489381290        1.8764734086
 N         -3.6914767733       -1.4892182370        0.1425304938
 N         -2.5014989706       -2.5460794375       -1.6208622748
 C         -1.2716974850       -1.5094078042        0.0762799621
 C         -2.5218510986       -1.1786279535        0.6865493222
 C         -1.3241033037       -2.2567526387       -1.0873173925
 C         -1.0071441452       -0.4774936558        1.9754713983
 C         -3.6018617589       -2.1342947473       -1.0041091568
 H         -0.4612957105       -2.6641081454       -1.5943915017
 H         -0.5064148268       -0.0372422217        2.8146076781
 H         -4.5369882243       -2.3823061206       -1.4861447503
 P         -0.2061145132        2.3901360816       -0.1755634626
 O          1.4840985098        0.4481759050        0.8921529833
 O          3.9237556993       -1.3099760159        0.2455582881
 O          1.8315306002       -2.7903083596       -0.6315380159
 O          1.3311767324        2.7283276081       -0.5359566806
 O         -0.9795663086        3.6677042710       -0.6551345213
 O         -0.3169002542        2.5263849160        1.3973073657
 O         -0.7171881516        1.1754231718       -0.8260626007
 C          3.0135512104       -0.6288300100       -0.5727722740
 C          2.5749307390        0.7254177924        0.0062130454
 C          1.6885267600       -1.4176701446       -0.5284195449
 C          1.1098765749       -0.9196110522        0.8103583169
 C          2.1146473832        1.6947369307       -1.0923864826
 H          3.3840620794       -0.5282776556       -1.5963501657
 H          3.3557947382        1.1913022926        0.6157786521
 H          1.0319937447       -1.0773477345       -1.3336046994
 H          1.5811666702       -1.4606959418        1.6482013019
 H          1.5145199432        1.1575287008       -1.8320440609
 H          2.9681657296        2.1776795000       -1.5685212825
 H          4.8277717807       -1.0035938853        0.0861451362
 H          2.6276783660       -3.0589096308       -0.1387138534
 H         -0.7285279007        4.5035359901       -0.2405335307
 H          0.3813583156        2.0858939976        1.8922129016
  35
        -70.95718758
 N         -0.2243394784       -1.6513846297       -0.1378876238
 N         -1.7942447322       -1.7007351696       -1.7382744390
 N         -3.6764578937       -1.1340346450       -0.3238674045
 N         -3.1328291586       -0.8650992596        1.9772988322
 C         -1.4100858554       -1.3619611873        0.4821569615
 C         -2.3922522406       -1.3827051272       -0.5552801080
 C         -1.8492193077       -1.1165486162        1.7702872335
 C         -0.5322283517       -1.8423295595       -1.4472422082
 C         -3.9599223324       -0.8739914236        0.9372790179
 H         -1.2024882411       -1.1294806342        2.6361129616
 H          0.2078611346       -2.1161590710       -2.1734250706
 H         -4.9950833598       -0.6533160282        1.1566358010
 P          0.1225832391        2.2735140395       -0.8876697645
 O          1.1063926668       -1.0794736897        1.7095442593
 O          3.9429235946       -0.0440225191        0.8592803028
 O          3.1667044826       -1.7863913020       -0.8626439233
 O         -0.1405618641        1.1998764192        0.2630293569
 O         -1.3115771168        2.7087610141       -1.3707124602
 O          0.6279395742        1.3622401691       -2.0659788762
 O          1.0187743437        3.3671917027       -0.4691702719
 C          2.6313808886        0.2288249407        0.4491794896
 C          1.6443685143        0.2367933844        1.6324569060
 C          2.1431000733       -0.9491476510       -0.4363438930
 C          1.1045478855       -1.6886068266        0.4574923391
 C          0.5596293553        1.3088701486        1.4946226665
 H          2.5671386982        1.1698636393       -0.1048781078
 H          2.1670904359        0.3978613257        2.5800243165
 H          1.6412605773       -0.5576274075       -1.3240840616
 H          1.3947599139       -2.7404231136        0.5895944635
 H          1.0195879414        2.2988976909        1.5568665557
 H         -0.1799938002        1.1844191438        2.2883466478
 H          4.4315837044        0.7726869634        1.0258560003
 H          3.9299053256       -1.6664682394       -0.2661384022
 H         -1.6852272028        3.4835377145       -0.9367572808
 H          0.6628038481        1.7945800662       -2.9279134814
  35
        -70.95717066
 N         -0.1394901661       -1.6686268995       -0.2014209955
 N         -1.7272344841       -1.9839732995       -1.7527944099
 N         -3.6196738396       -1.4158796567       -0.3519847303
 N         -3.0533742271       -0.8519951673        1.8908585596
 C         -1.3292058980       -1.3975526253        0.4150373979
 C         -2.3253777044       -1.5941581533       -0.5914738764
 C         -1.7595828872       -1.0393007835        1.6785455401
 C         -0.4536908866       -1.9989244267       -1.4816959534
 C         -3.8964467557       -1.0370588951        0.8804895654
 H         -1.0962532816       -0.9101589093        2.5214066389
 H          0.3018775709       -2.2610483255       -2.1969374169
 H         -4.9411094712       -0.8680256369        1.1010618411
 P         -0.1826141128        2.2246200864       -0.7393228636
 O          1.2352833607       -1.0257002934        1.6030504868
 O          4.0449341490       -0.4002187974        0.7118875626
 O          2.9310619930       -1.3989706382       -1.4331877782
 O         -0.0372858241        1.1825932078        0.4407859162
 O          1.3108432025        2.6262073690       -1.0637759608
 O         -0.7609984684        3.5568704743       -0.0970638844
 O         -0.9759728710        1.6591103273       -1.8369053837
 C          2.8299171125        0.2304586225        0.4061489695
 C          1.8678155224        0.2550994471        1.6062944485
 C          2.0898777628       -0.6748000990       -0.6019700970
 C          1.2127629238       -1.5717246385        0.3206908703
 C          0.8345963733        1.3882652977        1.5506561495
 H          2.9878970203        1.2288012872       -0.0079881351
 H          2.4096384633        0.3185119939        2.5544170049
 H          1.4291571307       -0.0741456154       -1.2373934791
 H          1.6288645283       -2.5897987317        0.3661562955
 H          1.3305129899        2.3558603485        1.4727982617
 H          0.2132505716        1.3559559028        2.4482018521
 H          4.6508885857        0.2168960685        1.1446789462
 H          3.7659369665       -1.5594033817       -0.9542720364
 H          1.4040162342        3.2641252626       -1.7815712537
 H         -1.7118662892        3.6726075516       -0.1902277564
  35
        -70.95716516
 N         -0.2134341708       -1.6159943794       -0.1287106935
 N         -1.7896022651       -1.6377615568       -1.7241108585
 N         -3.6508442802       -1.0010109856       -0.3117581012
 N         -3.0945402915       -0.7319599970        1.9862653512
 C         -1.3907805197       -1.2903750320        0.4914912861
 C         -2.3751569094       -1.2901805387       -0.5431621189
 C         -1.8196076085       -1.0227486311        1.7787467889
 C         -0.5319179483       -1.8133561541       -1.4348960130
 C         -3.9234547722       -0.7222382507        0.9476242029
 H         -1.1711316170       -1.0462667786        2.6429771697
 H          0.1922453091       -2.1220365436       -2.1626828037
 H         -4.9508868501       -0.4680423330        1.1671844546
 P          0.0495246135        2.1607685495       -0.9126424844
 O          1.1350833047       -1.0459107343        1.7101829025
 O          3.9502879882        0.1746265556        0.7594776973
 O          3.2804528049       -1.9256555226       -0.6131027631
 O         -0.1789441875        1.2108685855        0.3459318443
 O         -1.4042290019        2.5416396676       -1.3796822707
 O          0.5154693503        1.1471668522       -2.0265149357
 O          0.9591938551        3.2889631173       -0.6403035872
 C          2.6127717412        0.2325014839        0.3480286322
 C          1.6997122432        0.2541708504        1.5846022572
 C          2.2065248221       -1.0645551541       -0.4148699105
 C          1.1077113379       -1.7017607226        0.4812217462
 C          0.6328106419        1.3491035808        1.5036178371
 H          2.4204764694        1.1167490418       -0.2654339291
 H          2.2961305447        0.4192976484        2.4875083765
 H          1.7978668688       -0.8172573617       -1.3955593353
 H          1.3338561646       -2.7621089375        0.6641749470
 H          1.1205224102        2.3275361494        1.4868318887
 H         -0.0379984448        1.2729815906        2.3614342191
 H          4.5307069845        0.5590751931        0.0868058426
 H          3.9236106346       -1.7883907259        0.1084495131
 H         -1.7811658146        3.3355505188       -0.9849415661
 H          0.5309598730        1.5262428379       -2.9139401413
  35
        -70.95716441
 N         -0.1502270950       -1.6215017904        0.6789312110
 N         -2.2113193111       -2.0668469905        1.4523354232
 N         -3.4398590776       -1.1889808647       -0.4315441923
 N         -2.0892279971       -0.3024979655       -2.1730377499
 C         -1.0239985177       -1.1688697896       -0.2790154204
 C         -2.3269771929       -1.4690157464        0.2317864834
 C         -0.9667032031       -0.5704639043       -1.5222895538
 C         -0.9340355986       -2.1107363992        1.6796508192
 C         -3.2452797594       -0.6077529254       -1.5996720003
 H         -0.0537658607       -0.2961021025       -2.0303698127
 H         -0.5108140669       -2.5186444382        2.5768718243
 H         -4.1339437312       -0.3593899684       -2.1620181275
 P         -0.6844328585        2.0957714896        0.4421324163
 O          1.5922865314       -0.1668521306        1.2495794197
 O          3.9715487341       -0.3835020197       -1.2413623177
 O          3.0493821877       -2.6598059367       -0.3670096951
 O          0.6173047056        1.8803317371       -0.4609759355
 O         -1.7714836514        2.3251795945       -0.6652560903
 O         -0.3910382972        3.5086654592        1.1143085483
 O         -1.0663089070        1.0622665576        1.4112578368
 C          2.6144487741       -0.3142913861       -0.9154988187
 C          2.4611576204        0.5246345310        0.3663975731
 C          2.0426047101       -1.7096736988       -0.5353946574
 C          1.2802364528       -1.4598326424        0.7887326778
 C          1.9178982617        1.9296843814        0.1115832067
 H          2.0258584096        0.1363633065       -1.7194763081
 H          3.4481417457        0.6162184803        0.8418579290
 H          1.3523465238       -2.0960124698       -1.2917082956
 H          1.6121279975       -2.1890041323        1.5421288438
 H          2.5562601137        2.4478021905       -0.6070951129
 H          1.8870789748        2.4792554120        1.0526509337
 H          4.0888791718       -0.6230214582       -2.1729323960
 H          3.9091273009       -2.1984848900       -0.3128686406
 H         -1.6112758500        3.0717868236       -1.2586127238
 H         -0.8331205593        3.6440938559        1.9596539278
  35
        -70.95714289
 N         -0.3478781513       -1.5175056915        0.8636138678
 N         -2.4005224771       -1.8585175124        1.7096731588
 N         -3.6208998864       -1.6687536991       -0.3652891306
 N         -2.2762274046       -1.2230419502       -2.2726031097
 C         -1.2182689451       -1.4308780112       -0.1969944830
 C         -2.5130301701       -1.6588921375        0.3635951708
 C         -1.1604324285       -1.2121951059       -1.5608451094
 C         -1.1319967603       -1.7466941177        1.9562483722
 C         -3.4277454610       -1.4404194710       -1.6491643407
 H         -0.2525194348       -1.0163398601       -2.1138498974
 H         -0.7135776645       -1.8446822941        2.9392540097
 H         -4.3112355870       -1.4349890273       -2.2716276334
 P         -0.3087578055        2.3789300904        0.2352485865
 O          1.2806659573        0.1585203688        1.0761922350
 O          3.5822956116       -0.5349407194       -1.5890389582
 O          3.0230788274       -2.4417764182        0.1536335866
 O          1.0216811171        2.2924131617       -0.6426035516
 O         -1.0228810037        3.6232625750       -0.4266117185
 O          0.2125209563        2.8589666139        1.6546542395
 O         -1.2285908460        1.2341192192        0.2327167566
 C          2.3731958320       -0.4207601791       -0.9203214267
 C          2.4027161414        0.5296873817        0.2925786428
 C          1.8875681946       -1.7362841614       -0.2669523921
 C          1.0589589414       -1.2383628820        0.9451597696
 C          2.2881401978        2.0006625972       -0.0752872031
 H          1.6334115442       -0.0444636162       -1.6338395215
 H          3.3282180436        0.3663041899        0.8637317165
 H          1.2723471383       -2.3299410052       -0.9459325600
 H          1.4261058568       -1.7294830803        1.8602637402
 H          3.0246848339        2.2410415775       -0.8442566733
 H          2.4375387872        2.6129097709        0.8150045195
 H          4.1486490647       -1.1568736753       -1.0972383506
 H          2.8521989011       -3.3926219120        0.2018217502
 H         -0.5048214577        4.4337853041       -0.5154574013
 H         -0.4044437550        2.7016960864        2.3763291425
  35
        -70.95711427
 N         -0.2004592627       -1.5727611691        0.7068898904
 N         -1.9497131878       -1.4711287125        2.1040467303
 N         -3.6802029496       -1.5000587236        0.4087255731
 N         -2.8671789494       -1.6524948412       -1.8249796512
 C         -1.3183407247       -1.5863639923       -0.0832907653
 C         -2.4184417468       -1.5121924032        0.8237604956
 C         -1.6020709210       -1.6700814925       -1.4337987118
 C         -0.6532771941       -1.5043490781        1.9853882161
 C         -3.8180985017       -1.5605481652       -0.9013578370
 H         -0.8496773455       -1.7545179451       -2.2062639871
 H          0.0217548183       -1.4926579047        2.8190524603
 H         -4.8333866149       -1.5439288502       -1.2722417995
 P         -0.0962218235        2.4048218989       -0.1294206632
 O          2.0267460490       -1.1461284403        1.3105358854
 O          3.8318098129       -0.4211100185       -0.9241814542
 O          1.6412322939       -1.3481639952       -2.1241350821
 O          1.2932958673        2.3176603718        0.6909123080
 O          0.3391642024        2.4694627432       -1.6314215326
 O         -0.6105605398        3.8670658743        0.1475278930
 O         -1.0147305680        1.3046757550        0.2023258751
 C          2.6458545471        0.1829883845       -0.4925245723
 C          2.4950245054        0.1754870416        1.0305469119
 C          1.4218996954       -0.6497712847       -0.9422384518
 C          1.1858342633       -1.5863239590        0.2782796912
 C          1.5226314495        1.2451559762        1.5836490863
 H          2.6380429988        1.1842544578       -0.9196358483
 H          3.4657552759        0.2604748942        1.5238386982
 H          0.5507379854       -0.0011722432       -1.0722937436
 H          1.4549082511       -2.6228686777        0.0262743502
 H          1.9294497663        1.6837618648        2.4963643468
 H          0.5676153424        0.7627383780        1.8101026980
 H          4.0347572619       -1.1931434632       -0.3726366680
 H          2.6005686150       -1.3331836497       -2.3122770094
 H          0.6332061964        3.3375956099       -1.9379212947
 H         -1.1305715030        3.9994649665        0.9478873130
  35
        -70.95711259
 N         -0.8769832569       -0.9498961365        0.1283687712
 N         -2.6790079555       -0.8026329356       -1.1882244904
 N         -3.8870226641       -2.6822809774       -0.2401818688
 N         -2.7365652790       -3.8001086059        1.5210566068
 C         -1.7137064062       -1.9625904515        0.5170358172
 C         -2.8558641807       -1.8499110969       -0.3319855042
 C         -1.6953745903       -2.9844066793        1.4470013583
 C         -1.5115599642       -0.3068895991       -0.8894411152
 C         -3.7572074121       -3.6070044966        0.6924291166
 H         -0.8724454563       -3.1724827367        2.1227927348
 H         -1.0784201134        0.5463754898       -1.3754530008
 H         -4.5821697521       -4.2980752548        0.7915833423
 P          0.4851693551        3.1720472923       -0.6897402967
 O          0.8371813206        0.5957799737        0.3334404835
 O          3.8813910290       -1.1903197938        0.5625798249
 O          1.7403745552       -2.6292658776        1.1646345717
 O          2.0342636318        2.9560993706       -0.2902135599
 O          0.4449333972        4.7412771593       -0.8878606468
 O         -0.3883222929        3.0002185261        0.5991885231
 O          0.0624584563        2.3706342847       -1.8475797925
 C          2.7384324088       -0.7748066956       -0.1106863397
 C          2.2561113770        0.6348639760        0.3068225647
 C          1.5008924683       -1.6837123380        0.1661980832
 C          0.4242906998       -0.6948009118        0.6805361884
 C          2.6541874283        1.7416099216       -0.6602312227
 H          2.9903146992       -0.7846556579       -1.1734541036
 H          2.6295018557        0.8716143567        1.3139885514
 H          1.1502565612       -2.1552132397       -0.7596903386
 H          0.3551142515       -0.8089951361        1.7771732907
 H          2.3242608696        1.4681546803       -1.6665994259
 H          3.7303111853        1.9136387341       -0.6322207607
 H          3.6603192959       -1.4035498505        1.4853915470
 H          2.3341392770       -3.3202341266        0.8312618008
 H          0.7760333468        5.0690761412       -1.7303330166
 H         -0.2199268024        3.6575520752        1.2867187345
  35
        -70.95709943
 N         -0.1830262162       -1.2475011695        0.7913919313
 N         -2.0355339962       -1.0210457737        2.0339401196
 N         -3.6294951799       -1.2105700973        0.2228415383
 N         -2.6573893600       -1.6304308949       -1.9086068081
 C         -1.2361731908       -1.3466850767       -0.0788708823
 C         -2.4031077075       -1.1802003407        0.7311861906
 C         -1.4248617653       -1.6104338246       -1.4232268768
 C         -0.7357926725       -1.0552811107        2.0186455496
 C         -3.6719201230       -1.4141505261       -1.0798633645
 H         -0.6252567904       -1.8242969767       -2.1190597518
 H         -0.1251755338       -0.9455443884        2.8928273782
 H         -4.6566235079       -1.4270517796       -1.5255860371
 P         -0.4008801232        2.1842807402       -0.0403359888
 O          1.9803498106       -0.6980178423        1.4841922563
 O          4.0778760838       -0.9210646248       -0.7102766308
 O          1.8476784292       -1.9165476401       -1.7914168705
 O          1.1899598663        1.9789549613       -0.1839529349
 O         -0.9411095769        1.5176370870       -1.3517215978
 O         -0.6382228499        3.7258704792       -0.3047906370
 O         -0.9352049108        1.6681271949        1.2246959007
 C          2.9544400688       -0.1007793365       -0.5632804151
 C          2.7141254880        0.3676532686        0.8746402689
 C          1.6586004253       -0.8937017704       -0.8687608311
 C          1.2350869370       -1.4085765567        0.5322096270
 C          1.9943939048        1.7249987765        0.9585987074
 H          3.0849745529        0.7324964982       -1.2538860762
 H          3.6438076451        0.4425925254        1.4453084741
 H          0.8864566123       -0.2171696673       -1.2439183449
 H          1.4716857685       -2.4806261083        0.6313395281
 H          2.7360306041        2.5246415878        1.0075404781
 H          1.3699905388        1.7306130273        1.8563178362
 H          4.1691039723       -1.5114078314        0.0532207346
 H          2.8084611240       -2.0725376456       -1.8812736136
 H         -0.8650667688        2.0824328026       -2.1327612023
 H         -0.7790158435        4.2719886292        0.4761555452
  35
        -70.95707744
 N         -0.1022483206       -1.2456302821        0.9919545398
 N         -2.1770636210       -1.2383445083        1.8542744006
 N         -3.3803907625       -1.1230037806       -0.2319115712
 N         -2.0107726706       -1.0760890090       -2.1703972430
 C         -0.9620430359       -1.1512162412       -0.0779849659
 C         -2.2727515276       -1.1591491322        0.4955771317
 C         -0.8966220880       -1.1125156435       -1.4590935738
 C         -0.9018679331       -1.2737739967        2.0948962797
 C         -3.1738054048       -1.0685895826       -1.5315337680
 H          0.0188428438       -1.1114673758       -2.0324682210
 H         -0.4904828307       -1.3309922193        3.0836822978
 H         -4.0561312893       -1.0305993552       -2.1543521756
 P         -0.8475864302        2.0663333285       -0.0482646897
 O          1.8166783496        0.0867200948        1.3086097574
 O          3.9700348083       -0.6551617184       -1.2005706910
 O          3.1128130132       -2.6476075489        0.2499121545
 O          0.4130136532        1.4555205261       -0.7984363792
 O         -0.6110343454        3.6392036704       -0.0090967938
 O         -0.6586138053        1.6614023124        1.4632434276
 O         -2.0927197792        1.6511492866       -0.7037030121
 C          2.6184834508       -0.5255208497       -0.8672156075
 C          2.4755075231        0.6109870509        0.1647518248
 C          2.0823448661       -1.7893977666       -0.1349343436
 C          1.3447861025       -1.2167604501        1.0945771087
 C          1.7297206257        1.8274336643       -0.3849270379
 H          2.0033161448       -0.2998944946       -1.7430836267
 H          3.4758440628        0.9359757535        0.4780037858
 H          1.3925847471       -2.3738486647       -0.7493070693
 H          1.5969621174       -1.8052959587        1.9868462839
 H          2.2506005543        2.2123559047       -1.2635465803
 H          1.6729120856        2.5959611751        0.3859582754
 H          4.0744028576       -1.1615394045       -2.0199510874
 H          3.9545679348       -2.1540457058        0.2409484069
 H         -1.0670744464        4.1268370843       -0.7032370661
 H         -0.9913743565        2.3007252332        2.1045319600
  35
        -70.95700260
 N         -0.4625512785       -1.6968275686        0.8652001942
 N         -2.3151665954       -1.5159820246        2.1108796351
 N         -3.8834927144       -2.2430849683        0.4103378925
 N         -2.8776039241       -2.8230895096       -1.6694173449
 C         -1.5019503735       -2.0774121110        0.0577450456
 C         -2.6706662014       -1.9516884490        0.8681043997
 C         -1.6594625350       -2.5353940097       -1.2383247676
 C         -1.0198534825       -1.3851202175        2.0634861789
 C         -3.9042736667       -2.6604781695       -0.8403139942
 H         -0.8416910201       -2.6743660935       -1.9323283282
 H         -0.4210988394       -1.0680691306        2.8939189209
 H         -4.8770087382       -2.9059430010       -1.2423904852
 P          0.5577292758        3.1093369709       -0.4217231654
 O          1.6947996259       -1.0043009372        1.4837089515
 O          3.5044757609       -0.3133235971       -0.8025330047
 O          1.5161533727       -1.6987870330       -1.8872283552
 O          1.2272662189        2.6108240745        0.9645420144
 O          1.7601125887        3.4407741597       -1.3654797284
 O         -0.0068966944        4.5360345548       -0.0672629006
 O         -0.3945570660        2.1282235408       -0.9637787959
 C          2.2359617540        0.1656604930       -0.4600344717
 C          2.0391095183        0.3115582537        1.0508329189
 C          1.1444123318       -0.8659450026       -0.8375455019
 C          0.9394796379       -1.6463377074        0.4953018465
 C          0.9368926386        1.3116704529        1.4289399149
 H          2.0983601521        1.0994560448       -1.0041286057
 H          2.9696414431        0.5822589583        1.5564534520
 H          0.2208981225       -0.3416050332       -1.1089481188
 H          1.3018005072       -2.6795093374        0.3928548624
 H          0.8570078839        1.3706858836        2.5166598966
 H         -0.0155854287        0.9817103476        1.0050420772
 H          3.7919683536       -0.9820478753       -0.1601487922
 H          2.4647716104       -1.5529807223       -2.0727665282
 H          2.3146851307        4.1851312884       -1.0950674428
 H         -0.8576655766        4.5721960839        0.3834879685
  35
        -70.95699725
 N         -0.1457118071       -1.2827354233       -0.0924543786
 N         -1.4909068334       -0.8185469250       -1.8272190607
 N         -3.5926551536       -1.0316678144       -0.6367705870
 N         -3.3584113791       -1.5579086888        1.6751670170
 C         -1.4299362584       -1.3435853453        0.3842481218
 C         -2.2684476885       -1.0520270505       -0.7300064151
 C         -2.0363257541       -1.5861523144        1.6003028715
 C         -0.2673917657       -0.9356279671       -1.4024901107
 C         -4.0504375941       -1.2871986381        0.5741443908
 H         -1.4975036568       -1.7906280600        2.5151750465
 H          0.5769192911       -0.8079445375       -2.0499191138
 H         -5.1254912885       -1.2754765972        0.6862291508
 P         -0.4925841989        2.1707688461       -0.3866968370
 O          1.3306446345       -0.2594650668        1.4314218142
 O          4.3447655423       -0.5838843137       -0.3079935973
 O          3.0947731372       -2.6335643199        0.7042447814
 O          1.0270483352        1.7538315888       -0.6616567810
 O         -1.1083058301        2.0827862081       -1.8198075541
 O         -0.3433979340        3.7187122447       -0.0376227326
 O         -1.2259531696        1.4170169739        0.6376991377
 C          2.9578874876       -0.4195262884       -0.3202246310
 C          2.4209597063        0.4476039212        0.8439187843
 C          2.2959847438       -1.7948572293       -0.0770919626
 C          1.0379661118       -1.4364256855        0.7274412419
 C          1.9669868051        1.8407197065        0.4052366852
 H          2.6074529096       -0.0037677239       -1.2712936909
 H          3.1906767053        0.5541276754        1.6188000349
 H          2.0381983508       -2.3008422296       -1.0168343011
 H          0.8222632709       -2.2168218128        1.4671861746
 H          2.8142755424        2.4215294811        0.0354766755
 H          1.5133690713        2.3451658289        1.2595502569
 H          4.7898130997        0.1971488217       -0.6635557740
 H          4.0280337922       -2.4331513669        0.5090910244
 H         -0.7104107101        2.6448732548       -2.4991673555
 H         -1.0589755996        4.0836180168        0.4940180116
  35
        -70.95699294
 N          0.0681744959       -1.6719236511       -0.1705804597
 N         -1.5297124629       -2.2624024890       -1.6276819410
 N         -3.3787545500       -1.1912430804       -0.4850431323
 N         -2.7846673027       -0.1224621596        1.5585513769
 C         -1.1041251267       -1.1568075155        0.3180263721
 C         -2.1032957976       -1.5287351058       -0.6303289871
 C         -1.5065973393       -0.4411811164        1.4289239427
 C         -0.2663990607       -2.3194872060       -1.3189142949
 C         -3.6307418933       -0.4917574858        0.6039603600
 H         -0.8360036397       -0.1323664010        2.2184774678
 H          0.4569562723       -2.8528251027       -1.9044991361
 H         -4.6601382557       -0.1943712777        0.7475576260
 P         -0.9063701288        2.3144094736       -0.3041591806
 O          1.4616763918       -0.5196444011        1.3276832549
 O          4.3847948252       -0.7602598428        0.8144188843
 O          3.2749477833       -2.6690096441       -0.6841793848
 O          0.4262189900        2.0044041064        0.5250491420
 O         -0.5621217023        3.7059625546       -0.9962420980
 O         -1.9493265604        2.6187930255        0.8148947026
 O         -1.2928331787        1.2676235995       -1.2612227745
 C          3.3535514922       -0.3053080240       -0.0106380878
 C          2.2791913554        0.4893028573        0.7414210339
 C          2.5317014806       -1.5020611006       -0.5643065820
 C          1.3718202260       -1.6226707150        0.4688156052
 C          1.4997289519        1.4173163306       -0.1955201848
 H          3.8259103851        0.2645885515       -0.8108888401
 H          2.6749537613        1.0734320180        1.5753465606
 H          2.1189420109       -1.2523535023       -1.5471063233
 H          1.4859855142       -2.5350204745        1.0731490159
 H          1.0894372709        0.8640471654       -1.0460197300
 H          2.1586518054        2.2090452293       -0.5603818173
 H          4.0351280011       -1.0116491575        1.6835772655
 H          4.1048207587       -2.5605374916       -0.1793812671
 H         -0.9747741821        3.8532692716       -1.8542692578
 H         -1.7291501585        3.3421392699        1.4179392892
  35
        -70.95696587
 N         -0.2424992515       -1.1586584077        1.1644047367
 N         -2.0375951474       -0.2691764328        2.1690182119
 N         -3.6701675335       -0.9525408487        0.5165298457
 N         -2.7771378543       -2.2318212677       -1.2804839057
 C         -1.3114632720       -1.4534319666        0.3613198881
 C         -2.4415994419       -0.8684672761        1.0133873847
 C         -1.5446597326       -2.1672970242       -0.8001459481
 C         -0.7501633936       -0.4586578955        2.2107555338
 C         -3.7529143743       -1.6206446447       -0.6173959382
 H         -0.7802816254       -2.7009234335       -1.3484767072
 H         -0.1229112480       -0.1127821542        3.0081333545
 H         -4.7385337681       -1.6941531599       -1.0547486280
 P         -0.0600059743        2.2481662547       -0.9059762617
 O          1.9657768802       -0.6408346768        1.7400059753
 O          3.9139438116       -0.4954361954       -0.7449042872
 O          2.0900991095       -2.3775194203       -1.0696775128
 O          0.3018890036        1.4707286303        0.4375352276
 O         -1.5567432648        2.6909322916       -0.7041823435
 O         -0.1934059750        1.0763590374       -1.9526484661
 O          0.8982754785        3.3133577007       -1.2499794157
 C          2.6262840760       -0.0508158056       -0.4480971710
 C          2.4642266336        0.4665854442        0.9919125208
 C          1.5738137309       -1.1926375468       -0.5378313828
 C          1.1635251666       -1.4465658180        0.9313857652
 C          1.5535353493        1.6951400251        1.0747417598
 H          2.4099758897        0.7426137600       -1.1681449604
 H          3.4278323710        0.7286557210        1.4369922431
 H          0.7094394040       -0.8470024321       -1.1142912729
 H          1.3555407981       -2.4968141844        1.1946375334
 H          2.0475755459        2.5464118658        0.5987742282
 H          1.3403756709        1.9205363858        2.1219527095
 H          4.1687699885       -1.2079064542       -0.1369036004
 H          2.6208756905       -2.1739517860       -1.8566741747
 H         -1.6958315643        3.5328764664       -0.2564674902
 H         -0.3997092967        1.3723448986       -2.8475415644
  35
        -70.95695099
 N         -0.3299089105       -1.5349492451        0.8430514725
 N         -2.3514362233       -2.0184268974        1.6913115202
 N         -3.6117968200       -1.7399026098       -0.3517105245
 N         -2.3155583397       -1.1003308998       -2.2384922324
 C         -1.2190490095       -1.4170208223       -0.1969559918
 C         -2.4941484028       -1.7354307160        0.3632428382
 C         -1.1923638968       -1.0890034119       -1.5392505919
 C         -1.0831095239       -1.8734675432        1.9269388114
 C         -3.4465423077       -1.4169146948       -1.6189459534
 H         -0.3027745139       -0.8012666322       -2.0809005659
 H         -0.6438764852       -2.0230410379        2.8941623728
 H         -4.3378942844       -1.4095328740       -2.2300966493
 P         -0.3282836426        2.3920254430        0.2710006419
 O          1.2705501990        0.1616046026        1.0333128306
 O          3.7245145398       -0.5318212826       -1.4147135722
 O          2.9114060108       -2.5601533589        0.0509631036
 O          0.9822663210        2.2966591130       -0.6421609080
 O         -1.0388760919        3.6537039525       -0.3599783619
 O          0.2302874037        2.8503785851        1.6825838558
 O         -1.2604095506        1.2579375809        0.2754483922
 C          2.4180747851       -0.3928739136       -0.9465162984
 C          2.3964194992        0.5488701235        0.2675108874
 C          1.8727343038       -1.7131623724       -0.3417787193
 C          1.0724186013       -1.2374943056        0.8966365814
 C          2.2602628198        2.0216980547       -0.0923468606
 H          1.7326243176       -0.0038759148       -1.7056891682
 H          3.3204377878        0.3986955411        0.8445457868
 H          1.2167347359       -2.2560801050       -1.0317448533
 H          1.4743354898       -1.7459696675        1.7868729683
 H          2.9868064913        2.2844211690       -0.8629099156
 H          2.4108051353        2.6264601954        0.8024738885
 H          3.7309587735       -0.8004870338       -2.3453303193
 H          3.7537106865       -2.1788910036       -0.2692160650
 H         -0.5181478948        4.4637530546       -0.4378566058
 H         -0.3255597464        2.5980800736        2.4258862432
  35
        -70.95695096
 N         -0.8676117342       -0.7705584434        0.7164018603
 N         -2.9736839745       -0.0220551114        0.6174910270
 N         -3.9963329227       -2.1120923102       -0.0658931191
 N         -2.4715650233       -3.9284133432       -0.2820246287
 C         -1.6324682181       -1.8425931272        0.3376949148
 C         -2.9688090543       -1.3422391339        0.2748984724
 C         -1.4309730718       -3.1807446848        0.0550038621
 C         -1.7294497383        0.2702962617        0.8694463123
 C         -3.6734228914       -3.3643105543       -0.3290925188
 H         -0.4657446608       -3.6656788197        0.0953850019
 H         -1.3874174641        1.2410788195        1.1684868392
 H         -4.4889462692       -4.0139433250       -0.6136378716
 P          0.4676793103        2.7339449924       -0.5876745514
 O          0.9778850705        0.5484210926        1.1488648485
 O          3.8221648790       -1.0654647461       -0.1956430633
 O          1.7100657781       -2.6388512982       -0.0323153049
 O          2.0596698982        2.4945607575       -0.6009628462
 O         -0.1725109507        1.4736850901       -1.2924130705
 O          0.3196809833        3.8131999812       -1.7330162865
 O         -0.0764940386        3.1212975433        0.7211810854
 C          2.6212690218       -0.3700176568       -0.2927155224
 C          2.3694657711        0.6081567640        0.8786349183
 C          1.3718993224       -1.3047372467       -0.2673508856
 C          0.5530281959       -0.7685674864        0.9304032251
 C          2.7117145670        2.0600475826        0.5740120179
 H          2.6686401153        0.1855453048       -1.2313845705
 H          2.9339478114        0.2820974801        1.7643953107
 H          0.7822080550       -1.1961054972       -1.1853734485
 H          0.7808286098       -1.4032108179        1.8082638150
 H          3.7805329312        2.1738305345        0.3911894919
 H          2.3838434926        2.6733226610        1.4173587635
 H          3.8007060286       -1.6649980211        0.5683520713
 H          2.3023244152       -2.9466049613       -0.7380863470
 H         -0.3039436483        1.6266754378       -2.2373999189
 H          0.4897384690        4.7233515281       -1.4693040580
  35
        -70.95693504
 N         -0.1345922568       -0.8719231437        1.0364809980
 N         -1.9725415733        0.2686185091        1.6039440855
 N         -3.5350812001       -0.9903142847        0.2499330749
 N         -2.5485808437       -2.7625294014       -0.9966910162
 C         -1.1681095387       -1.4535409701        0.3507539881
 C         -2.3271542795       -0.7122785307        0.7238665059
 C         -1.3350273483       -2.5029690163       -0.5345104138
 C         -0.6803935482        0.1327029095        1.7540332417
 C         -3.5618749696       -2.0044184505       -0.5936747855
 H         -0.5286931636       -3.1344307752       -0.8815845289
 H         -0.0815356980        0.7501287133        2.3950151497
 H         -4.5299274005       -2.2539563875       -1.0045451308
 P         -0.5329155848        2.2145943320       -0.5146679940
 O          1.9968246116       -0.0128763116        1.3804980391
 O          4.0568012713       -1.4349750168       -0.1483131336
 O          1.8619567909       -2.7443336024       -0.8456177868
 O          0.8563031721        2.1657551914        0.3175357233
 O         -0.3526447857        3.3985832433       -1.5363137127
 O         -1.5517003565        2.7823977514        0.5281675553
 O         -0.8188658286        0.9491917317       -1.2098198149
 C          3.0411488271       -0.5977451762       -0.6252359601
 C          2.7410855050        0.5770449288        0.3215001299
 C          1.7242143770       -1.4005102797       -0.5361846415
 C          1.2874458716       -1.1325419495        0.9312816894
 C          1.9883250658        1.7172438546       -0.4157543077
 H          3.2400929878       -0.2644032689       -1.6478609948
 H          3.6394463503        0.9721408241        0.8008210369
 H          0.9717098558       -0.9748142626       -1.2087303305
 H          1.5369892102       -1.9914974254        1.5721126441
 H          1.6496157901        1.3718176787       -1.3976577231
 H          2.6586925791        2.5688845185       -0.5475939494
 H          4.9274887704       -1.0459284960       -0.3113881132
 H          2.7470826500       -3.0367055752       -0.5591227180
 H         -0.4099120679        4.2872977739       -1.1603370407
 H         -2.0077632162        2.1239092373        1.0840372804
  35
        -70.95689022
 N         -0.1541953917       -1.6423254130       -0.2173102415
 N         -1.7561609307       -1.8858747436       -1.7664041100
 N         -3.6353191445       -1.3803292990       -0.3241821493
 N         -3.0488614027       -0.9276352418        1.9382680090
 C         -1.3383162956       -1.4007945759        0.4224672661
 C         -2.3435954101       -1.5490773100       -0.5832033954
 C         -1.7570514188       -1.1048594188        1.7058102634
 C         -0.4805180815       -1.9138600460       -1.5085415998
 C         -3.9011095242       -1.0619079690        0.9279150123
 H         -1.0878021502       -1.0177860554        2.5495483827
 H          0.2668257588       -2.1480036589       -2.2417731548
 H         -4.9434119015       -0.9023239480        1.1658129981
 P         -0.1483890292        2.2273065636       -0.7887074991
 O          1.2351631081       -1.0671747607        1.6034921266
 O          4.0579196496       -0.2985657766        0.7905821197
 O          2.9927953436       -1.4219676741       -1.3617786749
 O         -0.0525844070        1.1528653196        0.3691344736
 O          1.3564630438        2.6443501636       -1.0254980336
 O         -0.7705602334        3.5351765416       -0.1385225900
 O         -0.8813921778        1.6856388382       -1.9388527443
 C          2.8075145806        0.2277140660        0.4465287188
 C          1.8165822633        0.2397564926        1.6161893001
 C          2.1036737849       -0.6846499491       -0.5887504199
 C          1.1991982807       -1.5831348453        0.3054998998
 C          0.7561026636        1.3438086388        1.5276916210
 H          2.9941426842        1.2222897427        0.0422535653
 H          2.3291738102        0.3394070755        2.5775367812
 H          1.4653721168       -0.0884120253       -1.2523633627
 H          1.5902194276       -2.6120302715        0.3293956403
 H          1.2361520490        2.3220067592        1.5016474115
 H          0.0901295121        1.2756233871        2.3908516077
 H          3.9518738973       -1.0565217197        1.3862539827
 H          3.8857301438       -1.3258370195       -0.9743179464
 H          1.4834423546        3.3149079799       -1.7073098726
 H         -1.7139564106        3.6533896940       -0.2875947966
  35
        -70.95685823
 N         -0.1705194384       -1.4513663649       -0.0796989295
 N         -1.3953280380       -1.7698050679       -1.9343812170
 N         -3.5727038699       -1.5691634372       -0.8887733228
 N         -3.5017323148       -1.1429920610        1.4523614476
 C         -1.4854565039       -1.3679508110        0.3036144039
 C         -2.2458897418       -1.5753741397       -0.8832940870
 C         -2.1779267702       -1.1499707475        1.4778321913
 C         -0.2046273686       -1.6690838066       -1.4247684747
 C         -4.1161159587       -1.3440032028        0.2921712449
 H         -1.7109721119       -0.9794380094        2.4378022788
 H          0.6821739439       -1.7797340913       -2.0168069441
 H         -5.1963938383       -1.3250590799        0.3215904551
 P         -0.3453381511        2.4139501454       -0.0087881748
 O          1.2458495582        0.2130048821        0.8306179524
 O          4.3378147694       -0.8002074877       -0.2166763633
 O          2.9846774289       -2.2172264098        1.4553403110
 O          1.0832675767        2.5290171863       -0.7417536022
 O         -0.9488871118        3.8395510096       -0.2689453313
 O         -0.1082611654        2.5610476127        1.5390416935
 O         -1.1599966234        1.2806540384       -0.4876288355
 C          2.9759240634       -0.7639363147       -0.5192432251
 C          2.2871632398        0.5535445120       -0.0846647123
 C          2.2585260980       -1.8538817955        0.3202740005
 C          0.9591966737       -1.1651693391        0.7737078786
 C          1.6888266633        1.3539558552       -1.2431169087
 H          2.8012852363       -0.9403249254       -1.5856683336
 H          2.9878736323        1.1894852394        0.4681033897
 H          2.0417168562       -2.7487547776       -0.2775570255
 H          0.6964418222       -1.4826941819        1.7886094548
 H          0.9287801853        0.7552118887       -1.7553819157
 H          2.4574797523        1.6859855075       -1.9416067150
 H          4.8617493376       -0.3558842296       -0.8966279596
 H          3.9272441197       -2.0287690960        1.2927192866
 H         -1.4607442569        3.9216683780       -1.0807627554
 H          0.3735445174        1.8332658770        1.9464929104
  35
        -70.95676075
 N         -0.1662790412       -1.6153620029        0.6815391944
 N         -2.2418996430       -1.9834974839        1.4610298479
 N         -3.4427108563       -1.1389244846       -0.4537340956
 N         -2.0678644372       -0.3521317196       -2.2226566400
 C         -1.0266856416       -1.1703858910       -0.2940794685
 C         -2.3382919306       -1.4217966167        0.2216613432
 C         -0.9529133782       -0.6274649039       -1.5619949433
 C         -0.9681470099       -2.0486618365        1.6963897150
 C         -3.2322918839       -0.6020917849       -1.6401781319
 H         -0.0334889900       -0.4069124879       -2.0847840141
 H         -0.5594518929       -2.4338183762        2.6102853906
 H         -4.1134813580       -0.3491997542       -2.2121403741
 P         -0.6686335602        2.0860477431        0.4378307952
 O          1.5891033826       -0.1719816890        1.2714802014
 O          3.8398228425       -0.3569791255       -1.4608911817
 O          3.1941782523       -2.5337742241       -0.1954455791
 O          0.6370617654        1.8708551281       -0.4563354202
 O         -1.7505393677        2.2982321916       -0.6791004470
 O         -0.3910015596        3.5056398012        1.1017531108
 O         -1.0526865310        1.0583190644        1.4125463464
 C          2.5653404742       -0.3440270383       -0.9085361059
 C          2.4636710935        0.5040801955        0.3795759081
 C          2.0693603789       -1.7449743387       -0.4677895531
 C          1.2646399496       -1.4660323876        0.8225503311
 C          1.9372375098        1.9135230778        0.1187940265
 H          1.8990417744        0.0819206238       -1.6632978081
 H          3.4535520925        0.5803197774        0.8498159581
 H          1.4321096947       -2.2008150765       -1.2296123415
 H          1.5643367507       -2.1741742440        1.6088659019
 H          2.5820583589        2.4132350756       -0.6071882325
 H          1.9097512083        2.4743509268        1.0534570561
 H          4.3558342092       -1.0643344304       -1.0328776250
 H          3.0021874230       -3.4746854070       -0.3084303381
 H         -1.5879323993        3.0398172122       -1.2778911870
 H         -0.8361322174        3.6410910551        1.9455593760
  35
        -70.95675604
 N         -0.3159659665       -1.2962423668        0.9184009050
 N         -2.4212151877       -1.4129024492        1.6941100871
 N         -3.5245013637       -1.5938436244       -0.4461622704
 N         -2.0657280568       -1.5814956044       -2.3208526061
 C         -1.1260792199       -1.4031548510       -0.1855756023
 C         -2.4581188777       -1.4756284060        0.3318745898
 C         -0.9875592900       -1.4762700980       -1.5579363702
 C         -1.1638782803       -1.2868760651        1.9867117208
 C         -3.2561795199       -1.6258851679       -1.7372655147
 H         -0.0423822108       -1.4573893147       -2.0827696899
 H         -0.8034550559       -1.2039505746        2.9935165054
 H         -4.1062147467       -1.7070135275       -2.3996605970
 P         -0.3566086362        2.4982313425        0.3229077333
 O          1.4060718082        0.3162507093        0.8312506968
 O          3.9768372574       -0.8754854074       -0.9136249146
 O          2.9308972195       -2.6190443264        0.6893699692
 O          0.8757874652        2.5610119649       -0.7108765567
 O         -0.9960292148        3.9232875347        0.1594218563
 O          0.2200734808        2.6876480099        1.7728314568
 O         -1.2668774209        1.3643488831        0.0692541799
 C          2.5804265504       -0.8176549618       -0.9348112423
 C          2.1371620483        0.5426571284       -0.3693578793
 C          1.9574340219       -1.8765921670        0.0284177473
 C          1.1024924211       -1.0488947387        1.0207815072
 C          1.2812743648        1.3610876225       -1.3370070117
 H          2.1938923153       -0.9429350305       -1.9499444367
 H          3.0229617210        1.1285000552       -0.0955646701
 H          1.3220822082       -2.5902370701       -0.5019251961
 H          1.3825125269       -1.3100144483        2.0502363111
 H          0.3894796262        0.7930241668       -1.6182328404
 H          1.8549643168        1.6497178105       -2.2180821000
 H          4.3026686970       -1.5446596054       -1.5340522819
 H          3.7516370461       -2.0915188518        0.7340929382
 H         -1.6865955279        3.9846276987       -0.5091157308
 H          0.8564353115        2.0208368029        2.0529395295
  35
        -70.95674614
 N         -0.7710131191       -0.9742006096        0.0973852776
 N         -2.5749208285       -0.8251920918       -1.2186507837
 N         -3.8958134083       -2.5240196596       -0.1002559393
 N         -2.8069447115       -3.5564011359        1.7484015160
 C         -1.6702546729       -1.8882924106        0.5813922023
 C         -2.8114229696       -1.7762995009       -0.2694429852
 C         -1.7136955448       -2.8241476296        1.5970284637
 C         -1.3747955159       -0.3844275114       -0.9717215377
 C         -3.8207431486       -3.3690188942        0.9104661494
 H         -0.9025475396       -3.0129944439        2.2865940299
 H         -0.8964069235        0.3945712641       -1.5335262703
 H         -4.6904816421       -3.9884224804        1.0766041087
 P          0.4343088682        3.0353549857       -0.8103217260
 O          0.8915081351        0.6046235108        0.5311970338
 O          3.5741289410       -1.2118816916        1.2764549914
 O          1.7371683802       -2.8184780232        0.2341998797
 O          1.9256540761        2.9811425446       -0.1973877496
 O          0.2866182266        4.5813546008       -1.1119833672
 O         -0.6032455598        2.8457106386        0.3457655254
 O          0.2565567685        2.1404931522       -1.9645344961
 C          2.9022210835       -0.6614093340        0.1809427448
 C          2.3153247677        0.7210809023        0.5416527499
 C          1.6490309399       -1.4940552552       -0.1917801696
 C          0.5503400388       -0.7536986578        0.6030600198
 C          2.6936500474        1.8223077931       -0.4444938200
 H          3.5980977110       -0.5772480642       -0.6622959450
 H          2.6362723242        0.9941571209        1.5552479330
 H          1.4276768146       -1.3980514333       -1.2594247893
 H          0.5689354407       -1.1099056187        1.6466445740
 H          2.4911399727        1.4768661181       -1.4628442680
 H          3.7395402594        2.1057827213       -0.3271358738
 H          3.2316141262       -2.1132944743        1.4286543879
 H          2.1247835907       -3.3790826677       -0.4545544488
 H          0.7185593779        4.9018770244       -1.9106366742
 H         -0.5688802255        3.5243183453        1.0318944340
  35
        -70.95669138
 N         -0.0933131503       -1.3782015348       -0.3261516795
 N         -1.6856874983       -1.3618194139       -1.9016079817
 N         -3.5670498675       -1.0111513365       -0.4167644269
 N         -2.9950400207       -0.9322571244        1.8931412275
 C         -1.2813886986       -1.2080976080        0.3344318647
 C         -2.2775297455       -1.1797309104       -0.6861410197
 C         -1.7052245883       -1.0921727720        1.6447686547
 C         -0.4137779851       -1.4691312311       -1.6431557140
 C         -3.8373550904       -0.8829301381        0.8672758713
 H         -1.0398669923       -1.1300681249        2.4959264880
 H          0.3286825305       -1.6362768710       -2.3987702027
 H         -4.8777623881       -0.7344926469        1.1208244914
 P         -0.4849155918        2.0865533035       -0.5529324516
 O          1.2615244629       -1.0121963081        1.5536928982
 O          4.2191146235       -0.7246825167        0.9472679941
 O          3.1436714470       -1.7523131125       -1.2521397476
 O          0.9733600173        1.6819763609       -0.0297652955
 O         -0.3975463174        1.4318794154       -1.9859758438
 O         -0.4577554890        3.6508126003       -0.7713137457
 O         -1.5835685406        1.6762227677        0.3271926012
 C          3.0972459387       -0.0230122498        0.4939204980
 C          2.0312242331        0.1887642743        1.5764023383
 C          2.3320784917       -0.8492481258       -0.5740784018
 C          1.2228685597       -1.5493081266        0.2624226987
 C          1.1914941259        1.4542179304        1.3548240959
 H          3.4638171870        0.9174851642        0.0832610743
 H          2.4638349346        0.2443569930        2.5788027896
 H          1.8634562585       -0.1789794086       -1.3008947024
 H          1.4200418225       -2.6300550514        0.3345010717
 H          1.7285757013        2.3154678060        1.7591493327
 H          0.2275356006        1.3502104654        1.8625008773
 H          3.9546401281       -1.4237286572        1.5650708046
 H          4.0010443466       -1.8044293102       -0.7856244239
 H         -0.9422633391        1.8395061990       -2.6687282028
 H          0.3007012137        4.0074972477       -1.2532571866
  35
        -70.95668929
 N         -0.9069753571       -1.1063429891        0.0431544652
 N         -2.6836973454       -0.9878847829       -1.3158884830
 N         -4.1050522640       -2.5131169270       -0.0792487718
 N         -3.1094313299       -3.4106275657        1.8869773620
 C         -1.8624778898       -1.9239425318        0.5918839779
 C         -2.9813598296       -1.8386081448       -0.2904471204
 C         -1.9787416717       -2.7486165865        1.6949116333
 C         -1.4687003216       -0.5849586620       -1.0839788798
 C         -4.0941755884       -3.2604406832        1.0079958641
 H         -1.2000793632       -2.8986675693        2.4302129446
 H         -0.9380833878        0.1122326017       -1.7036260992
 H         -4.9959090155       -3.8211023665        1.2084047779
 P          0.8574130076        2.7484171685       -0.9687013117
 O          0.5157273695        0.5024479554        0.9727487264
 O          3.7936768169       -0.7170524843        0.5709536842
 O          1.9827256453       -2.4378545806       -0.2348959292
 O          2.1435384772        2.8041108832       -0.0339755537
 O          1.1380114866        3.9712918330       -1.9169431701
 O         -0.3174718045        3.1758821833        0.0078749235
 O          0.6364666882        1.5278711593       -1.7591328459
 C          2.6399240290       -0.0958622872        0.0969705962
 C          1.9032469542        0.7005818374        1.2030313466
 C          1.5642703511       -1.1129982098       -0.3884268829
 C          0.3902263801       -0.8462387641        0.5800094423
 C          2.2065331830        2.1881586608        1.2390088103
 H          2.9257546740        0.5768679417       -0.7156774235
 H          2.1728214758        0.2685140079        2.1790913522
 H          1.2544434340       -0.8813886766       -1.4094871637
 H          0.5217933221       -1.5057989917        1.4546022319
 H          3.2295205126        2.3456222995        1.5845506584
 H          1.4893762829        2.6700192581        1.9078470614
 H          3.5744786729       -1.6393590668        0.8035409025
 H          2.4614505364       -2.7345064714       -1.0228911791
 H          1.3523254977        4.8108133713       -1.4902217316
 H         -1.2074086277        3.0261198826       -0.3234049696
  35
        -70.95667374
 N         -0.1499231381       -1.6193619113        0.6728959712
 N         -2.2137072759       -2.0558062089        1.4436695281
 N         -3.4358300173       -1.1777120076       -0.4444913578
 N         -2.0787436978       -0.2986511667       -2.1848046396
 C         -1.0207478456       -1.1631209185       -0.2867483501
 C         -2.3252416536       -1.4590403099        0.2219049971
 C         -0.9579021171       -0.5678636250       -1.5315500024
 C         -0.9374705133       -2.1031421941        1.6740774196
 C         -3.2368840237       -0.5992005877       -1.6132918527
 H         -0.0426479560       -0.2970630291       -2.0379723844
 H         -0.5170391713       -2.5107333114        2.5727208736
 H         -4.1234745786       -0.3501170245       -2.1785495495
 P         -0.6838625048        2.0921116486        0.4464526797
 O          1.5893154700       -0.1628645573        1.2504160423
 O          3.9376912016       -0.3877121091       -1.3602362457
 O          3.0607632895       -2.6330537312       -0.2624569252
 O          0.6158717801        1.8777683520       -0.4583296555
 O         -1.7731352075        2.3222190167       -0.6590030939
 O         -0.3914993286        3.5041466322        1.1210737695
 O         -1.0662137267        1.0577640003        1.4148138736
 C          2.6232395401       -0.3168567055       -0.9097864462
 C          2.4647212966        0.5304660304        0.3727076247
 C          2.0419514453       -1.7077088408       -0.5242528999
 C          1.2794373467       -1.4547531865        0.7885115850
 C          1.9187779906        1.9332254125        0.1081857160
 H          2.0474398787        0.1330445937       -1.7214741652
 H          3.4402974368        0.6322765331        0.8687458010
 H          1.3572620403       -2.0869935203       -1.2885914132
 H          1.6145142929       -2.1820878450        1.5426957431
 H          2.5541640529        2.4406591090       -0.6209765308
 H          1.8908257248        2.4953991295        1.0421258519
 H          4.4607969297       -0.9218852061       -0.7371368942
 H          3.4052648266       -2.9889677408       -1.0959432990
 H         -1.6114720463        3.0670932742       -1.2540033420
 H         -0.8343732049        3.6374359711        1.9664040237
  35
        -70.95666109
 N         -0.2287340875       -1.4670782995        0.7726709638
 N         -2.2058221661       -1.8567051385        1.7671683370
 N         -3.5831591416       -1.6841123250       -0.2050751392
 N         -2.3994062181       -1.2239115474       -2.2107051307
 C         -1.1758371197       -1.4069793395       -0.2217581877
 C         -2.4222861232       -1.6587534588        0.4348222531
 C         -1.2314605930       -1.2023255214       -1.5881102069
 C         -0.9240293512       -1.7180753664        1.9174709824
 C         -3.4962773171       -1.4504172606       -1.4993284179
 H         -0.3743941473       -1.0192731576       -2.2227100335
 H         -0.4321052880       -1.8070537524        2.8666503927
 H         -4.4266148286       -1.4515491648       -2.0493050892
 P         -0.3649395686        2.4987281073        0.3247970740
 O          1.3454436044        0.2714266279        0.7833349977
 O          4.1383171504       -0.7922680694       -0.1261369927
 O          2.6089194356       -2.8917215188       -0.1442716616
 O          0.8380306760        2.6297001065       -0.7165754433
 O         -1.0439197482        3.9212115958        0.1913052642
 O          0.3333264271        2.6104166761        1.7270744037
 O         -1.2789669848        1.3654034493        0.0810595731
 C          2.9330388443       -0.5421882949       -0.7944184133
 C          2.2161636070        0.7080879411       -0.2526813395
 C          1.9653822357       -1.6975888334       -0.4382527810
 C          1.1724141303       -1.1297172132        0.7661826488
 C          1.4071626107        1.4735036066       -1.2999237137
 H          3.0819417427       -0.4772525604       -1.8758353805
 H          2.9212284083        1.4021556437        0.2187761819
 H          1.2840217786       -1.9021421312       -1.2656938949
 H          1.5859276167       -1.5388700863        1.7000826795
 H          0.6035057583        0.8385466603       -1.6821620081
 H          2.0410011047        1.8340652514       -2.1112772587
 H          4.8579800281       -0.2657376214       -0.5007205117
 H          3.4865608188       -2.6847411908        0.2282925906
 H         -1.6658717681        4.0190102879       -0.5367496950
 H         -0.2547194389        2.7111883453        2.4828503368
  35
        -70.95665186
 N         -0.2632590659       -1.6381085008       -0.1332173767
 N         -1.8554834795       -1.7589721824       -1.7055021795
 N         -3.7412409385       -1.3215094080       -0.2493353882
 N         -3.1688474788       -1.0285380905        2.0422211095
 C         -1.4503631957       -1.4218514263        0.5120658351
 C         -2.4490464636       -1.4943884230       -0.5071709638
 C         -1.8764703140       -1.1983607003        1.8088439015
 C         -0.5817105686       -1.8296407315       -1.4393986335
 C         -4.0153035533       -1.0890163518        1.0194277785
 H         -1.2108667726       -1.1627518150        2.6593446467
 H          0.1642534963       -2.0429426755       -2.1798182505
 H         -5.0575447458       -0.9355466535        1.2612949406
 P          0.2597393429        2.3316870099       -0.9306462351
 O          1.0625111844       -1.0317232964        1.7002918562
 O          3.9000751666       -0.2913306114        0.9507706376
 O          2.9898380940       -1.6019612448       -1.1059765032
 O         -0.0941781473        1.2647667968        0.2103268655
 O         -0.9438351757        3.3480935702       -0.9850931655
 O          0.1388332931        1.3987337865       -2.1986265059
 O          1.5411004798        3.0227829421       -0.7385901021
 C          2.6675333381        0.2214729951        0.5172042800
 C          1.6298299326        0.2741396895        1.6515358413
 C          2.0527707275       -0.8060917863       -0.4622706149
 C          1.0742034402       -1.6194974860        0.4363734479
 C          0.5742883551        1.3700851680        1.4617491581
 H          2.7793580971        1.1964985729        0.0385155100
 H          2.1036366971        0.4258040332        2.6250467733
 H          1.4780170923       -0.2826411269       -1.2295810271
 H          1.4213786714       -2.6575457528        0.5406771411
 H          1.0616549186        2.3453329628        1.5337643646
 H         -0.1920631864        1.2718274027        2.2338497820
 H          4.4698213647        0.4163510244        1.2808621671
 H          3.7789301840       -1.6656460221       -0.5361661438
 H         -1.8329964070        2.9989932910       -1.1231222760
 H          0.3934751295        1.8089873493       -3.0343144274
  35
        -70.95663989
 N         -0.7943079735       -1.0108638718        0.0880658344
 N         -2.5223282983       -0.9869672942       -1.3360304987
 N         -3.8354864785       -2.7026558183       -0.2370376037
 N         -2.8268835349       -3.6110047370        1.7182463454
 C         -1.6805937376       -1.9507463249        0.5480770529
 C         -2.7726905067       -1.9178219031       -0.3710813261
 C         -1.7565627779       -2.8397729442        1.6029843267
 C         -1.3564060828       -0.4895298042       -1.0390983739
 C         -3.7897398183       -3.5051937765        0.8090624847
 H         -0.9937658817       -2.9577902041        2.3597909747
 H         -0.8914134318        0.3010706275       -1.5966097211
 H         -4.6407546583       -4.1572112150        0.9450238520
 P          0.4645716931        3.1911369144       -0.7250974039
 O          0.8493242837        0.5917510184        0.5843403936
 O          3.3571293546       -1.2430961220        1.4160899934
 O          1.7297100993       -2.8534510897        0.0961616251
 O          2.0326754847        2.9694417407       -0.4209625270
 O          0.4068412987        4.6987432126       -1.1302427494
 O         -0.2660685860        3.2013805032        0.6797523809
 O         -0.0570000361        2.2820092822       -1.7546001836
 C          2.8626645802       -0.6728142848        0.2347655852
 C          2.2724885316        0.7346713911        0.4594763314
 C          1.6291114605       -1.4998432572       -0.1792083405
 C          0.5148036188       -0.7771780981        0.6209045731
 C          2.5809503387        1.6961115624       -0.6868563472
 H          3.6169177976       -0.6652580382       -0.5557087538
 H          2.6397640935        1.1627398124        1.4001317520
 H          1.4198287863       -1.3829334254       -1.2477264000
 H          0.5176886336       -1.1439043236        1.6599409817
 H          2.1512416634        1.3080504440       -1.6150730793
 H          3.6564780614        1.8445523088       -0.7896077516
 H          4.2717912153       -0.9717165696        1.5763267019
 H          2.3216263014       -2.9647096574        0.8636976939
 H          0.6946590995        5.3283710156       -0.4565637423
 H         -0.3642061004        2.3326069484        1.0808989831
  35
        -70.95660185
 N         -0.3300444229       -0.9843661897        0.9516909560
 N         -2.3179797911       -0.3871283293        1.8039170139
 N         -3.6953102305       -1.4387009911        0.1218165566
 N         -2.4917345474       -2.6495520098       -1.5312442249
 C         -1.2761371513       -1.5079723304        0.1071698459
 C         -2.5309603534       -1.1068270128        0.6647959181
 C         -1.3191785720       -2.3410734292       -0.9961653066
 C         -1.0258412956       -0.3296510573        1.9215306567
 C         -3.5951164959       -2.1724147109       -0.9698844493
 H         -0.4534644959       -2.7990256462       -1.4533700119
 H         -0.5254630843        0.1810572885        2.7194887763
 H         -4.5253250861       -2.4395776193       -1.4512629564
 P         -0.2268803397        2.3841908083       -0.2217599178
 O          1.5216549859        0.4338722823        0.9316606766
 O          4.0461553402       -1.2805099716        0.1524041717
 O          1.8868220032       -2.8374625824       -0.4806898690
 O          1.3240983521        2.6947146186       -0.5518296062
 O         -0.9440376738        3.6850514097       -0.7631934238
 O         -0.3868713549        2.4365457570        1.3431407835
 O         -0.7481803005        1.1651005543       -0.8455967765
 C          3.0170106240       -0.6524421229       -0.5551645945
 C          2.5827474444        0.7030153141        0.0095375650
 C          1.7012096328       -1.4626760702       -0.4618107167
 C          1.1049543372       -0.9180009082        0.8527841129
 C          2.0924968339        1.6452518221       -1.0989431327
 H          3.3668996155       -0.5775496978       -1.5860232743
 H          3.3752996343        1.1965648593        0.5818460634
 H          1.0362449691       -1.1774342392       -1.2825870752
 H          1.5151270947       -1.4699036948        1.7170668177
 H          1.4738663733        1.0890723427       -1.8084968671
 H          2.9368352324        2.1102330257       -1.6084793813
 H          3.9473648172       -1.1477179685        1.1069142304
 H          2.8037483796       -3.0310653842       -0.2075767345
 H         -0.4512069279        4.5153760239       -0.7386267948
 H         -0.0497047786        3.2259090282        1.7869468730
  35
        -70.95659120
 N         -0.2605141003       -1.6822254026        0.7759351155
 N         -2.0324605478       -1.5274652988        2.1385560331
 N         -3.7368346971       -1.7496315910        0.4304837608
 N         -2.8872807916       -2.0668375822       -1.7712642659
 C         -1.3663882933       -1.7950854159       -0.0248926220
 C         -2.4812270117       -1.6864424078        0.8600468174
 C         -1.6284100829       -2.0065719403       -1.3669668201
 C         -0.7338135315       -1.5309161709        2.0403507903
 C         -3.8548155421       -1.9267977788       -0.8705940437
 H         -0.8624104781       -2.1340746724       -2.1197763302
 H         -0.0715111928       -1.4312605010        2.8778202223
 H         -4.8644370995       -1.9756483059       -1.2533965798
 P          0.1231264248        2.7147306312       -0.2538838678
 O          1.9466627753       -1.1307423391        1.3626184749
 O          3.6949718195       -0.3067861237       -0.9059578514
 O          1.6348944775       -1.5403552553       -2.0422251941
 O          1.2525252181        2.4345917489        0.8709123655
 O          0.9245119408        3.0467878564       -1.5549953358
 O         -0.4800805667        4.1108883898        0.1513349762
 O         -0.8207146209        1.5927404213       -0.3831377383
 C          2.4503051528        0.1810701099       -0.4928039066
 C          2.3051808737        0.2120617666        1.0309027014
 C          1.3201216001       -0.7877153218       -0.9155799053
 C          1.1295710028       -1.6647958886        0.3564989657
 C          1.2377499056        1.1964487877        1.5482375109
 H          2.3319780212        1.1582253962       -0.9581313009
 H          3.2649261997        0.4095514528        1.5143842922
 H          0.4043149875       -0.2212029361       -1.1104657428
 H          1.4458176529       -2.7001949350        0.1648678061
 H          1.4126675445        1.4055624982        2.6054363873
 H          0.2510045658        0.7423652416        1.4276361625
 H          3.9749401149       -1.0346018281       -0.3280389382
 H          2.5873769056       -1.4251303691       -2.2300986078
 H          1.3405322154        3.9193766931       -1.5743494948
 H         -1.1709749885        4.1095420643        0.8227114042
  35
        -70.95657112
 N         -0.0861955512       -1.3588185806       -0.1178993874
 N         -1.4366825586       -0.6006102048       -1.7360115816
 N         -3.5188771028       -0.8066098026       -0.5130649486
 N         -3.2640107627       -1.5868924205        1.7220153385
 C         -1.3606301441       -1.3813542016        0.3945669937
 C         -2.2036627964       -0.9086231159       -0.6478723788
 C         -1.9506220550       -1.7032079182        1.6009579424
 C         -0.2108730442       -0.8631118265       -1.3722292071
 C         -3.9640738794       -1.1561704531        0.6790365102
 H         -1.4037386068       -2.0395120416        2.4706852813
 H          0.6217328220       -0.7238494878       -2.0326707970
 H         -5.0320156064       -1.0815716327        0.8270822469
 P         -0.5810516714        2.1877038133       -0.5402382327
 O          1.3427104117       -0.5466741481        1.5528733796
 O          4.3651134579       -0.4425563523       -0.0774706281
 O          3.2182867327       -2.6881029471        0.4904552143
 O          0.9102727039        1.6051453202       -0.5583082963
 O         -1.0079770544        2.1091594230       -2.0459546516
 O         -0.3164145711        3.7268384080       -0.3090197445
 O         -1.4692170422        1.5730216709        0.4645518337
 C          2.9756343913       -0.3477743202       -0.1917777710
 C          2.3041839225        0.3581262629        1.0145991997
 C          2.3817159115       -1.7786929506       -0.1609027018
 C          1.1033648438       -1.6096127326        0.6741824100
 C          1.6548439320        1.6994732577        0.6568001328
 H          2.6792055474        0.1580098873       -1.1158049383
 H          3.0379998736        0.5339602837        1.8096736761
 H          2.1575624226       -2.1524226311       -1.1680231016
 H          0.9178024228       -2.5020540005        1.2827076946
 H          2.4171519477        2.4683356371        0.5185929857
 H          0.9872812756        1.9858583602        1.4733029515
 H          4.7958105159        0.3690281014       -0.3774822906
 H          4.1321194058       -2.3531387023        0.4376241168
 H         -1.4263540677        1.2735843318       -2.3180376397
 H         -1.0989423173        4.2588374915       -0.1251054247
  35
        -70.95654762
 N         -0.1751958719       -1.4746375418       -0.0789782145
 N         -1.3802670266       -1.7893148391       -1.9471720645
 N         -3.5686934376       -1.5685222300       -0.9287825058
 N         -3.5232687005       -1.1340581839        1.4110633016
 C         -1.4948512908       -1.3763026959        0.2874317819
 C         -2.2423485311       -1.5829498308       -0.9074670300
 C         -2.1999590840       -1.1513534425        1.4525558050
 C         -0.1949089169       -1.6947335663       -1.4251443274
 C         -4.1251427874       -1.3342477445        0.2444733578
 H         -1.7453549760       -0.9819564065        2.4185679376
 H          0.6981331512       -1.8128174362       -2.0062998104
 H         -5.2055396421       -1.3073283431        0.2600267446
 P         -0.3266301141        2.4303216317        0.0116899284
 O          1.2288856013        0.1970089438        0.8492471735
 O          4.3263372893       -0.7653303357       -0.3831573714
 O          3.0743749362       -2.1225765990        1.4497154496
 O          1.0886509210        2.5333486675       -0.7207342168
 O         -0.8776773403        3.8513711275       -0.3677198237
 O         -0.0762202777        2.5975658221        1.5659897293
 O         -1.1692678506        1.2895466448       -0.3965371073
 C          2.9457766520       -0.7784041689       -0.5225849432
 C          2.2687165782        0.5387639655       -0.0651425518
 C          2.2542545437       -1.8672369435        0.3451533499
 C          0.9437094916       -1.1815481457        0.7886021443
 C          1.6832340670        1.3508015780       -1.2202684565
 H          2.7449467235       -0.9432982862       -1.5847162623
 H          2.9794199539        1.1668952922        0.4826306536
 H          2.0535611803       -2.7729317599       -0.2305886800
 H          0.6548073200       -1.4821709996        1.8018365044
 H          0.9220865942        0.7634359220       -1.7440055273
 H          2.4683835877        1.6671966405       -1.9078574505
 H          4.5489850441       -1.0165193649        0.5321565502
 H          2.9655539874       -3.0282788859        1.7705231459
 H         -1.8189980334        3.9801551138       -0.2112490802
 H          0.3041714263        1.8277015475        2.0008482588
  35
        -70.95654588
 N         -0.2179078329       -1.6148598659       -0.1467896251
 N         -1.7957879638       -1.6258975662       -1.7402400160
 N         -3.6654153338       -1.0573622672       -0.3103639269
 N         -3.1092263970       -0.8279666970        1.9918325005
 C         -1.3986468858       -1.3224859149        0.4825085739
 C         -2.3851511754       -1.3170204366       -0.5504344457
 C         -1.8293778617       -1.0900186362        1.7759627279
 C         -0.5349221220       -1.7853917899       -1.4571992800
 C         -3.9408536892       -0.8123719377        0.9555011441
 H         -1.1792748436       -1.1205909803        2.6387751663
 H          0.1935072506       -2.0620409398       -2.1935529405
 H         -4.9725165169       -0.5834155311        1.1826797502
 P          0.0790977796        2.2267233170       -0.9033789960
 O          1.1263805832       -1.0763884683        1.7055813786
 O          3.9821786132        0.1262137912        0.7966422272
 O          3.2041947150       -1.9177098299       -0.6563522565
 O         -0.1428818549        1.1830122765        0.2808470503
 O         -1.3754814358        2.5585751491       -1.4072942753
 O          0.6445648872        1.3072694530       -2.0507746570
 O          0.9092916442        3.3832002307       -0.5221292445
 C          2.6428030851        0.2228753722        0.4226918544
 C          1.6714942413        0.2376439989        1.6197502954
 C          2.1767885407       -0.9991576910       -0.4237731970
 C          1.1070173826       -1.6874097965        0.4533749187
 C          0.5911832589        1.3146869911        1.4897903923
 H          2.5554558301        1.1530688948       -0.1452133006
 H          2.2068632437        0.4119305685        2.5578506022
 H          1.7329264622       -0.6508740745       -1.3611872080
 H          1.3685758298       -2.7463763493        0.5941531790
 H          1.0614640655        2.3013037343        1.5188819613
 H         -0.1285998619        1.2134395507        2.3050283694
 H          4.1497290713       -0.7469545582        1.1886177170
 H          3.9159413506       -1.4908822659       -1.1583175178
 H         -1.7992012478        3.3209233378       -0.9977919486
 H          0.7122445315        1.7422123313       -2.9099072626
  35
        -70.95647366
 N         -0.0336620770       -1.6417544396       -0.0286703734
 N         -1.6046808484       -1.8780728636       -1.6107047027
 N         -3.4408350053       -0.9344806907       -0.3435671211
 N         -2.8744990943       -0.2807082390        1.8744751354
 C         -1.1938451796       -1.1579345632        0.5125773497
 C         -2.1772219207       -1.3057432462       -0.5135046103
 C         -1.6105460011       -0.6458017363        1.7272933215
 C         -0.3545902601       -2.0462586330       -1.2853104687
 C         -3.7014185288       -0.4267271708        0.8449566268
 H         -0.9610966607       -0.5355475262        2.5844813789
 H          0.3714468459       -2.4882728861       -1.9399041187
 H         -4.7193157360       -0.1021661581        1.0091416941
 P         -0.5153518657        2.1836195500       -0.8585026436
 O          1.3491849518       -0.8656118254        1.7063721034
 O          4.2358772886       -0.5726282155        0.9001184080
 O          3.1963967166       -2.0809207737       -0.9511839688
 O          0.4800437598        1.1203359137       -0.2130244059
 O         -1.7762397714        2.1464960316        0.0934125327
 O         -0.9314898706        1.4155580804       -2.1607188638
 O          0.0612611451        3.5274821519       -1.0452823401
 C          3.0746622326       -0.0019537304        0.3631337982
 C          2.0406393864        0.3521557125        1.4474970372
 C          2.3512847455       -1.1016348907       -0.4503022455
 C          1.2973213956       -1.6542204424        0.5572837319
 C          1.0873156934        1.4741324665        1.0254460147
 H          3.3011374319        0.8622435405       -0.2667676542
 H          2.5149477823        0.6309184333        2.3919190246
 H          1.8260738628       -0.6485623982       -1.2960044296
 H          1.5394331859       -2.6890426867        0.8390855947
 H          1.6243778677        2.4186595314        0.9025457756
 H          0.3099660961        1.5968372325        1.7846651910
 H          4.8446546430        0.1119999712        1.2091182061
 H          3.9663047611       -2.1547158015       -0.3572838894
 H         -2.2414537860        2.9908499700        0.1303562890
 H         -0.7104979098        1.8682501426       -2.9831972842
  35
        -70.95644177
 N         -0.3258221958       -1.5384971226        0.8342031640
 N         -2.3494574904       -2.0278534291        1.6733594701
 N         -3.6044170412       -1.7300435947       -0.3708549569
 N         -2.3020689188       -1.0727316898       -2.2477197262
 C         -1.2129193732       -1.4085648632       -0.2066398462
 C         -2.4889741920       -1.7318902788        0.3474784911
 C         -1.1803617385       -1.0679698213       -1.5459074714
 C         -1.0821970989       -1.8844088936        1.9141207745
 C         -3.4349151135       -1.3947442226       -1.6343641219
 H         -0.2882404429       -0.7746290513       -2.0811600486
 H         -0.6457323033       -2.0422612067        2.8812777167
 H         -4.3242631306       -1.3818491950       -2.2483597914
 P         -0.3350012729        2.3879381683        0.2796556261
 O          1.2606212773        0.1692552710        1.0213538523
 O          3.7090643594       -0.5379784103       -1.4942116812
 O          2.9104113573       -2.5460477819        0.1176634115
 O          0.9645589618        2.2896740487       -0.6469539369
 O         -1.0519130457        3.6507603936       -0.3432906882
 O          0.2390726933        2.8464381459        1.6856288554
 O         -1.2724577350        1.2581569279        0.2984569746
 C          2.4446198893       -0.3977613940       -0.9371480678
 C          2.3961501098        0.5598163824        0.2693774862
 C          1.8774906663       -1.7123218393       -0.3352591618
 C          1.0738916402       -1.2300822080        0.8924298032
 C          2.2512153690        2.0273417881       -0.1111218219
 H          1.7885802961       -0.0176051776       -1.7246198639
 H          3.3045454924        0.4277848843        0.8762144221
 H          1.2241888050       -2.2383468323       -1.0354527161
 H          1.4778448149       -1.7297140258        1.7873446962
 H          2.9637243722        2.2748106968       -0.9003064053
 H          2.4131897401        2.6509208336        0.7689590662
 H          4.2918230162       -0.9794795496       -0.8518345779
 H          3.2226329452       -3.1117468727       -0.6042594866
 H         -0.5287257442        4.4573896358       -0.4375397768
 H         -0.3174857711        2.6062288818        2.4325928559
  35
        -70.95641596
 N         -0.2535628376       -0.9518328391        1.0958109339
 N         -2.0565044967        0.1942930327        1.7713588572
 N         -3.6590894398       -0.8872803326        0.3148938553
 N         -2.7498706918       -2.6300624633       -1.0269192278
 C         -1.3090313669       -1.4434139386        0.3751487889
 C         -2.4420920475       -0.6873611372        0.8062768172
 C         -1.5284836736       -2.4482843916       -0.5470714755
 C         -0.7740801488        0.0069431888        1.9019032499
 C         -3.7267321413       -1.8422787252       -0.5924527204
 H         -0.7635699567       -3.1251340566       -0.9024626797
 H         -0.1660679966        0.5328700483        2.6105739375
 H         -4.7017399678       -2.0202755591       -1.0236838053
 P         -0.2208002958        1.9727641669       -0.7210518126
 O          1.9438281801       -0.3726070987        1.6424099688
 O          3.7828707237       -0.4353540682       -1.1665377917
 O          2.3145186787       -2.5623928934       -0.6827957641
 O          0.5858416484        2.0102166461        0.6644515025
 O          0.5618391487        2.9556585391       -1.6890608789
 O         -1.5755720473        2.6388459468       -0.3144598561
 O         -0.3982008089        0.6602684833       -1.3512881256
 C          2.5209579483       -0.1152433211       -0.6667736035
 C          2.5808229646        0.5259023454        0.7356236269
 C          1.6132401816       -1.3656921468       -0.4934006268
 C          1.1525611919       -1.3051073918        0.9766825662
 C          1.9976145092        1.9426900652        0.7982812028
 H          2.0712817649        0.5714718929       -1.3877748401
 H          3.6268714061        0.6014581702        1.0573817078
 H          0.7532029292       -1.2913725910       -1.1638277439
 H          1.3082019583       -2.2856574746        1.4507759103
 H          2.4840519326        2.5389584635        0.0224447091
 H          2.1949086395        2.3683281853        1.7848385845
 H          4.1400015296       -1.1917782350       -0.6697168997
 H          2.5704761173       -2.6430780634       -1.6148746543
 H          0.4542581664        3.9079782369       -1.5677729984
 H         -1.5625242513        3.3421071012        0.3484907848
  35
        -70.95636681
 N         -0.1016946022       -0.8713549739        0.9870584727
 N         -1.9309772357        0.2822303051        1.5591520702
 N         -3.5051334381       -0.9651737578        0.2095574571
 N         -2.5402769387       -2.7613752869       -1.0185302645
 C         -1.1412890911       -1.4480329929        0.3059073240
 C         -2.2941732195       -0.6938574666        0.6776623106
 C         -1.3242404668       -2.5131089716       -0.5570228309
 C         -0.6412713998        0.1363366647        1.7083459870
 C         -3.5436200335       -1.9838651175       -0.6279870943
 H         -0.5320369905       -3.1752407840       -0.8799305612
 H         -0.0385406275        0.7489143865        2.3506830338
 H         -4.5141080137       -2.2249999331       -1.0379530906
 P         -0.6259166380        2.3306606408       -0.4883459616
 O          2.0419449747       -0.0425908647        1.3385116374
 O          4.2143780947       -1.3531140435       -0.1553757974
 O          2.0954404970       -2.9504770373       -0.5615897074
 O          0.8349954446        2.1376028441        0.1906806908
 O         -0.4699775577        3.5719210432       -1.4424932221
 O         -1.5005963548        2.8772557558        0.6883172975
 O         -1.0552987822        1.1288618087       -1.2208335940
 C          3.0771060306       -0.6957546985       -0.6294651463
 C          2.6846663253        0.5300832630        0.2041572148
 C          1.8205129424       -1.5935167321       -0.4551403240
 C          1.3160888105       -1.1798337255        0.9577239076
 C          1.7916799658        1.4777562904       -0.6249427866
 H          3.2663632158       -0.4602609125       -1.6768985377
 H          3.5401356807        1.0771079682        0.6048123242
 H          1.0601446972       -1.3329359421       -1.1987819347
 H          1.5081931905       -1.9800873658        1.6875744836
 H          1.2513228640        0.9193955554       -1.3955202023
 H          2.4221734983        2.2255953393       -1.1113997526
 H          4.2388800863       -1.3248693639        0.8141072073
 H          3.0594850690       -3.0802555009       -0.4652954436
 H         -0.3977269579        4.4303620775       -1.0034529593
 H         -1.9671776444        2.1949122694        1.2044001579
  35
        -70.95632878
 N         -0.9205272762       -0.9540084485        0.2176223836
 N         -2.4722990668       -0.8833589659       -1.3946429305
 N         -3.6914264648       -2.8675882137       -0.7225799995
 N         -2.8292056130       -3.9397732454        1.2191685838
 C         -1.7434689564       -2.0295256306        0.4323468262
 C         -2.7203655037       -1.9690618893       -0.6093903808
 C         -1.8520305774       -3.0556944693        1.3512428799
 C         -1.4179110379       -0.3185556320       -0.8776230526
 C         -3.6773162343       -3.8051953236        0.2056120128
 H         -1.1916829805       -3.1916723677        2.1959834437
 H         -0.9949955754        0.5966898954       -1.2440814889
 H         -4.4530686144       -4.5542508417        0.1368630656
 P          0.5987125716        3.3194981942       -0.3990282325
 O          0.7903921363        0.6048827392        0.6238949517
 O          3.4723128290       -1.5102706960       -0.5098042623
 O          2.2329600405       -1.8003301286        1.8654436627
 O          2.0904226272        2.7573045080       -0.6490625217
 O          0.8190528819        4.8676908645       -0.6277676691
 O          0.2944759255        3.2659157804        1.1351128980
 O         -0.4088200994        2.6732147779       -1.2526367765
 C          2.1802132628       -1.0317152934       -0.3729918068
 C          2.0822714177        0.4502555083        0.0359742578
 C          1.3740361932       -1.6910644182        0.7680459391
 C          0.2610780345       -0.6358090075        0.9994428497
 C          2.2290383774        1.4305264824       -1.1152475757
 H          1.6737225846       -1.1850546344       -1.3312240855
 H          2.8377342140        0.6738987388        0.8020367781
 H          0.9528269455       -2.6568352167        0.4742374459
 H         -0.0366807534       -0.5879776809        2.0568614777
 H          1.4588076525        1.2313839405       -1.8661156769
 H          3.2249042396        1.3503637952       -1.5531782213
 H          3.8578094794       -1.6297380921        0.3762385940
 H          1.9144661637       -2.4510046780        2.5056307256
 H          0.9134351131        5.1531977828       -1.5426389156
 H          0.8671774469        3.8229096013        1.6777975753
  35
        -70.95632520
 N         -0.4733900864       -1.6650738932        0.8815759419
 N         -2.3386168974       -1.4139228694        2.0961497605
 N         -3.8942805824       -2.1960159039        0.4080477687
 N         -2.8690062250       -2.8838564503       -1.6285692170
 C         -1.5067958983       -2.0726030928        0.0801731428
 C         -2.6842689529       -1.8984822752        0.8687459200
 C         -1.6532019391       -2.5937283979       -1.1926307503
 C         -1.0416616857       -1.2972530701        2.0588153605
 C         -3.9046647608       -2.6672993463       -0.8235439499
 H         -0.8267744584       -2.7889786768       -1.8621328480
 H         -0.4493736524       -0.9526242887        2.8828295166
 H         -4.8755033767       -2.9158980944       -1.2281086176
 P          0.5536338037        3.0877850198       -0.4540296083
 O          1.6865257982       -0.9910557629        1.5067399444
 O          3.5230297882       -0.2280986521       -0.8258926104
 O          1.5895167818       -1.8332436860       -1.7728796698
 O          1.2473316677        2.6180163643        0.9293779007
 O          1.7379247879        3.4302287697       -1.4161539646
 O         -0.0351075618        4.5081856434       -0.1117739007
 O         -0.3871348519        2.0852073658       -0.9780063660
 C          2.2341252609        0.1608986059       -0.4620734774
 C          2.0500752853        0.3121084588        1.0553651687
 C          1.1665859928       -0.9063326706       -0.8186738532
 C          0.9339671432       -1.6409905067        0.5248512903
 C          0.9624923820        1.3307681573        1.4300241051
 H          2.0452391430        1.0950407213       -0.9906657872
 H          2.9911419332        0.5718474129        1.5465780086
 H          0.2456269769       -0.3962751318       -1.1366015163
 H          1.2841839582       -2.6804942301        0.4435631734
 H          0.9019324745        1.4169744230        2.5170293884
 H          0.0015131683        0.9944726661        1.0306238163
 H          3.7486549857       -1.0721006377       -0.4045289135
 H          1.9914727792       -1.3713948947       -2.5248918121
 H          2.2970696584        4.1726372818       -1.1502698906
 H         -0.8829606510        4.5343690023        0.3451442160
  35
        -70.95628552
 N         -0.2563074842       -1.3451276437       -0.0677200049
 N         -1.5121072709       -1.4339681168       -1.9261424026
 N         -3.6646793791       -1.5788123971       -0.8213439069
 N         -3.5540742631       -1.5267960444        1.5563168921
 C         -1.5615898951       -1.4170538234        0.3490680670
 C         -2.3416335298       -1.4827878071       -0.8422122855
 C         -2.2317956569       -1.4399837416        1.5551331012
 C         -0.3169933700       -1.3250056852       -1.4292092305
 C         -4.1868525037       -1.5895573169        0.3909075063
 H         -1.7508873287       -1.3814080825        2.5220278996
 H          0.5554404697       -1.2497794745       -2.0469542063
 H         -5.2642031926       -1.6597318228        0.4424445482
 P         -0.2800138129        2.3077420014       -0.2085972894
 O          1.1558196029        0.2375725873        0.9749667545
 O          4.2502194116       -0.7408868875       -0.5429205764
 O          3.0089588385       -2.2253839893        1.2810851040
 O          1.0571855062        1.9502461764       -1.0027076025
 O         -0.7440662571        3.6515766193       -0.9289293619
 O          0.2081392447        2.8294472021        1.1919544938
 O         -1.3402926667        1.2851245107       -0.2349158342
 C          2.8743928533       -0.5989721971       -0.4389199379
 C          2.4290904999        0.5867743532        0.4429847077
 C          2.1703357059       -1.7900121836        0.2487569400
 C          0.8813791890       -1.1381519761        0.7959192032
 C          2.3056632094        1.9031808709       -0.3307272761
 H          2.4916874864       -0.4558039006       -1.4534086713
 H          3.1363085837        0.7100776583        1.2733800037
 H          1.9392845630       -2.5954858768       -0.4537458683
 H          0.6108152407       -1.5466582029        1.7780714174
 H          3.0753451487        1.9568797792       -1.1025443369
 H          2.3886578802        2.7512056422        0.3487673834
 H          4.5815957300       -1.1612510415        0.2702596858
 H          2.7754238389       -3.1175529063        1.5731024684
 H         -1.3809206334        3.5295137371       -1.6387774673
 H         -0.5004736013        2.9646865812        1.8303045815
  35
        -70.95626303
 N         -0.9300982961       -0.9974735550        0.1290061843
 N         -2.7482311976       -0.7621086101       -1.1572068155
 N         -4.1207837946       -2.4148201541       -0.0338805600
 N         -3.0559281464       -3.4967888852        1.7995372355
 C         -1.8605957346       -1.8764128809        0.6207871008
 C         -3.0081841056       -1.7127031628       -0.2131984167
 C         -1.9357532930       -2.8085108986        1.6379963474
 C         -1.5279041787       -0.3739230769       -0.9236228488
 C         -4.0691848384       -3.2676602626        0.9717240302
 H         -1.1320302110       -3.0266519515        2.3280271036
 H         -1.0171647727        0.3785257845       -1.4915498809
 H         -4.9609839632       -3.8531246082        1.1438435572
 P          0.8349329085        2.6453255658       -1.0095794901
 O          0.5844141607        0.5530506621        1.0000496185
 O          3.7789805206       -0.7547673491        0.5419895675
 O          1.9543608601       -2.4586817675       -0.2298861026
 O          2.0644709300        2.8764884476       -0.0040194541
 O          1.0132120619        3.9240228087       -1.9130294665
 O         -0.5199679368        2.8315173596       -0.2243121036
 O          0.8495988184        1.4109224317       -1.8032686078
 C          2.6436148294       -0.1118091729        0.0355524230
 C          1.9837317845        0.7059412295        1.1633381674
 C          1.5367337673       -1.1383730918       -0.3545000049
 C          0.3887973387       -0.7945022083        0.6366200064
 C          2.3192221268        2.1848135418        1.2044545044
 H          2.8716214901        0.5318407639       -0.8147917029
 H          2.2945077244        0.2538405780        2.1191921494
 H          1.1936817929       -0.9714092319       -1.3783134101
 H          0.4987027215       -1.4387436996        1.5255123069
 H          3.3864438585        2.3139255348        1.3974200929
 H          1.7315262693        2.6392341474        2.0066560918
 H          4.4281953871       -0.9010633968       -0.1609408747
 H          2.7245473899       -2.4726632872        0.3737725495
 H          1.5663297300        4.6400741900       -1.5760126845
 H         -0.7084624699        3.7048697214        0.1406902073
  35
        -70.95624316
 N         -1.4815447414       -1.2997357622        0.8040885974
 N         -3.6806743657       -0.9914174884        0.5139433188
 N         -4.1725937786       -3.2005640151       -0.3598899329
 N         -2.2782310473       -4.6359096870       -0.5213388806
 C         -1.9669620424       -2.4767365856        0.2979201454
 C         -3.3670072889       -2.2592004161        0.1203864326
 C         -1.4536925202       -3.7135899986       -0.0497068673
 C         -2.5523364564       -0.4716892354        0.9079869109
 C         -3.5675549618       -4.3363352307       -0.6479397966
 H         -0.4074656731       -3.9749489225        0.0322037115
 H         -2.4550877565        0.5230933031        1.2944739640
 H         -4.1973117166       -5.1231812880       -1.0383148723
 P          2.1710672656        3.3976608407       -0.6723853194
 O          0.0318868692        0.2902743109        1.5976220137
 O          2.9246646546       -0.2256321215        0.5153495501
 O          1.5904943018       -2.4031953761        0.0252700697
 O          0.8218056041        2.6617887491       -1.1122036018
 O          1.6610341743        4.4118774746        0.4349145854
 O          2.5070930203        4.2096584975       -1.9661259529
 O          3.2892587906        2.5424046363       -0.2422445922
 C          1.6925443833        0.0504703980       -0.0885289544
 C          0.8508849245        1.0509162475        0.7190506488
 C          0.8415988251       -1.2389833066       -0.0646036090
 C         -0.1008174222       -1.0278754050        1.1576191318
 C          0.0144010927        1.9620433450       -0.1834159485
 H          1.8393062605        0.4077078089       -1.1132272615
 H          1.4947975550        1.6706562443        1.3500634995
 H          0.2321928361       -1.3076264657       -0.9730963059
 H          0.1828736834       -1.7117047182        1.9715203948
 H         -0.5360061318        2.6750822508        0.4358807663
 H         -0.6873252951        1.3758293648       -0.7828371299
 H          3.5026209034        0.5446933923        0.3894660911
 H          2.4559249932       -2.1791057783        0.4147032697
 H          2.3463212718        4.8247140796        0.9720557153
 H          1.7975728808        4.7490292773       -2.3398868544
  35
        -70.95620050
 N         -0.1112785433       -1.6197997046       -0.1986040746
 N         -1.5889449873       -2.3902828942       -1.6971907692
 N         -3.5878456303       -1.6225938867       -0.5529936800
 N         -3.1658614785       -0.5088492724        1.5114386261
 C         -1.3508159294       -1.2933338906        0.2803527894
 C         -2.2754616435       -1.7766371636       -0.6897049916
 C         -1.8542224909       -0.6582720608        1.3965573372
 C         -0.3337079246       -2.2643502022       -1.3748019839
 C         -3.9444795937       -0.9832055401        0.5438645926
 H         -1.2333025612       -0.2699861120        2.1911085161
 H          0.4592438193       -2.6768027274       -1.9669698840
 H         -5.0064146225       -0.8322346126        0.6785334574
 P         -0.4535501504        2.3718311323       -0.1808332457
 O          1.1057231341        0.0803560347        0.8490236446
 O          3.9525832648       -0.8682200837        1.2095600826
 O          2.9148591585       -2.7370332512       -0.4083931254
 O          1.0972274048        2.6955093407       -0.3832438623
 O         -1.1329416291        3.7355218216       -0.5890741694
 O         -0.5833103363        2.2957598069        1.3993985289
 O         -0.9735592927        1.2405859399       -0.9599467267
 C          3.3015839895       -0.3520324339        0.0822116525
 C          2.2894160701        0.7528093019        0.4244821663
 C          2.3722293591       -1.4633401405       -0.4481416646
 C          1.1287077751       -1.2752973293        0.4526856612
 C          1.9796950793        1.6603357650       -0.7681098398
 H          4.0140701472       -0.0294050526       -0.6821522981
 H          2.6045122213        1.3707209469        1.2709899515
 H          2.1044840791       -1.2497962146       -1.4864673403
 H          1.2220287414       -1.8977855166        1.3586640426
 H          1.5126190776        1.0751204049       -1.5657467678
 H          2.8807946320        2.1588710596       -1.1282759217
 H          4.6709040005       -0.2840036229        1.4906338769
 H          3.4642048681       -2.8163142705        0.3918405103
 H         -0.7195533021        4.5381420458       -0.2444038820
 H         -1.4837417801        2.3066163237        1.7380744499
  35
        -70.95617911
 N         -0.1711301034       -1.5163658859       -0.0512521599
 N         -1.6533981713       -0.7292792075       -1.5333548046
 N         -3.5849484117       -0.7484737097       -0.0646993480
 N         -3.1187545227       -1.4880128794        2.1495399151
 C         -1.3761559903       -1.4416736922        0.6041745301
 C         -2.3042951573       -0.9479751216       -0.3512726128
 C         -1.8385083930       -1.6936915099        1.8826866174
 C         -0.4119709443       -1.0604758477       -1.3049526435
 C         -3.9097834079       -1.0388203806        1.1808031216
 H         -1.2119167033       -2.0410663863        2.6917867228
 H          0.3411507982       -0.9920985722       -2.0637429319
 H         -4.9456761068       -0.8881324263        1.4488730333
 P         -0.1264210968        2.1155162181       -1.1517444494
 O          1.1912006750       -0.8463428497        1.7139586841
 O          3.9972240654        0.1761975586        0.1342410103
 O          3.3689724358       -2.3632586587        0.2814014879
 O         -0.1296070933        1.3413984370        0.2706204534
 O          0.0826966186        3.6321443360       -0.8011152269
 O         -1.6198755543        2.0358173073       -1.6117540641
 O          0.8990645122        1.6128824209       -2.0806055464
 C          2.6243775268       -0.0542681715       -0.0294384197
 C          1.8907595967        0.3153656813        1.2780786474
 C          2.3281422753       -1.5699696356       -0.2068879563
 C          1.0732937621       -1.7604878013        0.6601542795
 C          0.9633527631        1.5327284068        1.1664306014
 H          2.2118081267        0.5123437340       -0.8650489629
 H          2.6342721880        0.5476033704        2.0500314185
 H          2.1461669559       -1.8452304765       -1.2500822705
 H          1.0366144548       -2.7634440993        1.1006924384
 H          1.5557178838        2.3970931289        0.8562320620
 H          0.5163176368        1.7151808222        2.1469001183
 H          4.4108826903        0.3908812244       -0.7136463129
 H          4.0858434348       -1.7708163842        0.5825905953
 H         -0.6950177354        4.0965970505       -0.4635038628
 H         -1.8893976987        1.1871444421       -2.0006988719
  35
        -70.95615606
 N         -0.2832618297       -1.6594138327       -0.1243684863
 N         -1.7717861931       -2.5859167155       -1.5188422736
 N         -3.7630464965       -1.8243879321       -0.3678396516
 N         -3.3364740749       -0.5435447849        1.5932580210
 C         -1.5161698105       -1.3328902801        0.3675885747
 C         -2.4495944013       -1.9277727135       -0.5357528733
 C         -2.0224008222       -0.6373736626        1.4484251552
 C         -0.5140670623       -2.3935049074       -1.2437280078
 C         -4.1208979774       -1.1283075097        0.6936160755
 H         -1.4033823854       -0.1567491368        2.1919011964
 H          0.2844351670       -2.8069355727       -1.8273008107
 H         -5.1843768762       -1.0220675622        0.8545305273
 P         -0.0554417206        2.2241339174       -0.4316561129
 O          0.8811313616       -0.0800342756        1.1200985146
 O          4.2223435291       -0.4546178418        0.2750213451
 O          2.7136152594       -2.2070984413       -0.9935049088
 O          1.4316237150        2.5349164730        0.0482046863
 O         -0.3576090804        3.5044826890       -1.2987757795
 O         -0.8871990518        2.3671018791        0.9155058211
 O         -0.2953390748        1.0127053601       -1.2289171191
 C          2.9645815579        0.0508309307       -0.0567453697
 C          2.1698482385        0.5213167130        1.1870930430
 C          2.0421544443       -1.0179772474       -0.7041776536
 C          0.9977522594       -1.2771913340        0.3994541595
 C          1.9790420130        2.0283497543        1.2542030392
 H          3.1219291227        0.8925910122       -0.7363779333
 H          2.6881257949        0.1791008782        2.0940976427
 H          1.5261946369       -0.5971886114       -1.5741582405
 H          1.3710471326       -2.0847824442        1.0582956062
 H          2.9427333468        2.5256769676        1.3717693707
 H          1.3114204614        2.2660574661        2.0842538853
 H          4.1636924802       -1.4211176892        0.3785322142
 H          3.2972835487       -2.0792699139       -1.7573913630
 H         -0.1250009113        4.3587690034       -0.9115166465
 H         -1.8384796790        2.2828835158        0.8105202385
  35
        -70.95613867
 N         -0.1527684545       -1.6426992544       -0.2172994617
 N         -1.7582086483       -1.8994131103       -1.7609763481
 N         -3.6338086337       -1.3746233831       -0.3211487265
 N         -3.0430586084       -0.9061324654        1.9368281897
 C         -1.3355430999       -1.3936987697        0.4221551438
 C         -2.3428323496       -1.5486643148       -0.5803598913
 C         -1.7521014993       -1.0882567987        1.7042036489
 C         -0.4825740197       -1.9294058750       -1.5041995389
 C         -3.8970979567       -1.0452225141        0.9285015032
 H         -1.0811192187       -0.9989457849        2.5463217311
 H          0.2607615383       -2.1809661696       -2.2355380274
 H         -4.9385494749       -0.8806041163        1.1666290530
 P         -0.1656204244        2.2319998264       -0.7832450709
 O          1.2385259985       -1.0669720855        1.6003639491
 O          4.0932635271       -0.1716944318        0.7573491036
 O          3.0120184990       -1.5731410083       -1.2539048534
 O         -0.0381960157        1.1443958960        0.3578827212
 O          1.3312499900        2.6651752722       -1.0447987895
 O         -0.7889740891        3.5267361886       -0.1095790616
 O         -0.9093864243        1.6949790999       -1.9288904815
 C          2.8040687459        0.2374163108        0.4145696928
 C          1.8260545761        0.2354055536        1.6035619772
 C          2.1216367109       -0.7305161500       -0.5882560864
 C          1.2009987472       -1.5923307687        0.3090558860
 C          0.7639150784        1.3380695284        1.5214946256
 H          2.9154324812        1.2366540801       -0.0072473653
 H          2.3574984749        0.3341957037        2.5543739362
 H          1.5047484491       -0.1539348874       -1.2943005986
 H          1.5835852352       -2.6244620000        0.3416617788
 H          1.2407695359        2.3178536630        1.4988148714
 H          0.0959555386        1.2662587660        2.3826660414
 H          4.0816824935       -1.0814802905        1.0910202298
 H          3.7247096485       -1.0516553753       -1.6544708804
 H          1.4378059599        3.3564014921       -1.7093994508
 H         -1.7347753016        3.6403789664       -0.2467833425
  35
        -70.95611928
 N         -0.3163709119       -1.5011292241        0.8504420783
 N         -2.3426237586       -2.0119567893        1.6693376285
 N         -3.5788759718       -1.7319114136       -0.3893854208
 N         -2.2645011952       -1.0546956197       -2.2512145471
 C         -1.1928068294       -1.3873188133       -0.1999519280
 C         -2.4714220518       -1.7231650038        0.3411399972
 C         -1.1504461670       -1.0413154001       -1.5369900647
 C         -1.0792671297       -1.8531399697        1.9229450388
 C         -3.3997020498       -1.3928280847       -1.6505769814
 H         -0.2558790111       -0.7334075642       -2.0590401885
 H         -0.6513779752       -2.0022044053        2.8952921617
 H         -4.2832838050       -1.3876990004       -2.2730178874
 P         -0.3710870523        2.3576278216        0.2942394175
 O          1.2600666040        0.2166688450        0.9762880969
 O          3.8137605904       -0.5905417860       -1.3129649549
 O          2.9149577989       -2.5750399692        0.1435212080
 O          0.8411200063        2.1965989936       -0.7322848058
 O         -0.9861826327        3.7539010371       -0.1623139089
 O          0.3087916314        2.7157586612        1.6656554918
 O         -1.3845964116        1.2879305011        0.2790907573
 C          2.4781959750       -0.4329501572       -0.9417797758
 C          2.3823409423        0.5930717149        0.2001997025
 C          1.9017702895       -1.7208114438       -0.2934967668
 C          1.0821889846       -1.1885012271        0.9104861780
 C          2.1729266531        2.0285186857       -0.2763686368
 H          1.8464040089       -0.1033393659       -1.7718966526
 H          3.3003654912        0.5340529293        0.8016670497
 H          1.2487089033       -2.2770883032       -0.9752592965
 H          1.4749126372       -1.6479276023        1.8308215780
 H          2.8207165736        2.2441905178       -1.1271907186
 H          2.3720629176        2.7219660851        0.5406418520
 H          3.8832117084       -0.9341049137       -2.2161911805
 H          3.7758642905       -2.1760680781       -0.0958907290
 H         -1.7324580926        3.6878414661       -0.7648106922
 H         -0.2980639750        2.7102453968        2.4134364805
  35
        -70.95610740
 N         -0.9531965090       -0.9649617701        0.2016497190
 N         -2.5805374322       -0.8640088694       -1.3313442673
 N         -3.7316222089       -2.8960872285       -0.6742401536
 N         -2.7428259468       -4.0295189083        1.1720375393
 C         -1.7447563315       -2.0646893810        0.4121953514
 C         -2.7722963309       -1.9825063421       -0.5757622090
 C         -1.7743021882       -3.1338884470        1.2881085600
 C         -1.5117044892       -0.2988212436       -0.8453043865
 C         -3.6509506526       -3.8669560082        0.2152521392
 H         -1.0493905023       -3.2939993884        2.0748281591
 H         -1.1206727491        0.6342573667       -1.2033803035
 H         -4.4181197082       -4.6260495366        0.1602345168
 P          0.6223306359        3.3768418896       -0.4024084048
 O          0.7612994453        0.5909775487        0.6193271243
 O          3.5965115697       -1.3381990947       -0.2266197208
 O          2.0460091057       -2.0239363321        1.8340547170
 O          2.0847263355        2.7797373010       -0.7241740013
 O          0.7982181074        4.8875309485       -0.7605917151
 O          0.4924808990        3.4188128730        1.1751200735
 O         -0.4583588439        2.7087452941       -1.1401986279
 C          2.2540206425       -0.9866355905       -0.3619548535
 C          2.0584674496        0.4852252909        0.0312324804
 C          1.3543751660       -1.7195442604        0.6622570613
 C          0.2527380419       -0.6735156259        0.9510607712
 C          2.1740326145        1.4376490946       -1.1514316086
 H          1.8733441547       -1.1496323683       -1.3753798364
 H          2.8070209576        0.7603782519        0.7863809273
 H          0.9121953867       -2.6347739408        0.2459776324
 H          0.0000966515       -0.6997387975        2.0210408748
 H          1.3715212855        1.2348457146       -1.8671484228
 H          3.1524512720        1.3288874439       -1.6218921099
 H          3.8250700584       -2.0756155731       -0.8114917249
 H          3.0033387393       -1.9566971548        1.6525124038
 H          1.4889047684        5.3574284595       -0.2756461737
 H          0.1962825048        2.5954179274        1.5732882893
  35
        -70.95609747
 N         -0.1734004949       -1.4583098688       -0.0882197498
 N         -1.3945197807       -1.7677232379       -1.9469425443
 N         -3.5740628195       -1.5831474885       -0.9028196392
 N         -3.5078842400       -1.1777174491        1.4420465260
 C         -1.4890964013       -1.3841127183        0.2939653062
 C         -2.2472601777       -1.5845367316       -0.8955340211
 C         -2.1841351885       -1.1817936924        1.4694452373
 C         -0.2048209329       -1.6664280105       -1.4349505559
 C         -4.1200081885       -1.3693313348        0.2790433083
 H         -1.7188856860       -1.0224774428        2.4321167883
 H          0.6831282903       -1.7706243020       -2.0264617103
 H         -5.2003846509       -1.3530487413        0.3064829305
 P         -0.3321353874        2.4327730829        0.0093606126
 O          1.2376478935        0.2070291440        0.8313241431
 O          4.3311743643       -0.7862144209       -0.2108718161
 O          2.9824134852       -2.2229026738        1.4460992766
 O          1.0684081658        2.5285656739       -0.7545176915
 O         -0.8836085521        3.8542432061       -0.3681805264
 O         -0.0459091506        2.6110700130        1.5554115268
 O         -1.1851515579        1.2926559069       -0.3771205524
 C          2.9709329082       -0.7587488321       -0.5212364266
 C          2.2708152024        0.5538982087       -0.0892550504
 C          2.2562121537       -1.8547588356        0.3127600844
 C          0.9543245484       -1.1714646895        0.7680573482
 C          1.6620267974        1.3443693503       -1.2503457013
 H          2.8039679566       -0.9345771760       -1.5890370092
 H          2.9657967756        1.2006595366        0.4583618403
 H          2.0422071385       -2.7471512692       -0.2897014857
 H          0.6913468737       -1.4939104477        1.7812886539
 H          0.8958783825        0.7434387836       -1.7508326286
 H          2.4246917652        1.6672857161       -1.9600298250
 H          4.8548242558       -0.3309382453       -0.8837249845
 H          3.9227222255       -2.0173773332        1.2913427933
 H         -1.8280098680        3.9758929124       -0.2260257899
 H          0.3027535645        1.8308772839        1.9980735571
  35
        -70.95608710
 N         -0.2438870642       -1.6038833299       -0.1212435044
 N         -1.8514610285       -1.7492277397       -1.6752196950
 N         -3.7178718608       -1.2503213081       -0.2140460913
 N         -3.1207246016       -0.9021163223        2.0634470335
 C         -1.4217084252       -1.3563557660        0.5290526328
 C         -2.4304927919       -1.4441104514       -0.4793259601
 C         -1.8326596046       -1.0935030130        1.8229176593
 C         -0.5766166109       -1.8250403859       -1.4196588194
 C         -3.9773274061       -0.9801623601        1.0505204741
 H         -1.1596684475       -1.0432846578        2.6667666202
 H          0.1627926101       -2.0630923133       -2.1592682637
 H         -5.0155385614       -0.8080840075        1.2972029188
 P          0.1861240690        2.2273355600       -0.9556701590
 O          1.1291303327       -1.0095693933        1.6932877472
 O          3.9728925241       -0.2963559677        0.9267930156
 O          2.9690082532       -1.5660811467       -1.1704663563
 O         -0.0971433864        1.2353959185        0.2689162611
 O         -0.8480689604        3.4118424181       -0.8206797351
 O         -0.3107400568        1.2972139099       -2.1283221966
 O          1.5641342371        2.7268297847       -1.0361148020
 C          2.7366463059        0.2109034326        0.5094604952
 C          1.7081475543        0.2951049293        1.6422628802
 C          2.0627516241       -0.7610259715       -0.4895276425
 C          1.1028160830       -1.5839443533        0.4188476306
 C          0.6622739775        1.4016575485        1.4597065912
 H          2.9341877357        1.1798672132        0.0502310395
 H          2.1898858272        0.4567044748        2.6110048010
 H          1.4741539073       -0.1923240832       -1.2165521817
 H          1.4531946545       -2.6238890256        0.5001466145
 H          1.1729139443        2.3674571831        1.4435981955
 H         -0.0503056949        1.3634914853        2.2871106550
 H          3.8415358327       -1.0165169781        1.5639733982
 H          3.8535665081       -1.4294249915       -0.7779070043
 H         -1.7835585654        3.1834683688       -0.7510443576
 H         -0.2205892067        1.6723167927       -3.0129946811
  35
        -70.95606913
 N         -0.9985831045       -1.0614812494        0.7219439676
 N         -3.0131993082       -0.1805324950        0.2927492170
 N         -4.2374266823       -2.2716471213        0.2206389312
 N         -2.9024247394       -4.2065205581        0.5975363951
 C         -1.8645529198       -2.1182117901        0.6401497065
 C         -3.1408285810       -1.5367874383        0.3672297334
 C         -1.7954638651       -3.4948107678        0.7432305009
 C         -1.7485412118        0.0510040028        0.5030192417
 C         -4.0424115763       -3.5696517989        0.3500641192
 H         -0.8849077224       -4.0455804108        0.9346754412
 H         -1.3154005071        1.0322521776        0.5124459838
 H         -4.9169594483       -4.1947283429        0.2389682215
 P          1.2929994162        2.9012289633       -1.2821673135
 O          0.7856840326       -0.1372891985        1.8903014905
 O          3.4727484905       -0.8934784070        0.4386383882
 O          1.5967801627       -1.9970536268       -1.0142183935
 O          0.6329237398        2.2727629797        0.0501228912
 O          0.3923615746        4.1487574231       -1.6259113618
 O          0.9093611984        1.8813654970       -2.4081808253
 O          2.7329524531        3.1551278152       -1.1204769753
 C          2.4257931563       -0.0012634613        0.1618622204
 C          1.8725653773        0.6685696353        1.4308395061
 C          1.2326607641       -0.8364050947       -0.3479096162
 C          0.4231039535       -1.1090148830        0.9497835657
 C          1.4353089731        2.1194165004        1.2100679125
 H          2.7210924563        0.7466678405       -0.5792806904
 H          2.6209675688        0.6597069862        2.2308880150
 H          0.6201566921       -0.2378093251       -1.0287566995
 H          0.6578177577       -2.1121480199        1.3341555246
 H          2.3280985108        2.7418358067        1.1143632324
 H          0.8311032410        2.4406675791        2.0607444789
 H          4.3203028773       -0.4289199104        0.4607618993
 H          2.4648903840       -2.2835029394       -0.6733682031
 H          0.6156574006        4.9784141037       -1.1886393665
 H          0.1303275229        2.1175291094       -2.9268375040
  35
        -70.95597101
 N         -0.6955550264       -2.4160937544        0.4205949064
 N         -1.7215807503       -4.4037518547        0.5637335197
 N         -3.8523124790       -3.7016609038       -0.3537707320
 N         -3.9549167807       -1.4017692234       -0.9586950681
 C         -1.9601018110       -2.2286712068       -0.0739363801
 C         -2.5965296333       -3.5036552677        0.0294220068
 C         -2.7066276073       -1.1806889183       -0.5776815132
 C         -0.6302228401       -3.7278357127        0.7748631785
 C         -4.4511494149       -2.6285726830       -0.8321337829
 H         -2.3341652059       -0.1705517959       -0.6717487668
 H          0.2587961024       -4.1607932522        1.1897613905
 H         -5.4731764942       -2.7600710140       -1.1575888319
 P          1.8728852861        3.6479334339        0.3131095526
 O         -0.1153850747       -0.2442204000        0.9944326070
 O          2.9067218662        0.0698332190       -0.2562561500
 O          1.8618041599       -2.0470291804       -1.3899503589
 O          0.5751419763        3.0691029986       -0.4131655053
 O          1.3302653958        4.0266757097        1.7532984761
 O          2.1094635345        4.9689098128       -0.4886543944
 O          3.0669231149        2.7852098893        0.3241075791
 C          1.5723423030        0.2774271683       -0.6294598862
 C          0.7087504148        0.8205954728        0.5302408917
 C          0.9596475647       -1.1091718431       -0.9153783331
 C          0.3680160437       -1.4613827848        0.4766661731
 C         -0.1757604568        1.9971233899        0.1228702120
 H          1.5136640501        0.9379073018       -1.5020185984
 H          1.3704010744        1.1379565139        1.3470182340
 H          0.1394115977       -1.0347801080       -1.6374550942
 H          1.1631943255       -1.8789431121        1.1137211431
 H         -0.7422161832        2.3350523415        0.9940334877
 H         -0.8650561982        1.6975220291       -0.6702291312
 H          3.3162375587        0.9376916343       -0.0848230733
 H          2.7498642904       -1.8029291799       -1.0702093813
 H          2.0024432259        4.2116272978        2.4188524138
 H          1.3479533532        5.5527686815       -0.6033238653
  35
        -70.95587626
 N         -0.2082045669       -1.2111765770       -0.0788343882
 N         -1.4503658709       -1.1735506503       -1.9471045993
 N         -3.6049676368       -1.4554512407       -0.8730291958
 N         -3.5058502285       -1.6195964017        1.5003556346
 C         -1.5115300768       -1.3521504683        0.3216866836
 C         -2.2834273182       -1.3322087259       -0.8760587863
 C         -2.1869013798       -1.4988012848        1.5164833500
 C         -0.2590135626       -1.0883228249       -1.4335171702
 C         -4.1316374764       -1.5885681658        0.3296157718
 H         -1.7107659697       -1.5167168815        2.4871782019
 H          0.6179620019       -0.9528534417       -2.0340186420
 H         -5.2073792584       -1.6869909274        0.3677739819
 P         -0.3674481659        2.2530658764       -0.0929113998
 O          1.2979343225        0.3044813469        0.9367416045
 O          4.3698374403       -0.7519033886        0.0110038561
 O          2.8561159477       -2.4508955090        1.2986281026
 O          0.6382130196        1.6267354635       -1.1627339882
 O         -0.9342609766        3.5272080348       -0.8666923598
 O          0.5498467916        2.9187785467        0.9962726787
 O         -1.4476466367        1.3604128175        0.3583980557
 C          3.0330425237       -0.6852516399       -0.3918642934
 C          2.4344345844        0.6313612399        0.1475608056
 C          2.1766999167       -1.8041520679        0.2689729386
 C          0.9328708854       -1.0451474862        0.7904202820
 C          2.0379959145        1.6572369821       -0.9416315006
 H          2.9424390078       -0.7327382651       -1.4814280269
 H          3.1700675456        1.0911090724        0.8177759902
 H          1.8691254650       -2.5726852445       -0.4465007973
 H          0.6380420311       -1.4135453310        1.7793851071
 H          2.4947344096        1.4183787815       -1.9030694521
 H          2.3343726675        2.6594347758       -0.6311438826
 H          4.8451977999       -1.4339528024       -0.4872636769
 H          3.5881304208       -1.8823078000        1.6017788161
 H         -1.7577007537        3.3840555197       -1.3418515713
 H          0.0874880042        3.1362138291        1.8127633136
  35
        -70.95585953
 N         -0.2628837699       -2.3154073835        0.0824519270
 N         -1.7158480503       -3.9555288766       -0.3904770565
 N         -3.7332707299       -2.6269166767       -0.1981623877
 N         -3.3592200930       -0.3451104860        0.3688138852
 C         -1.5096690661       -1.7470993824        0.1367773779
 C         -2.4178024083       -2.8075380223       -0.1645653559
 C         -2.0446181052       -0.5024175323        0.4136062001
 C         -0.4679320833       -3.6216280328       -0.2342136054
 C         -4.1182126744       -1.3941230635        0.0687928118
 H         -1.4527308290        0.3649901413        0.6693682753
 H          0.3436498773       -4.3131485282       -0.3491283944
 H         -5.1836093647       -1.2137306386        0.0444046726
 P          0.5697485304        3.1220368457       -0.1809075895
 O          0.9794613996       -0.9072502257        1.4466362182
 O          3.6360451928       -0.3244080763       -0.2873657882
 O          1.8773461569       -1.2889663499       -1.9995037786
 O          0.2020124230        1.9221048501        0.8314483532
 O         -0.6538541593        4.1073346469       -0.0782766407
 O          0.3799921980        2.5033145504       -1.6112372420
 O          1.9025213835        3.6837852243        0.0906432688
 C          2.3623720459        0.2458167433       -0.1354417042
 C          1.8713686084        0.2049511661        1.3260489246
 C          1.3668283570       -0.6780748938       -0.8657852382
 C          1.0021453553       -1.6710632648        0.2678977015
 C          1.1693112950        1.4874239069        1.7715937706
 H          2.3296384775        1.2628701089       -0.5346495526
 H          2.7193905694        0.0251952144        1.9989623267
 H          0.4707882557       -0.1212354378       -1.1544913550
 H          1.7703121564       -2.4594750937        0.3220819072
 H          1.9159334682        2.2739315856        1.9065813535
 H          0.6373767758        1.2938335018        2.7048371667
 H          4.3278845536        0.3368663637       -0.1515463253
 H          2.8367077115       -1.4105523898       -1.8735063419
 H         -0.6523930067        4.7237822632        0.6624197141
 H         -0.4357516568        2.7596341383       -2.0579096451
  35
        -70.95584221
 N         -0.1693779815       -0.8182323387        1.1820352774
 N         -2.0371455876        0.2563599034        1.7962789882
 N         -3.5729610914       -1.0092021065        0.4156052783
 N         -2.5502160868       -2.7386760165       -0.8628739998
 C         -1.1919456763       -1.4087362375        0.4894721994
 C         -2.3698482037       -0.7041244479        0.8891236657
 C         -1.3411741861       -2.4573776319       -0.3998920103
 C         -0.7448813071        0.1578485845        1.9285271416
 C         -3.5788290034       -2.0080887414       -0.4454276158
 H         -0.5254874212       -3.0787358618       -0.7446938833
 H         -0.1643535695        0.7795827784        2.5810051822
 H         -4.5422763384       -2.2742356319       -0.8569504072
 P         -0.4150965520        2.3009989330       -1.0111359499
 O          2.0063060288       -0.1108720304        1.6664352169
 O          4.0940064213       -1.2360827256       -0.1716443235
 O          1.9996626594       -2.7344495675       -0.5920764204
 O          0.7112010604        1.2629089362       -0.5763581836
 O         -0.9766817412        2.8076601046        0.3690655257
 O         -1.4820633914        1.3084511654       -1.6065195095
 O          0.0350695520        3.3667329253       -1.9256411224
 C          2.9555592544       -0.4691657883       -0.4523558585
 C          2.6807860402        0.5927116111        0.6277586863
 C          1.7262092305       -1.3996886364       -0.3263512815
 C          1.2440718935       -1.1517033045        1.1336315361
 C          1.8556014169        1.7720314244        0.1030203595
 H          3.0024907586       -0.0218421770       -1.4485175051
 H          3.6000125687        0.9751755010        1.0777835426
 H          0.9460122274       -1.0731243968       -1.0189294491
 H          1.4074826209       -2.0506387043        1.7463568876
 H          2.4420423967        2.3791630663       -0.5915055401
 H          1.5344320159        2.3930331222        0.9429606724
 H          4.8958858946       -0.7803259318       -0.4626212837
 H          2.9332208049       -2.9048439152       -0.3679281241
 H         -1.4614164595        3.6404026621        0.3343216938
 H         -1.6737838251        1.4801345477       -2.5355612472
  35
        -70.95583368
 N         -0.3708101483       -1.9994644287       -0.2026130638
 N         -1.8896014844       -2.5415789794       -1.7595527991
 N         -3.8524978479       -2.2471544715       -0.3713842358
 N         -3.3858462583       -1.6137750628        1.8746683801
 C         -1.5924932374       -1.9019344136        0.4090182678
 C         -2.5444588870       -2.2414854713       -0.6018835267
 C         -2.0780963597       -1.6036305975        1.6697692410
 C         -0.6267639120       -2.3874450936       -1.4804991908
 C         -4.1890020166       -1.9218858323        0.8612919500
 H         -1.4444558777       -1.3681800843        2.5125329732
 H          0.1612274873       -2.5590025714       -2.1876762617
 H         -5.2478141777       -1.9113929583        1.0776012278
 P          0.6638916508        3.0345591681       -0.6674712558
 O          0.8512214985       -1.0697301516        1.5767090522
 O          3.5829087273       -0.1654757245        0.8025968505
 O          2.8050303969       -1.6064819222       -1.2430598810
 O          0.4333169159        2.5072893385        0.8454958959
 O          2.1417340869        3.5493819170       -0.6905510482
 O         -0.1680096548        4.3704867088       -0.7280330705
 O          0.3526557676        2.0066109613       -1.6711759584
 C          2.3333583528        0.2400702953        0.3145451371
 C          1.2629693611        0.2836737965        1.4156205665
 C          1.8075926867       -0.8831798035       -0.6071783451
 C          0.9461947478       -1.7500572487        0.3606836816
 C          0.0589925596        1.1637350331        1.0482914742
 H          2.3993407981        1.1833415715       -0.2318399306
 H          1.6787122849        0.5965736553        2.3764378436
 H          1.1675489132       -0.4451295590       -1.3805236758
 H          1.4321839460       -2.7189520818        0.5434627256
 H         -0.6657129963        1.1492041128        1.8655369697
 H         -0.4073989102        0.7741800429        0.1386292400
 H          4.0803619005        0.5883044152        1.1479849933
 H          3.6011482018       -1.5881506918       -0.6798317696
 H          2.3095986578        4.3577517200       -0.1871458692
 H         -1.1105470301        4.2912213481       -0.9107568144
  35
        -70.95582880
 N         -0.2473037727       -2.2933081723        0.1487945268
 N         -1.7076760220       -3.9501563059       -0.2346693228
 N         -3.7175818959       -2.5985187357       -0.1368343036
 N         -3.3302716583       -0.2888430610        0.2943123666
 C         -1.4905798682       -1.7157682106        0.1597769955
 C         -2.4037114016       -2.7862906713       -0.0834707252
 C         -2.0171616788       -0.4530882090        0.3577206526
 C         -0.4586175980       -3.6150137683       -0.0901578388
 C         -4.0947321072       -1.3490399776        0.0519861600
 H         -1.4161407018        0.4195500971        0.5692565618
 H          0.3491054392       -4.3172821472       -0.1577567817
 H         -5.1585953018       -1.1632035553        0.0088458655
 P          0.5026410921        3.0730461541       -0.2099076807
 O          1.0096232282       -0.8306867122        1.4432861059
 O          3.6580236871       -0.3325917346       -0.3736841340
 O          1.8566095226       -1.3484366923       -1.9991291964
 O          0.2492385393        1.9611681945        0.9116676124
 O         -0.5800166884        4.1819687755        0.0575334484
 O          0.0351453454        2.2914850779       -1.5082599304
 O          1.8688905146        3.6119990500       -0.2406037697
 C          2.3891916665        0.2435024641       -0.1976850036
 C          1.9463859189        0.2372761171        1.2811176386
 C          1.3704605144       -0.6937716289       -0.8786001828
 C          1.0184874563       -1.6430148956        0.2958594379
 C          1.3206379820        1.5513612823        1.7462109434
 H          2.3477904654        1.2519410279       -0.6132269092
 H          2.8133585037        0.0266165847        1.9213703462
 H          0.4738736457       -0.1399626883       -1.1713253243
 H          1.7881032134       -2.4281328042        0.3733902409
 H          2.0869931352        2.3303317969        1.7593893391
 H          0.8967514186        1.4101136457        2.7419336358
 H          4.3530659002        0.3350058228       -0.3003445714
 H          2.8166780165       -1.4756195793       -1.8827691071
 H         -1.4927315863        3.8909168838        0.1776848855
 H          0.1002378618        2.7885521991       -2.3318836111
  35
        -70.95578120
 N         -0.5598450520       -2.5031983061        0.3307828873
 N         -1.6065712443       -4.4847386577        0.3052363513
 N         -3.8280299878       -3.6380317363       -0.1690037518
 N         -3.9559376470       -1.2697838890       -0.3742060323
 C         -1.8775263354       -2.2348048420        0.0651178111
 C         -2.5256182655       -3.5078958530        0.0550101124
 C         -2.6603722272       -1.1164461430       -0.1494184053
 C         -0.4787108044       -3.8546492160        0.4593196467
 C         -4.4606667012       -2.4995873978       -0.3763134860
 H         -2.2785190197       -0.1052597318       -0.1346887996
 H          0.4489870283       -4.3515661417        0.6654252749
 H         -5.5218894103       -2.5733058048       -0.5664144514
 P          1.7525918218        3.6242970903        0.1026644708
 O          0.1640570793       -0.4869901087        1.2134429962
 O          2.8952754148        0.1431924934       -0.4611982548
 O          1.6530245751       -1.7374672697       -1.7946924186
 O          0.5323376312        3.1067532039        1.0183102927
 O          1.8820713007        5.1047724796        0.5968144345
 O          1.1970901772        3.7423059991       -1.3612978874
 O          2.9720225980        2.8030137924        0.1933270399
 C          1.5202188235        0.3857079429       -0.5583697898
 C          0.8731912196        0.6850432434        0.8123581643
 C          0.8564351787       -0.9360975656       -0.9935034087
 C          0.5205546075       -1.5663809053        0.3843524568
 C         -0.1022731002        1.8631504908        0.8060715216
 H          1.3216795001        1.1925515754       -1.2732255561
 H          1.6632693886        0.8886837755        1.5471680795
 H         -0.0787776242       -0.7472305664       -1.5312798643
 H          1.4061346914       -2.0936341098        0.7713311257
 H         -0.7973612791        1.7407059256        1.6405480165
 H         -0.6575318732        1.8824696956       -0.1369286048
 H          3.3340296822        0.9951449042       -0.2828651861
 H          2.5854466468       -1.5360210277       -1.5923778980
 H          2.3657856885        5.2352376054        1.4195665404
 H          0.6406207696        4.5133563496       -1.5346770145
  35
        -70.95575833
 N         -0.2821825525       -1.3747706060       -0.0781251918
 N         -1.5831787807       -1.4439828823       -1.9063513665
 N         -3.7068221127       -1.6114238954       -0.7495415029
 N         -3.5363240840       -1.5842154354        1.6255606930
 C         -1.5751993589       -1.4582188475        0.3697100166
 C         -2.3847677529       -1.5103973261       -0.8028637168
 C         -2.2145078382       -1.4962556029        1.5921588384
 C         -0.3770294182       -1.3355967476       -1.4361868191
 C         -4.1977856022       -1.6365890800        0.4753192550
 H         -1.7066548787       -1.4505994675        2.5458618037
 H          0.4777048422       -1.2425292218       -2.0757682369
 H         -5.2733190794       -1.7100797083        0.5532601759
 P         -0.2480119971        2.3604181535       -0.2610348752
 O          1.1263946301        0.1750014738        1.0017308602
 O          4.2514946831       -0.6578709235       -0.4248146301
 O          2.9341651658       -2.3998914686        1.1100942711
 O          1.2017326305        2.0907264360       -0.8851568251
 O         -0.7723913643        3.5143084344       -1.2033664798
 O          0.0680278562        3.0319872660        1.1409949927
 O         -1.2244459138        1.2652200897       -0.2404352466
 C          2.8615648084       -0.5372071973       -0.4490035368
 C          2.4184321845        0.5487654538        0.5431890462
 C          2.1554098035       -1.7896088999        0.1231586128
 C          0.8804960020       -1.1975709492        0.7549344605
 C          2.3487180438        1.9490520144       -0.0616520307
 H          2.4738433740       -0.2972038265       -1.4441553721
 H          3.1199709822        0.5532111633        1.3890980580
 H          1.8971628420       -2.5289878852       -0.6457394430
 H          0.6723291726       -1.6888819898        1.7145897572
 H          3.2124195946        2.1201108139       -0.7062275093
 H          2.3174008149        2.6886764263        0.7383546048
 H          4.5778416288       -1.0513835532       -1.2474403685
 H          3.8590349055       -2.1078718227        0.9917966983
 H         -0.2006251805        4.2834059636       -1.3226716672
 H         -0.6208464134        2.9060222405        1.8003847905
  35
        -70.95575154
 N         -0.9622356328       -1.0350614763        0.7907617131
 N         -2.9825147775       -0.1231941962        0.4657509602
 N         -4.2130380538       -2.2023566670        0.2672606474
 N         -2.8740172447       -4.1608139044        0.4671001530
 C         -1.8313727002       -2.0822716853        0.6462324642
 C         -3.1117916197       -1.4810731522        0.4436976083
 C         -1.7624851502       -3.4626648902        0.6414376235
 C         -1.7129877714        0.0903942694        0.6663656815
 C         -4.0180354968       -3.5064619093        0.2950801564
 H         -0.8485044527       -4.0261828644        0.7678624833
 H         -1.2744807945        1.0656132237        0.7405091045
 H         -4.8962015831       -4.1209772176        0.1567596633
 P          1.2093612530        2.8614354381       -1.2863476005
 O          0.8712667532       -0.1292152931        1.8960714663
 O          3.4949398079       -0.9213276545        0.3534182408
 O          1.5596096800       -2.0034650278       -1.0324612841
 O          0.6362568353        2.2788417379        0.0909297486
 O          0.3299046629        4.1285188579       -1.5963361928
 O          0.7427833699        1.7348228032       -2.2985110049
 O          2.6478473629        3.1564582115       -1.2715053922
 C          2.4507390248       -0.0160637836        0.1111036265
 C          1.9498040928        0.6637944219        1.3959110650
 C          1.2309302509       -0.8385952520       -0.3545825096
 C          0.4660477115       -1.0998284905        0.9723703339
 C          1.5227609593        2.1197242750        1.1897240345
 H          2.7324501919        0.7292451230       -0.6376887077
 H          2.7259578564        0.6500616236        2.1691626957
 H          0.5968429086       -0.2368844299       -1.0120510793
 H          0.7017882221       -2.1047381553        1.3520475979
 H          2.4124987140        2.7319474188        1.0231324493
 H          0.9863776390        2.4605886649        2.0774669983
 H          4.3467317456       -0.4643686574        0.3713868161
 H          2.4317573886       -2.3038395828       -0.7151149307
 H         -0.6294956584        4.0237845242       -1.5577864083
 H          1.0259364281        1.8651034608       -3.2109046148
  35
        -70.95566548
 N         -0.2545047938       -1.6029490601       -0.1376689293
 N         -1.8694915644       -1.7148961680       -1.6850431084
 N         -3.7319939899       -1.2754172251       -0.2003725616
 N         -3.1254318531       -0.9920525401        2.0831084058
 C         -1.4309900184       -1.3863171797        0.5272747705
 C         -2.4444563150       -1.4518819851       -0.4768696932
 C         -1.8373390340       -1.1651572858        1.8307073312
 C         -0.5920422250       -1.7871027860       -1.4401829436
 C         -3.9869931962       -1.0454787398        1.0728234833
 H         -1.1604834855       -1.1333370831        2.6723446802
 H          0.1440295626       -1.9929744546       -2.1927018327
 H         -5.0250865580       -0.8886588336        1.3296674897
 P          0.2212133481        2.2540606180       -0.9714362260
 O          1.1112083958       -1.0319120313        1.6842948947
 O          3.9492332690       -0.3125827421        0.9619091572
 O          2.9756862997       -1.5679544141       -1.1589042524
 O         -0.0890010004        1.2316524079        0.2230055890
 O         -0.7441754179        3.4779465203       -0.6944049232
 O         -0.3821840390        1.4915959483       -2.2009547223
 O          1.6401144173        2.6184140595       -1.0948545419
 C          2.7220859376        0.2007694902        0.5261145652
 C          1.6758125878        0.2790635708        1.6435408469
 C          2.0606016318       -0.7635061024       -0.4889425656
 C          1.0910605162       -1.5926327461        0.4037716121
 C          0.6226743986        1.3768547147        1.4462189443
 H          2.9303075429        1.1691982946        0.0716571792
 H          2.1408864158        0.4434595389        2.6198053963
 H          1.4857852716       -0.1861566499       -1.2229922083
 H          1.4392143678       -2.6339377553        0.4761945630
 H          1.1243010899        2.3458523805        1.4757896339
 H         -0.1208432661        1.3124660421        2.2442713248
 H          3.8041776006       -1.0414779992        1.5862593226
 H          3.8566287920       -1.4240417174       -0.7607014245
 H         -0.3439721555        4.3481981063       -0.8066403875
 H         -1.3091265514        1.6730869033       -2.3955808195
  35
        -70.95564542
 N         -0.2051543343       -1.2086646966       -0.2152616591
 N         -1.6427839399       -1.1283338809       -1.9367815217
 N         -3.6651189401       -1.4948997397       -0.6511103925
 N         -3.3098250182       -1.7195984734        1.6930998187
 C         -1.4572070035       -1.3895150005        0.3149713060
 C         -2.3537694292       -1.3448203400       -0.7912585121
 C         -1.9981189389       -1.5766876993        1.5705560601
 C         -0.4050508452       -1.0310195563       -1.5500503208
 C         -4.0571966618       -1.6716146732        0.5967047925
 H         -1.4205617028       -1.6058248046        2.4843273984
 H          0.3898742416       -0.8434211287       -2.2435931948
 H         -5.1208988111       -1.7927568301        0.7459858291
 P         -0.3258568308        2.2577810018       -0.2344793875
 O          1.2006137271        0.3220269662        0.8979817395
 O          3.9486311850       -0.7717516281        1.3539304397
 O          2.6749877182       -2.8051676913        0.3118190582
 O          0.7060243041        1.5948541696       -1.2553895967
 O         -0.8582250309        3.5052633149       -1.0739167659
 O          0.5671792520        2.9562253370        0.8566595285
 O         -1.4311810722        1.3943787710        0.2129494597
 C          3.3019901937       -0.4318008936        0.1585408111
 C          2.4033466666        0.8063753128        0.3175174786
 C          2.2772631826       -1.5530489832       -0.1343724744
 C          0.9923574961       -1.0354105136        0.5691254524
 C          2.1009873346        1.5416668140       -1.0145772524
 H          4.0162562786       -0.3168688635       -0.6618029037
 H          2.8136980988        1.5093412982        1.0464332219
 H          2.1014633309       -1.6429736891       -1.2082938133
 H          0.8299291682       -1.5830068922        1.5070859871
 H          2.5110724788        1.0036369757       -1.8720226378
 H          2.5056558311        2.5546524458       -0.9837518057
 H          4.7287887208       -0.2172043415        1.4920341990
 H          3.2187931188       -2.6888782933        1.1126082482
 H         -1.6794358766        3.3538607154       -1.5502318858
 H          0.0707415447        3.2711261847        1.6202467932
  35
        -70.95556171
 N         -0.2439042449       -1.2011281822       -0.0667582128
 N         -1.4943267914       -1.1419948748       -1.9296504117
 N         -3.6370906441       -1.5067684069       -0.8573800633
 N         -3.5264688413       -1.7188227798        1.5117614325
 C         -1.5424277582       -1.3814874501        0.3336031636
 C         -2.3193008424       -1.3489967404       -0.8611605456
 C         -2.2101324193       -1.5705556677        1.5265510165
 C         -0.3042943228       -1.0392316495       -1.4168425749
 C         -4.1565149942       -1.6781351663        0.3435683321
 H         -1.7305744203       -1.6014945001        2.4953291555
 H          0.5638071026       -0.8568951365       -2.0175466969
 H         -5.2293271368       -1.8040637459        0.3824340740
 P         -0.3201567339        2.2903499706       -0.1236777461
 O          1.2762089897        0.2968611172        0.9584445235
 O          4.3277410696       -0.8350424287       -0.1712601840
 O          2.8388321064       -2.4167444891        1.3088865509
 O          0.8159447333        1.7748867310       -1.1312714822
 O         -1.0316036961        3.4024537166       -0.9952090623
 O          0.4772498583        3.0683612951        1.0048144703
 O         -1.3285445888        1.3325194382        0.3427841469
 C          2.9609345863       -0.7014438022       -0.4283569345
 C          2.4628641281        0.5984325194        0.2349916068
 C          2.1323367445       -1.8136399606        0.2688460836
 C          0.8992856675       -1.0497964413        0.8023865736
 C          2.1820207644        1.7533306726       -0.7459154664
 H          2.7506443349       -0.6890440539       -1.5018101930
 H          3.2229785668        0.9218454357        0.9572431521
 H          1.8112282100       -2.5970756157       -0.4270495595
 H          0.6055953874       -1.4288276006        1.7876139281
 H          2.7507362729        1.6327425454       -1.6689687119
 H          2.4401221754        2.6996282450       -0.2700382337
 H          4.7371762058       -1.4543773131       -0.7942113974
 H          3.6953509338       -1.9579206288        1.4120059381
 H         -0.4829223942        4.0987657341       -1.3777926878
 H          0.0783275363        2.9935049086        1.8772350567
  35
        -70.95555396
 N         -0.0426046570       -1.6139981303       -0.0515048614
 N         -1.6245941766       -1.8035719836       -1.6288512279
 N         -3.4499713376       -0.8896826507       -0.3255748024
 N         -2.8693940025       -0.3026454034        1.9069247963
 C         -1.1986093405       -1.1431447310        0.5104637902
 C         -2.1884479764       -1.2586913668       -0.5133475373
 C         -1.6075219553       -0.6676569406        1.7427309134
 C         -0.3737933956       -1.9849663160       -1.3160321251
 C         -3.7024915946       -0.4151166772        0.8782950649
 H         -0.9549697552       -0.5873317996        2.6009602946
 H          0.3416983993       -2.4190104181       -1.9868793674
 H         -4.7183676596       -0.0925711062        1.0579567734
 P         -0.5062028965        2.1656163832       -0.8804602427
 O          1.3531667614       -0.9024376970        1.7060697411
 O          4.2998548058       -0.3706102437        0.8597366845
 O          3.2277577314       -2.1863118196       -0.7649674278
 O          0.4830809385        1.1032700407       -0.2243737657
 O         -1.7855765017        2.1130462808        0.0469773500
 O         -0.8883271938        1.4024448939       -2.1960321245
 O          0.0611396279        3.5156461733       -1.0479222484
 C          3.0544243308        0.0066018555        0.3586444828
 C          2.0206883320        0.3308406691        1.4531575360
 C          2.3662669790       -1.1391201402       -0.4346333706
 C          1.2845478959       -1.6669057444        0.5399368999
 C          1.0500580677        1.4394981057        1.0379250296
 H          3.2385939939        0.8747245027       -0.2757964479
 H          2.5001449369        0.6223122980        2.3910547564
 H          1.8832487218       -0.7219972531       -1.3284026227
 H          1.5004704350       -2.7127208902        0.8042953613
 H          1.5718687973        2.3964287050        0.9527537071
 H          0.2514421408        1.5273292712        1.7798064403
 H          4.2101717303       -1.1422110615        1.4405716799
 H          4.0741634683       -1.8281009706       -1.0766536495
 H         -2.2554211287        2.9550402394        0.0772450558
 H         -0.6682972111        1.8701296893       -3.0103743813
  35
        -70.95554662
 N         -0.3162307126       -2.4718286235        0.2911043111
 N         -1.8369067345       -4.0802122415       -0.0573089003
 N         -3.7623713682       -2.6249488718       -0.2700089174
 N         -3.2759600258       -0.3077242544       -0.0273175320
 C         -1.5180012523       -1.8306248389        0.1346585385
 C         -2.4713123451       -2.8721699048       -0.0828621490
 C         -1.9844082872       -0.5290456739        0.1638272633
 C         -0.5865500165       -3.7990565036        0.1646617346
 C         -4.0800680075       -1.3456560381       -0.2338778866
 H         -1.3565640542        0.3317741196        0.3472665231
 H          0.1824751027       -4.5428653766        0.2386220424
 H         -5.1238558535       -1.1109618239       -0.3866676482
 P          0.6105617272        3.2073114132       -0.1664033333
 O          0.8503912389       -0.8097945141        1.3973799485
 O          2.9932802271        0.6386372975       -1.0608018768
 O          2.8103101036       -1.9687054015       -1.0612676874
 O          0.2990225028        2.1723165733        1.0299717722
 O          0.0075670749        4.5812471415        0.3127118071
 O         -0.3695019790        2.7833424109       -1.3104763578
 O          2.0370534612        3.2203864409       -0.5374752522
 C          1.7964769186        0.1877891217       -0.5068636721
 C          1.7752513578        0.2060015814        1.0347678696
 C          1.6038121026       -1.3130722943       -0.8169075834
 C          0.9739289379       -1.8753730995        0.4874399850
 C          1.3825266531        1.5315726818        1.6808548569
 H          0.9381128255        0.7474975397       -0.8963869636
 H          2.7773494180       -0.0705359904        1.3959064447
 H          0.9198939340       -1.4583044604       -1.6656067004
 H          1.6490203428       -2.6522000129        0.8792864637
 H          2.2563453154        2.1855013900        1.6722725429
 H          1.0526049810        1.3387663617        2.7027940423
 H          2.9833441282        1.6132935976       -1.0595808602
 H          3.4397733740       -1.3189832516       -1.4224343231
 H          0.5691443147        5.1464478063        0.8543899265
 H         -1.2400356419        3.1986019274       -1.2783786184
  35
        -70.95549853
 N         -0.3853124092       -1.9500577657       -0.2202860463
 N         -1.9243692540       -2.4115180069       -1.7829013080
 N         -3.8691834254       -2.1921299613       -0.3556022679
 N         -3.3727848188       -1.6800166615        1.9146545087
 C         -1.5996132536       -1.8865869008        0.4118222369
 C         -2.5644548948       -2.1725295227       -0.6027353167
 C         -2.0680986679       -1.6547175805        1.6927745834
 C         -0.6581934125       -2.2725815486       -1.5132618241
 C         -4.1893386665       -1.9357117856        0.8976114542
 H         -1.4248963556       -1.4596545177        2.5386533478
 H          0.1187869271       -2.4134721981       -2.2389136126
 H         -5.2450206848       -1.9402729234        1.1288232978
 P          0.6846577924        3.0051259987       -0.7027590188
 O          0.8532592725       -1.0782101902        1.5801855258
 O          3.5849361944       -0.0866344270        0.8875673932
 O          2.8688195575       -1.6341976024       -1.1499990365
 O          0.3642722793        2.4830630371        0.7959066330
 O          2.1664384249        3.5037883705       -0.6599828819
 O         -0.1308415451        4.3482293838       -0.8048294820
 O          0.4136504323        1.9770700387       -1.7182064381
 C          2.3334803204        0.2343278010        0.3522749901
 C          1.2264105578        0.2872686994        1.4080620526
 C          1.8362099557       -0.8927069384       -0.5879238152
 C          0.9344264908       -1.7475759696        0.3524949931
 C          0.0167770177        1.1306861867        0.9816732282
 H          2.4568909994        1.1716490530       -0.1892585247
 H          1.5983904409        0.6438219384        2.3719436104
 H          1.2324421264       -0.4559852642       -1.3915166695
 H          1.3869480310       -2.7339588386        0.5280231592
 H         -0.7439921356        1.0974166273        1.7654072720
 H         -0.3973648943        0.7325865449        0.0508261378
 H          3.4863233503       -0.7471464711        1.5922497480
 H          3.7032919595       -1.3813918225       -0.7085418243
 H          2.3336838621        4.2834906656       -0.1135067276
 H         -1.0668442731        4.2762268046       -1.0213167840
  35
        -70.95547276
 N         -0.7357135908       -1.5969471188        0.0798390421
 N         -2.3638260610       -1.0640925775       -1.3684174865
 N         -4.1531933700       -2.2701998784       -0.2604984189
 N         -3.4918679322       -3.3884505137        1.7341608422
 C         -1.8805454955       -2.1944230458        0.5453756263
 C         -2.8995488738       -1.8521811781       -0.3903925455
 C         -2.2366824865       -2.9825424724        1.6239442052
 C         -1.1086311851       -0.9332208661       -1.0525960669
 C         -4.3663422257       -3.0201528745        0.8037249307
 H         -1.5533638755       -3.2907948248        2.4028529102
 H         -0.4286972932       -0.3484662464       -1.6423277114
 H         -5.3772933270       -3.3771742626        0.9384454012
 P          1.1467140808        3.1055426903       -1.0362074280
 O          0.6132448750       -0.6207546169        1.7481727890
 O          3.4436607944        0.2745630748        0.2919463256
 O          2.8100911279       -2.2509748395        0.1853887480
 O          0.8251290592        2.8262232265        0.5218247843
 O          2.7048061811        3.0508551260       -1.1772981506
 O          0.8358847950        4.6407951349       -1.1831937178
 O          0.4341173020        2.1850969054       -1.9369621982
 C          2.0878265600        0.0854845563        0.0031866697
 C          1.2581110226        0.5328329562        1.2234195494
 C          1.7455003189       -1.4251853220       -0.1696419442
 C          0.5375331479       -1.6254159482        0.7721159918
 C          0.2168808171        1.6121726818        0.9001060728
 H          1.7906650014        0.6462670142       -0.8861669271
 H          1.9342671576        0.9105912441        1.9984941396
 H          1.4788392636       -1.6787071399       -1.1983267704
 H          0.6017337206       -2.5883771730        1.2910892631
 H         -0.3694298443        1.8177904975        1.7985739740
 H         -0.4448975396        1.2674640146        0.1001594876
 H          3.9733155050        0.1837644060       -0.5138895363
 H          3.3738335871       -1.7841316878        0.8291695037
 H          3.1859095630        3.7643024600       -0.7377108818
 H         -0.0924681757        4.8867510163       -1.2579476794
  35
        -70.95545941
 N         -0.2005246364       -1.6429544888        0.6982840724
 N         -1.9434809828       -1.6153680440        2.1075921584
 N         -3.6835388096       -1.6166363479        0.4224192440
 N         -2.8834297560       -1.6802293657       -1.8196696891
 C         -1.3231540657       -1.6473715227       -0.0860411541
 C         -2.4191061663       -1.6215414152        0.8292045732
 C         -1.6156771966       -1.6924334700       -1.4369614815
 C         -0.6472604675       -1.6244429109        1.9807768858
 C         -3.8297110068       -1.6344106637       -0.8879087321
 H         -0.8673505920       -1.7438214266       -2.2161980324
 H          0.0334740027       -1.6251670633        2.8096358835
 H         -4.8477998808       -1.6211231365       -1.2511102197
 P         -0.0399195389        2.4946640866       -0.1245918029
 O          2.0046829899       -1.1495764703        1.3098367769
 O          3.7427852592       -0.4265949422       -0.9347688139
 O          1.5748221119       -1.2999709828       -2.1450594393
 O          1.2717365522        2.3529863540        0.7847222555
 O          0.6151077152        2.5936626314       -1.5638970445
 O         -0.5954927046        3.9258919410        0.2091368764
 O         -1.0317102275        1.4251761924        0.0584385273
 C          2.5787484015        0.2196102250       -0.4936707331
 C          2.4408453840        0.1803818606        1.0355311218
 C          1.3818232896       -0.6456654399       -0.9375664472
 C          1.1884965842       -1.6081531607        0.2704500713
 C          1.4350643853        1.2092288545        1.6027508048
 H          2.5081451239        1.2326141839       -0.8929349328
 H          3.4106687444        0.2772683452        1.5273491532
 H          0.4916651403       -0.0196116810       -1.0338675392
 H          1.4991180612       -2.6295004620        0.0081058300
 H          1.7753251925        1.5698100728        2.5749949216
 H          0.4633872050        0.7217786681        1.7240699383
 H          4.5066007098        0.1630312878       -0.8681362540
 H          2.5257652243       -1.4964459247       -2.2350425814
 H          0.0199240917        2.7964515918       -2.2947857744
 H          0.0590975334        4.6361666435        0.2569791666
  35
        -70.95545075
 N         -1.5395695434       -1.2674327347        0.7455298551
 N         -3.7186468017       -0.9971364172        0.3049789678
 N         -4.1550880444       -3.2721095535       -0.4170226628
 N         -2.2507296572       -4.7022431844       -0.3572975812
 C         -1.9928181106       -2.4839855617        0.3075777151
 C         -3.3806093938       -2.2904628288        0.0331442593
 C         -1.4570790735       -3.7402986729        0.0873657270
 C         -2.6157166212       -0.4404829403        0.7199748138
 C         -3.5315480330       -4.4228280207       -0.5795704786
 H         -0.4163440016       -3.9865776602        0.2477095811
 H         -2.5425794221        0.5826597216        1.0298271832
 H         -4.1355418085       -5.2426885881       -0.9417928187
 P          2.2352137893        3.3985358168       -0.6436526939
 O         -0.0789785828        0.3854765492        1.5077047462
 O          2.8738479513       -0.2039933746        0.6369256537
 O          1.5610624839       -2.4009631827        0.1883363518
 O          0.8775511449        2.7130645725       -1.1887704341
 O          1.8304690262        4.3230081355        0.5564081232
 O          2.5478857813        4.3853475455       -1.8208179097
 O          3.3010127884        2.4416599585       -0.3020762442
 C          1.6821808760        0.0413314615       -0.0542667842
 C          0.7991971670        1.0902486223        0.6384898339
 C          0.8238310224       -1.2422218767       -0.0060030193
 C         -0.1807075373       -0.9602804664        1.1501728639
 C          0.0217268342        1.9470682521       -0.3630024278
 H          1.8920436596        0.3373630843       -1.0874704534
 H          1.4041212711        1.7501973626        1.2693704236
 H          0.2628416354       -1.3606447790       -0.9402359550
 H          0.0649574815       -1.5876646671        2.0201590840
 H         -0.6509069815        2.6081782035        0.1908021313
 H         -0.5645737286        1.3183795259       -1.0394385748
 H          3.4572795412        0.5623340547        0.5070327389
 H          2.4031955221       -2.1561942590        0.6148032023
 H          1.4326660489        5.1721479896        0.3225750421
 H          2.9763265022        4.0012285178       -2.5932797714
  35
        -70.95543058
 N         -0.0117186896       -1.7051182661        0.6745309836
 N         -1.9780515440       -1.8719259551        1.7497090404
 N         -3.3820123843       -1.0834008165       -0.0414266175
 N         -2.2263649912       -0.4647737856       -2.0180257572
 C         -0.9667294083       -1.2462427788       -0.2032558088
 C         -2.2088099251       -1.3796360405        0.4984659387
 C         -1.0467306628       -0.7607947436       -1.4965181363
 C         -0.6917667300       -2.0356515740        1.8082910022
 C         -3.3130552673       -0.6305645300       -1.2761573037
 H         -0.2042803171       -0.6037451923       -2.1549773632
 H         -0.1810449148       -2.4073833420        2.6753021855
 H         -4.2521151220       -0.3739422511       -1.7449036847
 P         -0.7879232118        2.1685641630        0.0374866291
 O          2.0294669832       -0.8567052253        1.4899133525
 O          3.6398290636        0.2637279365       -1.2535964456
 O          3.2057396316       -2.3258834861       -0.9481927561
 O          0.1106982536        1.1677817778        0.8735868338
 O         -0.0468451898        2.2227422514       -1.3582623866
 O         -0.5081751696        3.6142610222        0.6367014933
 O         -2.1990930046        1.7698079653        0.0326847356
 C          2.3781799635       -0.0277805487       -0.7268862552
 C          2.3885263701        0.3218605460        0.7759086630
 C          2.0611426746       -1.5501154684       -0.7582560839
 C          1.4408680223       -1.7939439249        0.6304373842
 C          1.4766351067        1.4908557305        1.1523075629
 H          1.5881806807        0.5353016607       -1.2332688596
 H          3.4092480826        0.5858569607        1.0767064871
 H          1.3694673728       -1.8370442282       -1.5507884917
 H          1.7125831262       -2.7873398876        1.0085816964
 H          1.7748124743        2.3861982224        0.6064848229
 H          1.5518318730        1.6623511237        2.2279577848
 H          3.6309417002        0.1910637406       -2.2194632095
 H          3.9782890719       -1.8718517368       -0.5708249392
 H         -0.3662378654        2.8940456100       -1.9736073271
 H         -1.2209420255        3.9644037696        1.1813842682
  35
        -70.95539573
 N         -0.4777248939       -1.7014469478        0.8715390386
 N         -2.3358311513       -1.5301468345        2.1108854080
 N         -3.8904180270       -2.2971433973        0.4155501911
 N         -2.8729886943       -2.8828297022       -1.6571381973
 C         -1.5100759042       -2.1039756269        0.0660257292
 C         -2.6824226279       -1.9848208588        0.8726029357
 C         -1.6595307145       -2.5746704883       -1.2264690996
 C         -1.0418796623       -1.3824112775        2.0639767363
 C         -3.9030359690       -2.7269136979       -0.8309739030
 H         -0.8388298077       -2.7065394143       -1.9183181169
 H         -0.4484790311       -1.0472972539        2.8911845566
 H         -4.8716565674       -2.9896204672       -1.2320706437
 P          0.5846366362        3.1419562799       -0.4189343087
 O          1.6606681656       -0.9757512010        1.4965407385
 O          3.4517477323       -0.3982961298       -0.8186736668
 O          1.4538168970       -1.6939357043       -1.8920902380
 O          1.2994961477        2.6419269501        0.9444836643
 O          1.7797838801        3.4805940597       -1.3890710617
 O         -0.0833336911        4.5101332673       -0.0265180151
 O         -0.3471339804        2.1645336324       -0.9871464494
 C          2.2157500841        0.1677311905       -0.4776584551
 C          2.0454710928        0.3185221252        1.0416482961
 C          1.1218224035       -0.8636134936       -0.8312932964
 C          0.9268125488       -1.6349591470        0.5085349945
 C          0.9820212012        1.3562687768        1.4319290153
 H          2.0395877772        1.1042712792       -1.0097656738
 H          2.9937536937        0.5469775844        1.5346270927
 H          0.1971788153       -0.3377563727       -1.0928668652
 H          1.3065082340       -2.6624512317        0.4155074322
 H          0.9269013093        1.4290936494        2.5200913534
 H          0.0111438417        1.0474908032        1.0347668765
 H          4.1389001269        0.2800500246       -0.8704083465
 H          2.4260564949       -1.7718007288       -1.9241107507
 H          2.4045542744        4.1683197886       -1.1230187319
 H          0.3265929069        5.0300949261        0.6777658589
  35
        -70.95535719
 N         -0.9460544358       -0.9580275804        0.2037044323
 N         -2.5564864610       -0.8650921398       -1.3478598281
 N         -3.6971856520       -2.9096043164       -0.7129785022
 N         -2.7252693759       -4.0382859158        1.1448294499
 C         -1.7309070900       -2.0650860929        0.4011475149
 C         -2.7467920756       -1.9885561938       -0.5992834096
 C         -1.7658807431       -3.1350485709        1.2760318626
 C         -1.4989770612       -0.2924415412       -0.8464375718
 C         -3.6205278759       -3.8821444851        0.1749647150
 H         -1.0532483822       -3.2892444878        2.0749909700
 H         -1.1150673859        0.6475887078       -1.1935309452
 H         -4.3801406627       -4.6477700180        0.1072553553
 P          0.6193751670        3.3814019130       -0.3717534840
 O          0.7706388178        0.5985561218        0.6291216994
 O          3.5128625018       -1.4914751388       -0.2977110880
 O          2.0588438724       -1.9044314788        1.8912976845
 O          2.0630849922        2.7701453200       -0.7479798003
 O          0.8026372694        4.8917764524       -0.7279931053
 O          0.5442211023        3.4167575983        1.2089814735
 O         -0.4923164225        2.7308252413       -1.0783362806
 C          2.2081990133       -1.0100227369       -0.3757875238
 C          2.0530273582        0.4759302229        0.0035612051
 C          1.3536126539       -1.7004482258        0.7058354447
 C          0.2494078174       -0.6575255245        0.9676212813
 C          2.1285410831        1.4285233002       -1.1829793096
 H          1.7567720872       -1.1894526081       -1.3599809761
 H          2.8187592970        0.7492588601        0.7422554772
 H          0.9294238204       -2.6458617545        0.3400860779
 H         -0.0159601108       -0.6683281254        2.0341712618
 H          1.2965330402        1.2311953061       -1.8659660105
 H          3.0838266283        1.3285187202       -1.6997393401
 H          4.0318959907       -1.2271428932       -1.0689582410
 H          2.9531009356       -2.2168882510        1.6701223080
 H          1.5040536631        5.3543484457       -0.2514992833
 H          0.2520654021        2.5951990558        1.6140652730
  35
        -70.95532617
 N         -1.3497971567       -1.3965394977        0.9464564631
 N         -3.5616433479       -1.0996774969        1.1318074687
 N         -4.2269955304       -3.1240660074       -0.0276671975
 N         -2.4080766740       -4.4535410169       -0.8018486908
 C         -1.9310732788       -2.4738328530        0.3308402292
 C         -3.3377801064       -2.2652691703        0.4598105990
 C         -1.5021698999       -3.6113901345       -0.3294072315
 C         -2.3753053667       -0.6304808109        1.3977912923
 C         -3.6958093213       -4.1712543695       -0.6280655188
 H         -0.4613814974       -3.8535507838       -0.4956711315
 H         -2.2000793279        0.2785127520        1.9370768890
 H         -4.3937988852       -4.8905590698       -1.0325046395
 P          2.0940964538        3.3561829605       -0.7551904114
 O          0.2997860119        0.0448045740        1.7485765480
 O          2.9489817375       -0.2164496349        0.0854907804
 O          1.4818049493       -2.2375615028       -0.6201268639
 O          0.7332432360        3.2768103828        0.1031985274
 O          2.2864925940        4.9094449464       -0.8268298414
 O          1.7287736066        2.9461529546       -2.2277179052
 O          3.2203162278        2.5845541286       -0.2038685541
 C          1.6406707516        0.1789503780       -0.2112671375
 C          0.9939744027        0.9816388583        0.9292103702
 C          0.7663520393       -1.0904200244       -0.3102204736
 C          0.0750996238       -1.1601258731        1.0825664842
 C          0.0520355834        2.0823899449        0.4319387725
 H          1.6155836405        0.7416267164       -1.1508963236
 H          1.7620065615        1.4413789403        1.5590682167
 H         -0.0042201353       -0.9634883226       -1.0795718780
 H          0.4996633904       -1.9881658687        1.6699610922
 H         -0.6323812001        2.3552552959        1.2394792453
 H         -0.5232693569        1.7297853741       -0.4304874335
 H          3.5178971981        0.5694393766        0.0250768418
 H          2.4120112440       -2.0951189308       -0.3627884982
 H          2.6667560975        5.3240147271       -0.0448275942
 H          1.2492502295        3.6110834067       -2.7394188855
  35
        -70.95532066
 N         -1.8241290438       -1.2244348162        0.1363650722
 N         -3.4531781527       -1.6191546505       -1.3496255813
 N         -4.0196260518       -3.8467611176       -0.5770103389
 N         -2.7077205483       -4.6140886196        1.2561997380
 C         -2.2899859054       -2.4825724695        0.4094369723
 C         -3.3288731183       -2.7127000404       -0.5436290812
 C         -2.0037587160       -3.4941686587        1.3070316858
 C         -2.5526481558       -0.7809097258       -0.9215631934
 C         -3.6606869925       -4.7278069681        0.3362889183
 H         -1.2252819374       -3.4377644938        2.0545416329
 H         -2.3972482762        0.1933470054       -1.3400808320
 H         -4.2060993926       -5.6607926792        0.3362075412
 P          2.8009889716        3.2247086195       -0.5175569139
 O         -0.8737437044        0.8238272777        0.6362164573
 O          2.1646593222        0.2021975469        1.5489018417
 O          1.2220556489       -2.0663073533        0.6606821705
 O          1.2292202301        3.4023453720       -0.8178662069
 O          3.3141320888        4.6726889441       -0.8245350904
 O          3.3923495177        2.3483387209       -1.6793551630
 O          3.1139575278        2.6942968031        0.8204381568
 C          1.4587424611        0.3596963909        0.3507058439
 C          0.3868791064        1.4637946851        0.4339304396
 C          0.6424902729       -0.9278072238        0.1231386113
 C         -0.7192394186       -0.5613994321        0.7750658243
 C          0.2996946745        2.3381016050       -0.8187889931
 H          2.1501438203        0.5447688183       -0.4792102566
 H          0.5885849586        2.1082754463        1.2982415105
 H          0.4807721798       -1.1027480829       -0.9468021089
 H         -0.7109748402       -0.8585370999        1.8355721535
 H         -0.6850179282        2.8116297266       -0.8429929307
 H          0.4331920968        1.7220439417       -1.7134171191
 H          2.7637052945        0.9644773610        1.6420855134
 H          1.8187304389       -1.7864845220        1.3798994143
 H          3.1586616628        5.3310652887       -0.1389096074
 H          3.5150954342        2.8004556576       -2.5248224180
  35
        -70.95531640
 N         -1.7847132048       -1.2959364722       -0.0372887282
 N         -3.1962071568       -1.9211803312       -1.6605475123
 N         -3.9644793410       -3.9658523056       -0.6084270573
 N         -2.9758598370       -4.4121202354        1.5111865529
 C         -2.3409835151       -2.4759906417        0.3777510107
 C         -3.2375721217       -2.8558674560       -0.6676619634
 C         -2.2394050242       -3.3128604599        1.4732930676
 C         -2.3319265007       -1.0358874551       -1.2541908421
 C         -3.7836380359       -4.6749940880        0.4887498409
 H         -1.5852500424       -3.1342394988        2.3149919838
 H         -2.0764063793       -0.1544289993       -1.8076970310
 H         -4.3618703188       -5.5845634619        0.5675287870
 P          2.8310128638        3.2584537263       -0.4003494363
 O         -0.9241921879        0.8174293422        0.3304898192
 O          1.9835445444        0.3179392099        1.6842960881
 O          1.1995023024       -2.0206635715        0.8091803149
 O          1.3105047816        3.3897758463       -0.9128088248
 O          3.3584060819        4.7031290006       -0.6974286803
 O          3.5832993785        2.3471314078       -1.4349720880
 O          2.9718625056        2.7895447634        0.9890117279
 C          1.4325392759        0.3924150708        0.3997050986
 C          0.3417258886        1.4767144591        0.2836688577
 C          0.6677453228       -0.9224439027        0.1520931520
 C         -0.7606408509       -0.5429561356        0.6298414929
 C          0.4161813914        2.2995330354       -1.0037288721
 H          2.2204385965        0.5447898976       -0.3468511959
 H          0.4119283421        2.1584401456        1.1405710108
 H          0.6259044337       -1.1550299979       -0.9181245163
 H         -0.8484659049       -0.7306580858        1.7112859217
 H         -0.5659649131        2.7415821498       -1.1889925970
 H          0.6934746880        1.6546457124       -1.8432886528
 H          2.5443028505        1.1047503715        1.8109711094
 H          1.7025290870       -1.6953990841        1.5787884025
 H          3.1099541450        5.3836780459       -0.0626825582
 H          3.8146508522        2.7697614571       -2.2727275680
  35
        -70.95531367
 N         -1.5348651149       -1.3223022952        0.8460783728
 N         -3.7614966241       -1.1116490941        0.7303751009
 N         -4.2191290447       -3.3234202916       -0.1544042798
 N         -2.2794445728       -4.6608251305       -0.5048977634
 C         -2.0036837513       -2.5098959620        0.3486795106
 C         -3.4218377681       -2.3553544523        0.2850045978
 C         -1.4633683594       -3.7105044896       -0.0757578763
 C         -2.6306652678       -0.5465855706        1.0470095877
 C         -3.5873446700       -4.4224595552       -0.5180237716
 H         -0.4027555357       -3.9195620938       -0.0938796729
 H         -2.5487839435        0.4442859330        1.4460647997
 H         -4.2094653141       -5.2302113937       -0.8767137478
 P          2.3230758100        3.3259439703       -0.7359067765
 O         -0.0601141576        0.2973523539        1.6269787615
 O          2.8189573144       -0.2087769617        0.4260135438
 O          1.3748685480       -2.2039747020       -0.4120606399
 O          0.8450965145        3.3799609690       -0.0982663499
 O          2.6233993516        4.8574798015       -0.8739873707
 O          2.1611649234        2.8291880422       -2.2179114605
 O          3.3009441772        2.5369094000        0.0317204650
 C          1.5914247339        0.2188301703       -0.0910938752
 C          0.8249643987        1.1304805913        0.8804611623
 C          0.6800384007       -1.0182390821       -0.2290917324
 C         -0.1468875502       -0.9881585459        1.0871902133
 C          0.0466037214        2.2457675087        0.1763288982
 H          1.7350944643        0.7088824404       -1.0602470458
 H          1.5153948402        1.5891557328        1.5962086787
 H         -0.0044582632       -0.8988482614       -1.0769154881
 H          0.2621282211       -1.7240965853        1.7974985535
 H         -0.7418375354        2.6021493836        0.8442127852
 H         -0.4008888975        1.8702591425       -0.7496605772
 H          3.4312059703        0.5464175918        0.4034206940
 H          2.2724240145       -2.0868671688       -0.0485724185
 H          2.9149949478        5.3045068315       -0.0719491867
 H          1.8023676267        3.4786100819       -2.8365839183
  35
        -70.95530258
 N         -1.7642266017       -1.1982877335        0.5355907369
 N         -3.8261945794       -1.1668200964       -0.3377355428
 N         -4.1511018311       -3.5693245373       -0.4075291749
 N         -2.2955446460       -4.8337926155        0.3872891120
 C         -2.1421126931       -2.5084875653        0.4064415715
 C         -3.4583555988       -2.4661613032       -0.1458628282
 C         -1.5837201186       -3.7493777445        0.6521718234
 C         -2.8074257955       -0.4641473324        0.0702296325
 C         -3.5181486937       -4.6885909025       -0.1146389931
 H         -0.5843642487       -3.8948376911        1.0370889635
 H         -2.7800245252        0.6068560827        0.0643226507
 H         -4.0577929456       -5.6039750940       -0.3119400549
 P          2.6100652236        3.2439544065       -0.6915721515
 O         -0.5606698030        0.6523242847        1.2442861549
 O          2.5534298935       -0.0534551752        1.0601732506
 O          1.3162295591       -2.1728273467        0.1874696401
 O          1.0195971496        3.4196058440       -0.5119280664
 O          3.0305540343        4.7327880465       -0.9382674052
 O          2.8374558592        2.5421500146       -2.0784765170
 O          3.2851883386        2.5542281012        0.4207827378
 C          1.5354202356        0.2725862484        0.1574179684
 C          0.5719749828        1.3373873773        0.7100390354
 C          0.6464215574       -0.9758349642       -0.0150046265
 C         -0.4881424437       -0.7253383745        1.0176028140
 C          0.1106302137        2.3507568024       -0.3406696131
 H          1.9618600350        0.5889686725       -0.8013620891
 H          1.0487916644        1.8824182640        1.5326497935
 H          0.2067800770       -1.0022937667       -1.0188728438
 H         -0.2597685867       -1.2626137709        1.9518374503
 H         -0.8177058331        2.8130539553        0.0046390907
 H         -0.0635715798        1.8479120368       -1.2971784575
 H          3.1768758485        0.6934114095        1.0870786782
 H          2.0929454121       -1.9913171835        0.7495647506
 H          3.1004182970        5.2866717119       -0.1533532220
 H          2.7066326888        3.1023950076       -2.8550682218
  35
        -70.95528595
 N         -0.2563266708       -1.5891287518       -0.1390206113
 N         -1.8792833532       -1.7085285282       -1.6777003295
 N         -3.7351939403       -1.2708000136       -0.1843324986
 N         -3.1176406015       -0.9831963068        2.0956060910
 C         -1.4301389358       -1.3752208636        0.5316564270
 C         -2.4485769747       -1.4446735912       -0.4669796461
 C         -1.8305032588       -1.1533458073        1.8370941408
 C         -0.6007405761       -1.7783336892       -1.4388261398
 C         -3.9843343361       -1.0398481049        1.0897200783
 H         -1.1488347896       -1.1192384002        2.6747052695
 H          0.1294155891       -1.9884489500       -2.1956202973
 H         -5.0214184075       -0.8850147886        1.3517922106
 P          0.2132208629        2.2398894835       -0.9774201107
 O          1.1118388756       -1.0242766752        1.6808418677
 O          3.9834688386       -0.2213063352        0.9404649499
 O          2.9632039437       -1.6679960009       -1.0823933138
 O         -0.0792950090        1.2302465127        0.2301347872
 O         -0.7272526769        3.4782249700       -0.6817825577
 O         -0.4299769128        1.4755163144       -2.1861925183
 O          1.6322129102        2.5842548723       -1.1510353767
 C          2.7284129236        0.2105862793        0.5075854016
 C          1.6891633724        0.2797681417        1.6401508026
 C          2.0679072173       -0.7799517123       -0.4862564611
 C          1.0903171472       -1.5855053764        0.4030471580
 C          0.6399492449        1.3826755181        1.4490252685
 H          2.8882425719        1.1851074072        0.0455233203
 H          2.1692906146        0.4355097397        2.6101631033
 H          1.5072377692       -0.2057044615       -1.2382732014
 H          1.4340073750       -2.6286166175        0.4753336008
 H          1.1439368861        2.3505138983        1.4702884264
 H         -0.0996623898        1.3253635218        2.2511249420
 H          3.9237199335       -1.1177932928        1.3053880496
 H          3.6880353460       -1.1750770270       -1.4957675286
 H         -0.3264869550        4.3419304003       -0.8343826247
 H         -1.3614631832        1.6599846655       -2.3535006392
  35
        -70.95528469
 N         -0.1879878530       -1.2285288165       -0.1033690935
 N         -1.4343758809       -1.1767784684       -1.9682734541
 N         -3.5912746976       -1.4077993992       -0.8858729779
 N         -3.4876294227       -1.5694226718        1.4875267990
 C         -1.4928867419       -1.3412885270        0.3019171516
 C         -2.2675083069       -1.3120495527       -0.8933903564
 C         -2.1667980043       -1.4739034769        1.4993520103
 C         -0.2401901053       -1.1110980123       -1.4594127346
 C         -4.1166386759       -1.5265485542        0.3188373269
 H         -1.6874405264       -1.4989306940        2.4681944521
 H          0.6393200144       -1.0004556690       -2.0619040573
 H         -5.1940976713       -1.6018191931        0.3607427483
 P         -0.3835804155        2.2396391654       -0.0611861415
 O          1.3006547084        0.2988811485        0.9172943884
 O          4.4161796072       -0.7629297538        0.0548242756
 O          2.8169148698       -2.4220722721        1.3326724244
 O          0.5478547206        1.5740624996       -1.1719676534
 O         -0.9778519770        3.5075518013       -0.8250777563
 O          0.6065607134        2.9134643165        0.9566747059
 O         -1.4475119222        1.3692584675        0.4661901662
 C          3.0894974972       -0.6647916767       -0.3549757007
 C          2.4138645949        0.6521294111        0.1060937272
 C          2.1979850924       -1.7951729756        0.2453978563
 C          0.9533707155       -1.0530019629        0.7635006004
 C          1.9591100189        1.5875509830       -1.0447394255
 H          3.1130316148       -0.7318096207       -1.4446826776
 H          3.1022085210        1.2061010720        0.7532193160
 H          1.9084728021       -2.5266631539       -0.5157827453
 H          0.6689779764       -1.4269533629        1.7535209632
 H          2.3420410437        1.2532317105       -2.0103397978
 H          2.2957548787        2.6063327512       -0.8496553849
 H          4.4460672561       -0.8710917014        1.0208676440
 H          3.4870323987       -3.0476861381        1.0156303824
 H         -1.8219245316        3.3640102985       -1.2622430338
 H          0.1887513642        3.2024817622        1.7751809502
  35
        -70.95526702
 N         -0.6903314449       -2.3991070522        0.4321775948
 N         -1.7138407948       -4.3873122815        0.5857782148
 N         -3.8419851503       -3.6952332053       -0.3451084082
 N         -3.9461369561       -1.3996558178       -0.9660040167
 C         -1.9533543625       -2.2171463779       -0.0681434909
 C         -2.5881449456       -3.4924363694        0.0418623167
 C         -2.6997969635       -1.1736021527       -0.5812393169
 C         -0.6242641817       -3.7081476692        0.7960358277
 C         -4.4405209150       -2.6265906819       -0.8337156764
 H         -2.3285411474       -0.1634635862       -0.6799707006
 H          0.2640870874       -4.1367458749        1.2168278429
 H         -5.4607860733       -2.7623500866       -1.1629398997
 P          1.8573334600        3.6363429580        0.3222069024
 O         -0.1083760666       -0.2184245857        0.9752221345
 O          2.9140406810        0.0443183205       -0.2158132072
 O          1.8703719506       -2.0664528722       -1.3749679776
 O          0.5117680738        3.1246909777       -0.4035652394
 O          1.5209440432        3.8366469825        1.8400794885
 O          1.9634017215        5.0875969883       -0.2589323013
 O          3.0281858780        2.7699758822        0.1008344921
 C          1.5972529214        0.2662953036       -0.6380303571
 C          0.7015823269        0.8442971098        0.4780974240
 C          0.9741357442       -1.1165479298       -0.9139827838
 C          0.3745207917       -1.4448279275        0.4798198330
 C         -0.2058822737        1.9770010601        0.0033799384
 H          1.5786592958        0.9100710925       -1.5245375810
 H          1.3339529751        1.2180561770        1.2952794846
 H          0.1577153302       -1.0434646785       -1.6403925338
 H          1.1651317343       -1.8533830381        1.1281671833
 H         -0.8922359595        2.2310998496        0.8162055909
 H         -0.7817731694        1.6629024839       -0.8714466863
 H          3.3334477263        0.9124516717       -0.0709436483
 H          2.7560773860       -1.8359642561       -1.0390034760
 H          1.0211825084        4.6333258804        2.0612623962
 H          2.3198626192        5.1655731786       -1.1504901021
  35
        -70.95526609
 N         -1.7474575758       -1.1922064927        0.4078196042
 N         -3.7326009160       -1.1835038785       -0.6284995450
 N         -4.0899438814       -3.5827345581       -0.5954773926
 N         -2.3262419575       -4.8232944118        0.4173536666
 C         -2.1358195573       -2.5029002505        0.3195655205
 C         -3.4024574360       -2.4749046195       -0.3390106330
 C         -1.6193556792       -3.7345989543        0.6787331359
 C         -2.7392392069       -0.4717370377       -0.1756540072
 C         -3.5016573138       -4.6912900544       -0.1900402867
 H         -0.6559204811       -3.8685173066        1.1505569111
 H         -2.6943962792        0.5971263083       -0.2352200364
 H         -4.0390443675       -5.6096765146       -0.3795752515
 P          2.5287144553        3.3627171980       -0.5278040965
 O         -0.5300187507        0.6862952627        1.0352989250
 O          2.5501410307       -0.0574533815        1.2035772470
 O          1.3369119866       -2.2905983398        0.6417480811
 O          1.3652519381        2.6783194850       -1.4133136839
 O          1.8297795505        4.3713005421        0.4486592064
 O          3.2186285942        4.2656464041       -1.6075244922
 O          3.4060605597        2.4028539086        0.1633576755
 C          1.6187891359        0.1026555389        0.1709260366
 C          0.6311488253        1.2498904987        0.4336202604
 C          0.7203876494       -1.1516887476        0.1461848635
 C         -0.5123257229       -0.7108923944        0.9864013187
 C          0.2576315783        2.0095862781       -0.8404245247
 H          2.1296030845        0.2461100412       -0.7873095153
 H          1.0565942246        1.9601637844        1.1523748017
 H          0.3901620640       -1.3690665732       -0.8761884817
 H         -0.4321007139       -1.1246840867        2.0039911712
 H         -0.5263882676        2.7320968858       -0.5962705684
 H         -0.1092648491        1.3215730849       -1.6072287343
 H          3.1833558083        0.6791062362        1.1502468097
 H          2.0552526549       -2.0078171499        1.2381498805
 H          1.5342046665        5.2041766229        0.0579937045
 H          3.8548971994        3.8282477409       -2.1831848244
  35
        -70.95529679
 N         -0.2051863898       -0.9635946030        1.1537504030
 N         -1.9599152621        0.3941606994        1.4722942969
 N         -3.5076112995       -0.7525987526        0.0218504780
 N         -2.6524779036       -2.7298573022       -0.9748380481
 C         -1.2270064517       -1.4764119533        0.3924220464
 C         -2.3266565105       -0.5867720809        0.5990731494
 C         -1.4671788298       -2.5815180846       -0.4032176744
 C         -0.7184579600        0.1292836158        1.7701627053
 C         -3.5875281060       -1.8156183092       -0.7553347567
 H         -0.7580025680       -3.3751454395       -0.5930045028
 H         -0.1387392728        0.7026830652        2.4662521197
 H         -4.5323882886       -1.9724580989       -1.2555312957
 P         -0.3566956935        2.0740403809       -0.6457069807
 O          1.9654442536       -0.2388565665        1.6320267284
 O          3.2128344184       -0.5398903056       -1.6697155387
 O          2.9678225001       -2.5343518151        0.0813258768
 O          0.7181574233        2.0496934855        0.5264903682
 O          0.2418170319        3.1361734302       -1.6442973358
 O         -1.5557677165        2.8203955994        0.0359492025
 O         -0.6823439581        0.7781778048       -1.2810863448
 C          2.1876254516       -0.4462703686       -0.7364806954
 C          2.5538436819        0.4052633031        0.4986979766
 C          1.7923455039       -1.7984869006       -0.1060675742
 C          1.2025566379       -1.3442638596        1.2446084417
 C          2.1225031194        1.8714768185        0.3873270691
 H          1.3240288582       -0.0171439643       -1.2498630427
 H          3.6417318919        0.3880270655        0.6414823211
 H          1.0701803752       -2.3265354655       -0.7286438714
 H          1.3157876251       -2.1068034274        2.0264434694
 H          2.4700454648        2.2684257678       -0.5687431323
 H          2.5529497378        2.4427159130        1.2127905462
 H          3.8606938009       -1.1930651684       -1.3497509444
 H          2.7780865465       -3.4706401421        0.2322528242
 H         -0.1927365019        3.1865235027       -2.5036830912
 H         -2.0982374403        2.2752605897        0.6264495685
  35
        -70.95525911
 N          0.0739519245       -1.7623164948       -0.0841582586
 N         -1.3832830071       -2.1983917829       -1.7350055448
 N         -3.2950913456       -1.0841069575       -0.7523410058
 N         -2.8637089996       -0.0814140040        1.3627617980
 C         -1.1159800397       -1.1829379185        0.2829938487
 C         -2.0249382046       -1.4682890350       -0.7773613147
 C         -1.5986861550       -0.4693609558        1.3634814510
 C         -0.1685070157       -2.3411587806       -1.2917332598
 C         -3.6257550300       -0.3947715587        0.3199957360
 H         -1.0032721260       -0.2155119189        2.2296727056
 H          0.5692387640       -2.8939111303       -1.8374776211
 H         -4.6506352852       -0.0544571870        0.3670748182
 P         -0.8824574566        2.2381196586       -0.3346079740
 O          1.4016671433       -0.6510042129        1.5122983280
 O          4.0917446304       -0.0251286206       -0.7211423525
 O          3.6625172595       -2.2890244877        0.6508241152
 O          0.3712280100        1.2738219063       -0.2618711029
 O         -0.3292430798        3.6317644659       -0.8724075165
 O         -1.1879739278        2.5508160511        1.1782538284
 O         -1.9527644136        1.6593968042       -1.1555954304
 C          2.7813371032       -0.3604569053       -0.4133384341
 C          2.2423177942        0.3109089759        0.8726288099
 C          2.5703888547       -1.8597873319       -0.1114174862
 C          1.2823753186       -1.8051452531        0.7342959173
 C          1.4757347446        1.5984163152        0.5875827632
 H          2.1594527531       -0.0624553226       -1.2631296614
 H          3.0678719366        0.5362481871        1.5575077313
 H          2.4614991749       -2.4474607128       -1.0242014364
 H          1.1980197213       -2.6486132307        1.4328465019
 H          2.1278378911        2.3117802439        0.0791608320
 H          1.1024686439        2.0258713909        1.5180372089
 H          4.6847112863       -0.5255718818       -0.1333287401
 H          3.7020222565       -3.2546419266        0.6954937985
 H         -0.5123950150        3.8019267448       -1.8021475445
 H         -1.8239549276        3.2567051479        1.3420365088
  35
        -70.95524665
 N         -0.3920255044       -1.2522593597        0.9991260750
 N         -2.4077220407       -0.9860670884        1.9550995215
 N         -3.7407276332       -1.4321279128       -0.0025550578
 N         -2.4997337503       -1.8921744163       -1.9726635727
 C         -1.3152914946       -1.4559046751        0.0013068063
 C         -2.5870211238       -1.2942124378        0.6377081725
 C         -1.3401117368       -1.7557911740       -1.3503705351
 C         -1.1206648460       -0.9585747934        2.1144939746
 C         -3.6205372150       -1.7268858647       -1.2814866354
 H         -0.4659003260       -1.8747576807       -1.9735843476
 H         -0.6439002177       -0.7295196627        3.0472539576
 H         -4.5410792923       -1.8470425272       -1.8347077242
 P         -0.1477009601        2.1578058559       -0.1453835141
 O          1.3709991369        0.2583349399        1.1411223912
 O          3.4567131854       -0.6273841769       -1.6289159098
 O          2.8790424842       -2.4123546236        0.2514456776
 O          1.3736736506        2.6060417931       -0.4033011302
 O         -0.8600208699        3.4861271927       -0.6296606422
 O         -0.4695592065        2.1529420579        1.3888017949
 O         -0.5681623237        0.9619646937       -0.8928029620
 C          2.2941279626       -0.3534575519       -0.9078872026
 C          2.4985724413        0.5427060367        0.3293145563
 C          1.8044482756       -1.6456502275       -0.2168361598
 C          1.0403991454       -1.1171918488        1.0085228049
 C          2.5589059498        2.0471360361        0.1298163046
 H          1.4890382840        0.0545640082       -1.5270024347
 H          3.4187257572        0.2161715895        0.8389793996
 H          1.1682136920       -2.2542789018       -0.8644944337
 H          1.4131797030       -1.6522561924        1.8971418715
 H          3.3541538535        2.3089548605       -0.5711397751
 H          2.7557494031        2.5087011647        1.1017478470
 H          3.6409357546        0.0755706156       -2.2657920610
 H          3.5550910033       -2.4478784610       -0.4472043952
 H         -0.9659556943        3.5725575533       -1.5816250346
 H         -0.5629060088        3.0301579184        1.7824229998
  35
        -70.95523742
 N         -0.2200707761       -1.2052895417       -0.2104190864
 N         -1.6334967961       -1.1232686803       -1.9524708515
 N         -3.6723858723       -1.5026472033       -0.6976925305
 N         -3.3499361515       -1.7384966384        1.6499443606
 C         -1.4791880644       -1.3904502598        0.3014288330
 C         -2.3598662908       -1.3446843696       -0.8175990777
 C         -2.0375408769       -1.5893452924        1.5477414627
 C         -0.4022381234       -1.0236122007       -1.5473214410
 C         -4.0818131957       -1.6869885396        0.5431337708
 H         -1.4740447530       -1.6262024402        2.4699438287
 H          0.4023528862       -0.8364170744       -2.2298334799
 H         -5.1469469527       -1.8141521354        0.6762762622
 P         -0.2893259800        2.2842003659       -0.1726047967
 O          1.2135866559        0.3407183789        0.8455918210
 O          3.9761249434       -0.7302427581        1.2917891310
 O          2.6433337707       -2.8191749678        0.4783354779
 O          0.6930264639        1.7259771378       -1.3018803016
 O         -1.0314958052        3.4237209291       -0.9839971068
 O          0.6627225345        3.0341720667        0.8532805718
 O         -1.3047820153        1.3897471625        0.3962383457
 C          3.2882652085       -0.4755560564        0.0992116677
 C          2.3988574731        0.7761760019        0.2006716466
 C          2.2497698162       -1.6111416233       -0.0787623697
 C          0.9704838179       -1.0235274618        0.5838631010
 C          2.0697166972        1.4124931536       -1.1677729494
 H          3.9719775086       -0.4230898200       -0.7529859310
 H          2.8295943626        1.5262683300        0.8683247906
 H          2.0605796747       -1.8022792486       -1.1376194981
 H          0.7792124549       -1.5166515000        1.5451929128
 H          2.2805266210        0.7203505859       -1.9872853374
 H          2.6586307600        2.3226219622       -1.3012073133
 H          4.7656230436       -0.1756257244        1.3590431666
 H          3.2114381211       -2.6350349155        1.2491822613
 H         -0.4897836971        4.0893608191       -1.4264518792
 H          0.2661748466        3.1560749100        1.7219926547
  35
        -70.95521375
 N         -0.2269098059       -1.5843175757       -0.1827535904
 N         -1.8697379319       -1.5977691311       -1.7072449700
 N         -3.7021784240       -1.2084644224       -0.1729069974
 N         -3.0585481467       -1.0681405545        2.1134800014
 C         -1.3920808005       -1.3899075499        0.5106596059
 C         -2.4217279832       -1.3863146696       -0.4785327946
 C         -1.7768768186       -1.2446612795        1.8312008015
 C         -0.5903528014       -1.7008460843       -1.4862749934
 C         -3.9348131516       -1.0469352545        1.1151667018
 H         -1.0881065724       -1.2783539546        2.6632617833
 H          0.1197727025       -1.8873830210       -2.2672329375
 H         -4.9665276904       -0.8889977821        1.3958034317
 P          0.0958043219        2.1278564506       -0.9851878082
 O          1.1598945022       -1.0775470562        1.6427944848
 O          3.9667248463        0.1524777016        0.7641609786
 O          3.1483297914       -1.7247293842       -0.8913733613
 O         -0.1533157575        1.2135175041        0.2852889270
 O          1.0676449398        3.2519419145       -0.4508152368
 O         -1.2960811089        2.8448576954       -1.1915080529
 O          0.5540210615        1.3818340254       -2.1710701468
 C          2.6285929622        0.3027958414        0.4019902397
 C          1.6659902174        0.2548872004        1.6058638848
 C          2.1253464044       -0.8468854897       -0.5177963310
 C          1.1224574318       -1.6257654625        0.3626879581
 C          0.5510474775        1.3030677035        1.5192159360
 H          2.5585256915        1.2655090479       -0.1084427059
 H          2.2044443665        0.4044795799        2.5461912321
 H          1.6172317301       -0.4200189239       -1.3869030726
 H          1.4339336862       -2.6781642789        0.4365068942
 H          0.9787728299        2.2982142870        1.6390845018
 H         -0.1904630386        1.1161886489        2.2994768207
 H          4.1432459167       -0.7776833101        0.9819668617
 H          3.7554674056       -1.2808196895       -1.5023533245
 H          1.2926618384        3.9367571706       -1.0923879759
 H         -1.7041511779        2.6929291284       -2.0498429844
  35
        -70.95521352
 N         -0.5654630342       -2.5053392164        0.3458810393
 N         -1.6099299735       -4.4880280069        0.3475346717
 N         -3.8289474075       -3.6518111982       -0.1567480160
 N         -3.9565153362       -1.2878776176       -0.4079125739
 C         -1.8811425281       -2.2430865471        0.0647516250
 C         -2.5280651067       -3.5166704143        0.0733520713
 C         -2.6624688852       -1.1293501695       -0.1779668341
 C         -0.4839822861       -3.8540420764        0.4998995080
 C         -4.4608722421       -2.5177057666       -0.3886529168
 H         -2.2803355841       -0.1181442860       -0.1828090749
 H          0.4425530174       -4.3461024529        0.7221778863
 H         -5.5210476595       -2.5956068904       -0.5829192919
 P          1.7576807063        3.6444181069        0.1152222983
 O          0.1291440993       -0.4639633092        1.1887872503
 O          2.8991158011        0.1459894090       -0.4507957429
 O          1.6978320962       -1.7868882808       -1.7471150106
 O          0.5324360658        3.1145784176        0.9843538206
 O          1.9585433492        5.0789481900        0.7020238118
 O          1.1187829378        3.7856600009       -1.3338911424
 O          2.9945556777        2.8457597450        0.1478202134
 C          1.5230187177        0.3692884223       -0.5727815457
 C          0.8494567869        0.6968286385        0.7782226356
 C          0.8781133234       -0.9693661987       -0.9869102204
 C          0.5110265070       -1.5640359824        0.3989485746
 C         -0.1144402061        1.8833925561        0.7308688652
 H          1.3213066573        1.1553018044       -1.3086507873
 H          1.6256930538        0.9140044554        1.5248097495
 H         -0.0451116688       -0.8007790601       -1.5515336661
 H          1.3887589680       -2.0768191856        0.8217331431
 H         -0.8483687284        1.7666697580        1.5320692200
 H         -0.6230276650        1.9285708120       -0.2362041706
 H          3.3285334004        1.0011421667       -0.2662839075
 H          2.6241920868       -1.5792462905       -1.5248510512
 H          1.1640516935        5.6168638844        0.8192401697
 H          1.7078479795        4.1171051936       -2.0216966279
  35
        -70.95518871
 N         -0.9417784213       -0.9757461411        0.1940615202
 N         -2.5524463359       -0.8792730335       -1.3568409871
 N         -3.7246615908       -2.8961766550       -0.6914846559
 N         -2.7685078874       -4.0138980136        1.1807153586
 C         -1.7439688777       -2.0670628646        0.4081941116
 C         -2.7598986533       -1.9888844022       -0.5922901743
 C         -1.7957084743       -3.1230381278        1.2983890356
 C         -1.4848957323       -0.3168480912       -0.8658385149
 C         -3.6617715566       -3.8581103901        0.2093638578
 H         -1.0890518458       -3.2759555019        2.1025364706
 H         -1.0848450215        0.6104781686       -1.2283863171
 H         -4.4329009595       -4.6129898754        0.1524218817
 P          0.6194554406        3.3816441494       -0.4008919387
 O          0.7597343791        0.5870977159        0.6255881467
 O          3.5970276005       -1.3864768636       -0.3265020199
 O          2.0353637178       -1.9938702302        1.8642821197
 O          2.0812229846        2.7872594352       -0.7301871310
 O          0.7913627993        4.8929370038       -0.7581537249
 O          0.4994295572        3.4197394016        1.1781437191
 O         -0.4656296830        2.7117591393       -1.1302330194
 C          2.2701922470       -0.9795778888       -0.3487357356
 C          2.0596700521        0.4952011005        0.0386005594
 C          1.3638207931       -1.7211099841        0.6673535670
 C          0.2595662423       -0.6811665787        0.9504798042
 C          2.1693255240        1.4415419818       -1.1485543869
 H          1.9067807182       -1.1564619972       -1.3649442450
 H          2.7925885402        0.7952838950        0.8005969311
 H          0.9323121155       -2.6304716083        0.2362242315
 H          0.0011971447       -0.7087778729        2.0193613712
 H          1.3656920551        1.2327022973       -1.8606776020
 H          3.1443697758        1.3264142505       -1.6249637506
 H          3.9627604203       -1.2559726429        0.5647232802
 H          2.5847641058       -2.7857306339        1.7607667216
 H          1.4863958718        5.3624918626       -0.2790930181
 H          0.1892165619        2.6000412457        1.5733683125
  35
        -70.95517290
 N         -0.3536604307       -1.9747255244       -0.1438161574
 N         -1.8117416028       -1.9627948680       -1.8469713960
 N         -3.8337047490       -1.9266267164       -0.5058275935
 N         -3.4492341345       -1.9200744927        1.8441230290
 C         -1.6070521938       -1.9545932373        0.4177277410
 C         -2.5171907221       -1.9449882206       -0.6786753188
 C         -2.1339622744       -1.9396054655        1.6956143822
 C         -0.5617065954       -1.9704669543       -1.4905331963
 C         -4.2142417070       -1.9147868606        0.7572365987
 H         -1.5323403641       -1.9369259642        2.5933498207
 H          0.2342892417       -1.9876146852       -2.2067545452
 H         -5.2807818155       -1.8995116770        0.9305395262
 P          0.6893372902        2.9945766608       -0.7357245296
 O          0.7986950415       -1.0299259667        1.6677098996
 O          3.1267188580        0.6754904822       -0.3072354505
 O          3.2912074013       -1.9046355056        0.4822680315
 O          0.4335521556        2.5023135197        0.7853020776
 O          2.2423546739        3.2416695175       -0.8434785708
 O          0.1130481810        4.4454921408       -0.7474907312
 O          0.0754838005        2.0990916981       -1.7289349327
 C          1.9228992294       -0.0162972556       -0.1791642519
 C          1.1997607349        0.2461299701        1.1669638655
 C          2.1054249741       -1.5532326039       -0.1670803714
 C          0.8717772002       -1.9809450733        0.6368094043
 C         -0.0028823595        1.1837788109        1.0218894756
 H          1.2754969846        0.2811219661       -1.0095128841
 H          1.8867020927        0.6909328963        1.8959936267
 H          2.1655127212       -1.9840139842       -1.1649735214
 H          0.9846637564       -2.9628975193        1.1121922495
 H         -0.5733612620        1.1999195954        1.9536881577
 H         -0.6495062638        0.8572179481        0.2000739089
 H          3.8557418271        0.0921255847       -0.0198059679
 H          3.2015808655       -1.7765073772        1.4404086802
 H          2.8040281064        2.4474680331       -0.8105124381
 H          0.5539597921        5.0730777130       -0.1592935399
  35
        -70.95516662
 N         -0.9921002169       -0.9717548226        0.1477498665
 N         -2.7957995536       -0.8506176135       -1.1698837461
 N         -3.8412813682       -2.9100575417       -0.4230779089
 N         -2.6044428090       -4.0917323410        1.2356072564
 C         -1.7390956808       -2.0864864297        0.4238202092
 C         -2.8839308975       -1.9885865349       -0.4233764138
 C         -1.6362208955       -3.1879277939        1.2528228500
 C         -1.6768009076       -0.2878932227       -0.8079183588
 C         -3.6355389710       -3.9059172095        0.4175727115
 H         -0.8008125064       -3.3684871038        1.9156527610
 H         -1.3186222515        0.6440729015       -1.2028382160
 H         -4.3993320080       -4.6701972674        0.4419046077
 P          0.6223627376        3.3661225630       -0.5338372721
 O          0.7059080080        0.5968898027        0.3096049002
 O          3.7387416244       -1.1139040012        0.4862595313
 O          1.7491467127       -2.4601673089        1.4998048248
 O          2.1433749388        2.8927434248       -0.6621073579
 O          0.7480661185        4.9034805602       -0.8557540225
 O          0.3437669663        3.2920499888        1.0268486921
 O         -0.3438363650        2.6856836337       -1.4057181222
 C          2.5390049199       -0.8519869444       -0.1778959349
 C          2.1098458717        0.5978621674        0.1130870292
 C          1.3707949859       -1.7094876906        0.3921454376
 C          0.2779158506       -0.6595806816        0.7552963645
 C          2.4259825984        1.5568068872       -1.0262849472
 H          2.6237309930       -1.0020509730       -1.2574541308
 H          2.6093988196        0.9421449193        1.0300806003
 H          0.9757936802       -2.3983437138       -0.3626686871
 H          0.1415388792       -0.6646010088        1.8507678109
 H          1.8177129090        1.2862018271       -1.8946790828
 H          3.4901845568        1.5309559809       -1.2647040869
 H          4.2303390330       -1.8231537055        0.0459699293
 H          2.6082667074       -2.1212899161        1.8221098926
 H          1.4199651475        5.3873198745       -0.3584405255
 H         -0.5876587352        3.2877775562        1.2651157257
  35
        -70.95512469
 N         -1.0113163525       -1.0712224421        0.4790112418
 N         -2.9695865863       -0.5792288529       -0.4888393499
 N         -3.9350755965       -2.8000977348       -0.3414565709
 N         -2.5096857463       -4.4232271114        0.6634505465
 C         -1.7310049261       -2.2367447004        0.4615651954
 C         -2.9742017851       -1.9013457919       -0.1550368614
 C         -1.5352889219       -3.5474644327        0.8561584208
 C         -1.8070333359       -0.1352753144       -0.0997025586
 C         -3.6359465296       -4.0098976510        0.0903661410
 H         -0.6212819343       -3.9118499026        1.3045773226
 H         -1.4897313517        0.8815415266       -0.2226505831
 H         -4.3996650839       -4.7629152138       -0.0434019359
 P          1.0951353184        3.6184059089       -0.6541569855
 O          0.7207762700        0.4190390027        1.0134488568
 O          3.4409958931       -0.8773231941        0.9336318771
 O          1.7900776143       -2.8884897657        0.8054517170
 O          0.3394967762        2.2531452139       -1.0820418603
 O          1.0353064020        3.7229483292        0.9082752487
 O          0.0733713446        4.7172640326       -1.1243479531
 O          2.4640390320        3.6755944742       -1.1875021148
 C          2.4876946973       -0.6977670163       -0.0759393633
 C          1.7402938406        0.6391503572        0.0444221062
 C          1.3629701594       -1.7304551171        0.1749354282
 C          0.3288732263       -0.9190761145        1.0157339120
 C          1.1602367518        1.1207992954       -1.2878032982
 H          2.9282611111       -0.8228853445       -1.0697012291
 H          2.3673988087        1.4400198671        0.4481864259
 H          0.8990467912       -2.0280158188       -0.7716543761
 H          0.3141128707       -1.2840547592        2.0525642393
 H          0.5213869085        0.3664387710       -1.7507241556
 H          1.9849119690        1.3877134452       -1.9540507444
 H          4.2344103373       -0.3540919011        0.7556126153
 H          2.5663705273       -2.6709027167        1.3538809840
 H          0.1718971712        3.9290207886        1.2866353018
 H          0.0272945451        4.8827721747       -2.0724448965
  35
        -70.95510469
 N         -1.6624775633       -1.3911501571       -0.1912029765
 N         -2.9726885273       -2.0809616006       -1.8723383644
 N         -3.9606618899       -3.9695463339       -0.7174006228
 N         -3.1831348422       -4.2746681919        1.5121940666
 C         -2.3277242220       -2.4935468784        0.2741873753
 C         -3.1578497532       -2.9156043378       -0.8092440845
 C         -2.3721664095       -3.2307725896        1.4427308699
 C         -2.0898091869       -1.2128021819       -1.4694033224
 C         -3.9207658834       -4.5820243696        0.4499119955
 H         -1.7774525350       -3.0154213716        2.3192064444
 H         -1.7351695419       -0.4008178757       -2.0723793426
 H         -4.5656673473       -5.4425044892        0.5573567765
 P          2.6381667237        3.4763850838       -0.1714045633
 O         -0.7305835158        0.7069150974        0.0787970669
 O          2.0317879874        0.2199402847        1.6960574054
 O          1.2036362555       -2.1610196844        0.9885432341
 O          2.0185165782        2.6366207168       -1.4008296804
 O          1.5533244395        4.5186429659        0.2707424102
 O          3.7250633627        4.3221538544       -0.9196450356
 O          3.1278386951        2.6446499216        0.9416040009
 C          1.5912784740        0.1863436982        0.3671329967
 C          0.5684188566        1.2928303896        0.0477672674
 C          0.7834060208       -1.1136660184        0.1839261605
 C         -0.6592371948       -0.6305937898        0.4994207044
 C          0.7908763163        1.9389362691       -1.3189657393
 H          2.4421331347        0.2359625814       -0.3215410511
 H          0.6150082254        2.0729245654        0.8190447609
 H          0.8183360265       -1.4523691076       -0.8577134428
 H         -0.8481919397       -0.7200705765        1.5804129145
 H         -0.0420508240        2.6193459302       -1.5164708519
 H          0.8276450941        1.1753102669       -2.1005541264
 H          2.5922998701        1.0093280579        1.8050761412
 H          1.6544600933       -1.7809578898        1.7652265176
 H          1.4537730771        5.2944845773       -0.2967519691
 H          4.5608600257        3.8766134458       -1.0948729905
  35
        -70.95509392
 N         -0.2058199063       -1.5202702855       -0.1762309440
 N         -1.8449769011       -1.4483009596       -1.7031499045
 N         -3.6660496093       -1.0110930037       -0.1670246417
 N         -3.0213852342       -0.9248148491        2.1220205501
 C         -1.3665551198       -1.2900616365        0.5169601571
 C         -2.3920399731       -1.2304634593       -0.4731524800
 C         -1.7465291425       -1.1438737859        1.8384482920
 C         -0.5712755079       -1.6067108482       -1.4813218787
 C         -3.8944753333       -0.8595182447        1.1230192000
 H         -1.0591446362       -1.2064109702        2.6699356614
 H          0.1277077181       -1.8163750998       -2.2658795041
 H         -4.9206502529       -0.6699522192        1.4046068840
 P         -0.0086625773        1.9522183900       -0.9947839695
 O          1.1839387574       -1.0174691433        1.6462293679
 O          3.9590983301        0.2959436210        0.6524315752
 O          3.3142625447       -1.8739161732       -0.6518586787
 O         -0.2249723195        1.2766635104        0.4209000949
 O          0.8633130448        3.2277273882       -0.6506601414
 O         -1.4651815113        2.4717433667       -1.2942583381
 O          0.5434099566        1.0874305900       -2.0552909996
 C          2.6138968024        0.2919904121        0.2685942908
 C          1.7383101909        0.2888315332        1.5313641646
 C          2.2307724431       -1.0163770704       -0.4834364275
 C          1.1255747329       -1.6471828655        0.4037349034
 C          0.6635329303        1.3811572478        1.5277530826
 H          2.3760606103        1.1593841808       -0.3529716768
 H          2.3675362839        0.4340936557        2.4160307765
 H          1.8450781916       -0.7784018068       -1.4749384280
 H          1.3278634845       -2.7159489009        0.5647550294
 H          1.1424283218        2.3612178279        1.5331316646
 H          0.0304903824        1.2679943308        2.4106243495
 H          4.5239240990        0.4886085011       -0.1112265918
 H          3.8930520370       -1.8080886657        0.1296390437
 H          1.1256925401        3.7679163800       -1.4058995297
 H         -1.7796765690        2.2950678779       -2.1869996317
  35
        -70.95506762
 N         -0.1043852725       -1.3519423975        0.9935436984
 N         -2.1601644212       -1.5067334440        1.8857895245
 N         -3.4071321422       -1.1659040259       -0.1522457453
 N         -2.0741596443       -0.8785798325       -2.0962411451
 C         -0.9874902029       -1.1691229393       -0.0443580592
 C         -2.2858037634       -1.2743903586        0.5475250523
 C         -0.9451757299       -0.9778944290       -1.4132289550
 C         -0.8799862648       -1.5273325226        2.0999999428
 C         -3.2255012866       -0.9594536408       -1.4411508239
 H         -0.0381147515       -0.9039226875       -1.9940173087
 H         -0.4486578805       -1.6848736832        3.0692489447
 H         -4.1197429020       -0.8579133567       -2.0392647999
 P         -0.7025736226        2.2686415977        0.0344461984
 O          1.7156967326        0.1250355323        1.1865954024
 O          3.9816038447       -0.7198656225       -1.2211260936
 O          3.0866515169       -2.6907246672        0.2287023485
 O          0.4090066396        1.5112929100       -0.8252520928
 O         -0.9315090410        1.4205868752        1.3446379286
 O         -1.9916653014        1.9962567145       -0.8250828359
 O         -0.3816841494        3.6835855776        0.2996648192
 C          2.6230439928       -0.5793056969       -0.9222274559
 C          2.4594420577        0.5888225229        0.0702401079
 C          2.0704989091       -1.8217957816       -0.1670573930
 C          1.3346729820       -1.2239397372        1.0540324566
 C          1.7732747569        1.8078455132       -0.5502723289
 H          2.0314921561       -0.3811917275       -1.8201774988
 H          3.4547467071        0.8913351723        0.4215548051
 H          1.3708205210       -2.4017916746       -0.7757963588
 H          1.6474146656       -1.7526388189        1.9650775568
 H          2.2541752139        2.0639477927       -1.4964865875
 H          1.8228475003        2.6608479192        0.1294973724
 H          4.1027570533       -1.2283999637       -2.0372537528
 H          3.9368003752       -2.2116022018        0.2049794134
 H         -1.1060132311        1.9932455353        2.1006848989
 H         -2.2247934410        2.7302080223       -1.4057696566
  35
        -70.95505335
 N         -0.3311041276       -1.4901674124        0.8751422313
 N         -2.3719085666       -1.8484330031        1.7405512550
 N         -3.6098917372       -1.6973616047       -0.3279215526
 N         -2.2843281855       -1.2542230521       -2.2495213595
 C         -1.2087381744       -1.4332477374       -0.1798869437
 C         -2.4967665713       -1.6695124991        0.3927204618
 C         -1.1640779851       -1.2248253543       -1.5456268376
 C         -1.1021954694       -1.7196446001        1.9757746173
 C         -3.4285775280       -1.4804145817       -1.6154186612
 H         -0.2619773477       -1.0224183547       -2.1050866981
 H         -0.6735828321       -1.8005146197        2.9558176533
 H         -4.3168316842       -1.4898969999       -2.2310544313
 P         -0.3268168857        2.3662366466        0.2177196578
 O          1.2782813619        0.1999921451        1.0322849933
 O          3.6444888575       -0.6498551716       -1.5102358481
 O          2.9522869269       -2.4842697893        0.2302484962
 O          0.9873448397        2.2725838917       -0.6813200049
 O         -0.9366428867        3.7492793022       -0.2775981445
 O          0.2081678636        2.7094403772        1.6557718618
 O         -1.2943797150        1.2636082205        0.0750417295
 C          2.3963512897       -0.4146581395       -0.9350982280
 C          2.4100760460        0.5634504076        0.2571271713
 C          1.8965589599       -1.7127943662       -0.2637626323
 C          1.0728620351       -1.2017404409        0.9365024096
 C          2.2651913948        2.0337541490       -0.1164655054
 H          1.6572223107       -0.0634710718       -1.6651175795
 H          3.3308101890        0.4106802563        0.8385119530
 H          1.2776667103       -2.3154884237       -0.9406341315
 H          1.4612662514       -1.6835590474        1.8471228193
 H          2.9902813565        2.3179367889       -0.8795838449
 H          2.3927886124        2.6479489076        0.7755895000
 H          3.8884550680        0.0631231726       -2.1154692801
 H          3.6891236952       -2.4394807962       -0.4042736873
 H         -1.6503001163        3.6677491195       -0.9165626953
 H         -0.4727687440        2.7486381662        2.3358487357
  35
        -70.95502676
 N         -0.2848948671       -1.6115308716       -0.1687160206
 N         -1.8799841715       -1.6593682457       -1.7418844796
 N         -3.7662468144       -1.3112470748       -0.2631865635
 N         -3.1931779767       -1.1456137452        2.0401065568
 C         -1.4735118584       -1.4391078083        0.4889488339
 C         -2.4732903756       -1.4615279018       -0.5306034944
 C         -1.9000364968       -1.2927281464        1.7969845393
 C         -0.6059318026       -1.7395545215       -1.4820795776
 C         -4.0409105877       -1.1526160266        1.0166209896
 H         -1.2350056415       -1.3008104752        2.6487841196
 H          0.1320214876       -1.9186566533       -2.2387856627
 H         -5.0837578417       -1.0199370531        1.2676871772
 P          0.3053053030        2.3823089250       -0.9246786110
 O          1.0343946882       -1.0814054310        1.6944667817
 O          3.9000668582       -0.0210691893        0.9625460081
 O          3.0794719472       -1.7912029745       -0.8204359668
 O         -0.1023839061        1.2524273581        0.1355515649
 O         -1.0061991769        3.1998610228       -1.2275453798
 O          0.5826880062        1.4767438590       -2.1930242899
 O          1.4053944467        3.2524745436       -0.4929377313
 C          2.6021590619        0.2276458725        0.5157830852
 C          1.5556660389        0.2436900852        1.6441721868
 C          2.0833585171       -0.8921379860       -0.4314420274
 C          1.0429921966       -1.6535233147        0.4222919017
 C          0.4717010842        1.3068964773        1.4356262728
 H          2.6403967579        1.1960450570        0.0131365405
 H          2.0193957699        0.4274600653        2.6170779366
 H          1.5956486894       -0.4384507249       -1.3007201431
 H          1.3453175563       -2.7060512883        0.5253540606
 H          0.9186170090        2.2919589344        1.5901469683
 H         -0.3420603329        1.1447701490        2.1461065480
 H          3.9461476745       -0.8954747738        1.3812932532
 H          3.8405094316       -1.3025866412       -1.1709361411
 H         -1.7893680032        2.7195036167       -1.5207145167
 H          0.8800911372        1.9573048382       -2.9759896318
  35
        -70.95501061
 N         -0.1950527110       -1.2098905539       -0.1181536729
 N         -1.4360082417       -1.1734758800       -1.9875154347
 N         -3.5960503098       -1.3987101997       -0.9098108364
 N         -3.4984610101       -1.5516292801        1.4644937288
 C         -1.5013494741       -1.3200044076        0.2837880713
 C         -2.2722860704       -1.2987082110       -0.9138020184
 C         -2.1782730159       -1.4522189344        1.4798122181
 C         -0.2435524696       -1.1047719515       -1.4753796651
 C         -4.1243762757       -1.5136090339        0.2936247777
 H         -1.7012764007       -1.4746893638        2.4497385525
 H          0.6378493754       -1.0051609655       -2.0770777048
 H         -5.2016541782       -1.5927956034        0.3327329313
 P         -0.3582962964        2.2349082560       -0.0106486267
 O          1.3136714654        0.3131059736        0.8883984553
 O          4.4083280914       -0.7693864552        0.1267378042
 O          2.7800121784       -2.4392861075        1.3294487889
 O          0.5109390364        1.6004746004       -1.1939355592
 O         -1.1916558887        3.3380590252       -0.7846467423
 O          0.6956101663        3.0283008912        0.8694530382
 O         -1.2949428807        1.3583447031        0.7011939650
 C          3.1034890828       -0.6829859526       -0.3506935073
 C          2.4081019469        0.6449452281        0.0465243883
 C          2.1835452762       -1.7977940907        0.2385447991
 C          0.9466560988       -1.0345608232        0.7485646570
 C          1.9258869825        1.5149777890       -1.1430543809
 H          3.1810171884       -0.7767956744       -1.4357766048
 H          3.0927110082        1.2408423455        0.6587628414
 H          1.8866723009       -2.5212910878       -0.5273979824
 H          0.6562617934       -1.3925949393        1.7424061926
 H          2.2165933946        1.0845690700       -2.1030886833
 H          2.3469154934        2.5170674556       -1.0507381528
 H          4.3900540490       -0.8834325413        1.0925754853
 H          3.4465528902       -3.0713120712        1.0174644215
 H         -0.7068470189        3.9862579413       -1.3106366305
 H          0.4290508596        3.1326197708        1.7885887310
  35
        -70.95498714
 N         -0.3746519975       -1.9384067168       -0.2224412685
 N         -1.9250016039       -2.3919743474       -1.7768174271
 N         -3.8618375998       -2.1419440756       -0.3443297689
 N         -3.3514156169       -1.6273569382        1.9221183822
 C         -1.5858710739       -1.8590443609        0.4138427439
 C         -2.5577893966       -2.1387988772       -0.5957101920
 C         -2.0473918145       -1.6180940594        1.6959198287
 C         -0.6566772696       -2.2665829772       -1.5119727165
 C         -4.1746811885       -1.8765000272        0.9087254380
 H         -1.3981913552       -1.4293538670        2.5386003089
 H          0.1139575636       -2.4249484903       -2.2404670468
 H         -5.2295269471       -1.8669646089        1.1435216492
 P          0.6357046618        2.9691067292       -0.7023075863
 O          0.8851813542       -1.0962298854        1.5780871701
 O          3.6350217396        0.0287969653        0.8195842902
 O          2.8813184060       -1.7354568290       -1.0640778312
 O          0.4033568958        2.4698198640        0.8191332900
 O          2.1027944472        3.5080964544       -0.7438523895
 O         -0.2203918777        4.2880949609       -0.7942091728
 O          0.3457692952        1.9154633784       -1.6866756591
 C          2.3487381141        0.2403791064        0.3244197891
 C          1.2716875403        0.2662315916        1.4205362975
 C          1.8576373461       -0.9152822722       -0.5890020642
 C          0.9512898541       -1.7523650879        0.3458430103
 C          0.0539034149        1.1237417900        1.0451646640
 H          2.3927565940        1.1815851265       -0.2236738321
 H          1.6835684880        0.5976152717        2.3769136027
 H          1.2657120176       -0.4862082500       -1.4092949895
 H          1.3987247904       -2.7438714192        0.5073822084
 H         -0.6686681413        1.1111766182        1.8645283682
 H         -0.4086334364        0.7151317071        0.1418628142
 H          3.6867744941       -0.8344762309        1.2587244977
 H          3.5370716790       -1.2044829748       -1.5406704275
 H          2.2816265906        4.2925116677       -0.2080885371
 H         -1.1646036094        4.1889277864       -0.9574436352
  35
        -70.95497351
 N         -0.1752314618       -1.5507693272       -0.1657011354
 N         -1.8111195808       -1.5743929478       -1.6977549297
 N         -3.6204380535       -0.9552032876       -0.2109660972
 N         -2.9787623073       -0.7026625545        2.0664871953
 C         -1.3301773639       -1.2363439018        0.5023142285
 C         -2.3526317046       -1.2353114900       -0.4926474655
 C         -1.7107280279       -0.9800890187        1.8072323485
 C         -0.5421678332       -1.7435212887       -1.4591978553
 C         -3.8465605547       -0.6892612126        1.0606306189
 H         -1.0278277017       -1.0003735212        2.6442658593
 H          0.1548113759       -2.0371658634       -2.2184051096
 H         -4.8666942863       -0.4443370140        1.3205630049
 P         -0.1088404756        1.8930202109       -0.9277688828
 O          1.2257780877       -0.9872991259        1.6305549144
 O          3.9960433779        0.3269765348        0.5129307909
 O          3.3416718935       -1.9151770973       -0.6480288687
 O         -0.2335158649        1.3254912909        0.5593856362
 O          0.7297069136        3.2303409038       -0.8074818614
 O         -1.6070981991        2.3122973154       -1.1675558831
 O          0.4470205786        0.9678900760       -1.9261329476
 C          2.6359736174        0.2833149873        0.1848955840
 C          1.8170926890        0.2993362593        1.4859163699
 C          2.2549022729       -1.0561044230       -0.5097596861
 C          1.1593891844       -1.6565802905        0.4102200978
 C          0.7857395814        1.4314411215        1.5446821010
 H          2.3532068157        1.1250782651       -0.4540819229
 H          2.4971911449        0.4246892377        2.3366542477
 H          1.8569431063       -0.8612913368       -1.5062561972
 H          1.3658487065       -2.7196726696        0.6021431531
 H          1.3165525695        2.3809943368        1.4461039077
 H          0.2565579208        1.3907315887        2.4991107391
 H          4.5232327011        0.5439843219       -0.2703981379
 H          3.9622369538       -1.7567145064        0.0875702951
 H          0.2378260807        4.0113570532       -0.5203293737
 H         -1.9153647209        2.1804269611       -2.0702110718
  35
        -70.95490982
 N         -0.4545036455       -2.5508393263        0.2030330015
 N         -1.5227717077       -4.5104538131       -0.0004051178
 N         -3.7582805682       -3.6040968584       -0.2375873827
 N         -3.8708376295       -1.2275430772       -0.1540107815
 C         -1.7817517678       -2.2466937429        0.0461862499
 C         -2.4434887823       -3.5068783345       -0.0777821491
 C         -2.5626439082       -1.1070260924        0.0092171014
 C         -0.3811050056       -3.9081056915        0.1631842598
 C         -4.3888707050       -2.4464427601       -0.2700022422
 H         -2.1683339580       -0.1058697941        0.1141058966
 H          0.5510575846       -4.4302976660        0.2546604733
 H         -5.4603269761       -2.4918596882       -0.4031251568
 P          1.3889001066        3.6948711640        0.0241296603
 O          0.3285276021       -0.6447442122        1.2643937301
 O          2.9966723510        0.1713783458       -0.4266745131
 O          1.7151208613       -1.5925612781       -1.8958482423
 O          0.7052370856        2.9550128425        1.2841968975
 O          2.8940195856        3.2325071104        0.0148221066
 O          1.4806341159        5.1799305321        0.5214410364
 O          0.6820450992        3.4387462242       -1.2398508225
 C          1.6131194481        0.4089961954       -0.4669301781
 C          1.0083730631        0.5687785626        0.9454654014
 C          0.9392001706       -0.8724413108       -1.0026578539
 C          0.6396983868       -1.6342759794        0.3150169027
 C          0.0268697065        1.7368935414        1.0724930431
 H          1.3785344970        1.2679892669       -1.0976155593
 H          1.8183696637        0.7113983942        1.6738662638
 H         -0.0090515423       -0.6326498742       -1.4951064077
 H          1.5286831255       -2.2100765471        0.6162369968
 H         -0.6045961081        1.5766122396        1.9486387051
 H         -0.5880861245        1.8126432527        0.1706236591
 H          3.4766913369        1.0085089850       -0.4978271168
 H          2.6535551127       -1.4178297292       -1.6922147038
 H          3.4510293753        3.7030621289        0.6499609654
 H          0.6699473969        5.6986960300        0.4734416376
  35
        -70.95490646
 N         -0.4200142883       -2.6349360368        0.2067058156
 N         -1.6699883537       -4.4944245696        0.2048588884
 N         -3.7942644944       -3.4212891878       -0.2559193338
 N         -3.6723478597       -1.0548725692       -0.4817602554
 C         -1.7065207778       -2.2290421482       -0.0434974079
 C         -2.4840831856       -3.4267190743       -0.0417015152
 C         -2.3658129721       -1.0353620549       -0.2715916110
 C         -0.4820937062       -3.9871418689        0.3507913018
 C         -4.3054652517       -2.2235190227       -0.4637643574
 H         -1.8795986975       -0.0690099193       -0.2861917458
 H          0.3891984776       -4.5778793114        0.5557752196
 H         -5.3705909535       -2.1843435252       -0.6417362491
 P          1.1695450963        3.6521750589        0.0995749485
 O          0.4785489549       -0.8031212740        1.2826744440
 O          2.5733246994        0.8871821989       -1.0203085698
 O          2.2840542955       -1.6716667970       -1.5000062779
 O          1.3563501957        2.7202453464        1.4098520464
 O          2.5686637052        3.6276124086       -0.6249816794
 O          1.1124150918        5.1032319727        0.6788555191
 O         -0.0117882798        3.2881278256       -0.6973721306
 C          1.3469673280        0.3919549109       -0.5765135888
 C          1.2376793773        0.3496897990        0.9648959339
 C          1.1153287656       -1.0876665500       -1.0031071706
 C          0.7370091654       -1.7985875020        0.3202587465
 C          0.5519875912        1.5738288303        1.5682406139
 H          0.5716722140        1.0418910235       -0.9886890696
 H          2.2486233367        0.2631431250        1.3919298047
 H          0.2876972370       -1.1643892361       -1.7140049984
 H          1.5843669387       -2.4336841288        0.6240134336
 H          0.4108986945        1.4235729017        2.6401952618
 H         -0.4177857155        1.7277291730        1.0866187413
 H          3.2287731571        0.1634859740       -0.9873359679
 H          2.3617466428       -1.5227295400       -2.4540999162
 H          2.7992829535        2.7651643095       -1.0094510087
 H          1.9020623464        5.3914646024        1.1550888404
  35
        -70.95489287
 N         -0.4049290828       -1.7043272264        0.8529626319
 N         -2.2361315083       -1.5494638420        2.1344096486
 N         -3.8432136299       -2.1566937285        0.4241264042
 N         -2.8807430311       -2.6511162555       -1.6977136462
 C         -1.4630909748       -2.0236740728        0.0435342901
 C         -2.6176948566       -1.9147941240        0.8769474810
 C         -1.6501330201       -2.4141595041       -1.2706835960
 C         -0.9391326313       -1.4407165056        2.0729535545
 C         -3.8914840808       -2.5070298052       -0.8462012750
 H         -0.8457465848       -2.5401412128       -1.9825296476
 H         -0.3215224633       -1.1736171335        2.9073145663
 H         -4.8755172399       -2.7085007339       -1.2452616584
 P          0.4336916538        3.0363171153       -0.3718615656
 O          1.7499410500       -1.0211426190        1.4683741306
 O          3.5191374908       -0.3896831656       -0.8465709636
 O          1.5065426038       -1.6562101920       -1.9329199517
 O          1.2960724094        2.5845592282        0.9020376901
 O          1.5907312658        3.3906623275       -1.3941547983
 O         -0.2242048859        4.4010806756        0.0475737342
 O         -0.5424562112        2.0359525902       -0.8261870098
 C          2.2871969274        0.1690692444       -0.4805340782
 C          2.1268914721        0.2846516883        1.0419007869
 C          1.1866895375       -0.8497140777       -0.8502666682
 C          0.9965810078       -1.6496812822        0.4738562219
 C          1.0559208957        1.3066207955        1.4559172937
 H          2.1163939712        1.1240022847       -0.9795415721
 H          3.0762456186        0.5074410336        1.5343586911
 H          0.2614128144       -0.3160341977       -1.0915244902
 H          1.3625462256       -2.6794440390        0.3559685381
 H          1.0589477760        1.4200760003        2.5419185948
 H          0.0739022813        0.9528989244        1.1290126298
 H          4.2111825603        0.2858651082       -0.8566847414
 H          2.4771669188       -1.7489278932       -1.9674615441
 H          1.3141536898        3.7661062432       -2.2386340366
 H          0.3526684641        5.0389596217        0.4895859225
  35
        -70.95485589
 N         -0.9025544394       -1.0750071262        0.9003948228
 N         -2.8110707432       -0.0671393404        0.3040673558
 N         -4.1338803372       -2.0824939749        0.0326367989
 N         -2.9475125255       -4.1008997041        0.4699516195
 C         -1.8125699109       -2.0768959348        0.6922007269
 C         -3.0207324902       -1.4148543579        0.3148328043
 C         -1.8253187091       -3.4578766145        0.7534743706
 C         -1.5636974924        0.0856539459        0.6474602628
 C         -4.0208607274       -3.3929750178        0.1323615971
 H         -0.9666360065       -4.0599843213        1.0175290766
 H         -1.0847074987        1.0406828496        0.7385014797
 H         -4.9100654705       -3.9652313974       -0.0902950485
 P          1.0653564229        2.8807400521       -1.2204885108
 O          0.9722218743       -0.0707083215        1.8494112448
 O          3.0569075241       -0.2264186361       -1.0584373324
 O          2.4005139137       -2.4097737020        0.4206827270
 O          0.8283220023        2.5196693100        0.3201512170
 O          0.7616690451        4.4193169359       -1.3449272730
 O         -0.1559423362        2.1219720864       -1.8827205402
 O          2.3993751780        2.5245030881       -1.7283405886
 C          1.8685372943       -0.1500279480       -0.3344233467
 C          2.0127623586        0.4993833321        1.0538835335
 C          1.3653992188       -1.5551324361        0.0402426436
 C          0.4873109013       -1.2481527632        1.2702774646
 C          1.9226886796        2.0218316677        1.0750542578
 H          1.0795816702        0.3577876364       -0.8996448152
 H          2.9813937106        0.2064308170        1.4828308202
 H          0.7705857025       -2.0048137618       -0.7676897478
 H          0.5493712868       -2.0711618571        1.9947931029
 H          2.8553196175        2.4330322334        0.6830576863
 H          1.7573934608        2.3521891486        2.1016355332
 H          3.2140995429        0.6299114913       -1.4908069796
 H          3.1476804559       -2.2714593284       -0.1856323297
 H         -0.0399568181        4.7402022962       -0.9107540161
 H         -0.3371007965        2.3256227780       -2.8075603641
  35
        -70.95485408
 N         -0.5604042420       -2.3463650409       -0.0447252647
 N         -1.6826419994       -3.8068194703       -1.3222049839
 N         -3.9106340635       -3.0622178008       -0.7316769157
 N         -3.9702026104       -1.2770801246        0.8410329157
 C         -1.8890445026       -2.0857194261        0.1604739021
 C         -2.5846910925       -3.0218902621       -0.6665157380
 C         -2.6505153238       -1.2191642707        0.9244074145
 C         -0.5171338044       -3.3794164093       -0.9290110562
 C         -4.5202728711       -2.1747163169        0.0292152175
 H         -2.2246427680       -0.4926667338        1.6007909936
 H          0.4136359117       -3.7964580566       -1.2618431435
 H         -5.6003783678       -2.1805438380       -0.0056404153
 P          1.4104390930        3.5228477817        0.0416859333
 O          0.2160380802       -0.5394897394        1.2246699410
 O          3.2016043643        0.1093836651        0.5388536704
 O          2.6928464187       -2.1554023779       -0.6661456366
 O          0.4080993763        2.5634933932       -0.7529834182
 O          0.5261399041        4.0039870687        1.2672373821
 O          1.5492099929        4.7128598064       -0.9635463975
 O          2.7151822812        2.9569193618        0.4207012845
 C          2.0035751962        0.1560406247       -0.1835440785
 C          0.8153159313        0.6245850646        0.6702544410
 C          1.6159961864       -1.2874342717       -0.5710365722
 C          0.5991582541       -1.6931882976        0.5355722427
 C         -0.1951294531        1.4394358524       -0.1408174530
 H          2.1141754970        0.7876013458       -1.0711869100
 H          1.1647398585        1.2302599413        1.5117623087
 H          1.1025812335       -1.2913320853       -1.5393824805
 H          1.0703732929       -2.3940985233        1.2412911501
 H         -1.0041031272        1.7688063656        0.5165145438
 H         -0.6091161211        0.8408815499       -0.9567084265
 H          3.5164130801        1.0196208177        0.6631576727
 H          3.4134610175       -1.8120408584       -0.1065317487
 H          0.9999789575        4.4553502655        1.9751569196
 H          0.7304183480        5.1004088536       -1.3002405973
  35
        -70.95478786
 N         -0.2428404764       -1.2130964719       -0.0790658047
 N         -1.4973344537       -1.1673057747       -1.9396516976
 N         -3.6377126559       -1.5264261212       -0.8604836149
 N         -3.5219979864       -1.7218836512        1.5098357578
 C         -1.5406259847       -1.3922053091        0.3250150092
 C         -2.3200209346       -1.3681692494       -0.8680951763
 C         -2.2057379256       -1.5729876420        1.5208173590
 C         -0.3065416453       -1.0596469106       -1.4300527505
 C         -4.1545546134       -1.6897401508        0.3426867335
 H         -1.7237558449       -1.5970570523        2.4885896958
 H          0.5599834095       -0.8820733004       -2.0343657794
 H         -5.2272213592       -1.8157861542        0.3847106203
 P         -0.3160068696        2.2954913966       -0.1132559141
 O          1.2627824577        0.3021396887        0.9402280303
 O          4.3095716529       -0.9491500721       -0.2471496984
 O          2.8222541157       -2.3251174209        1.3829215403
 O          0.8284161512        1.8044098184       -1.1241848327
 O         -1.0140361399        3.4340252193       -0.9618040756
 O          0.4697568002        3.0440950358        1.0431499907
 O         -1.3325032904        1.3274740850        0.3122502417
 C          2.9490546320       -0.6988600062       -0.4383664550
 C          2.4640923836        0.6057639765        0.2379852714
 C          2.1397235133       -1.7987499102        0.2852090864
 C          0.8960716942       -1.0479596036        0.7923348245
 C          2.1925431785        1.7734095230       -0.7324445880
 H          2.6904974096       -0.6946028485       -1.5029610195
 H          3.2087891239        0.9125246580        0.9833336080
 H          1.8514607271       -2.6071650285       -0.4012793273
 H          0.6037142774       -1.4232121366        1.7793113754
 H          2.7554126575        1.6606773707       -1.6603181225
 H          2.4524587194        2.7147301547       -0.2469856359
 H          4.8514144827       -0.4254792583       -0.8531356958
 H          3.7769127269       -2.2992395552        1.1899586679
 H         -0.4619243747        4.1473660831       -1.3061839112
 H          0.0810269672        2.9203929652        1.9145164613
  35
        -70.95478334
 N         -0.4616641597       -1.6596875914        0.8811484888
 N         -2.3175469482       -1.4072560400        2.1098056699
 N         -3.8891701748       -2.1613336255        0.4240525476
 N         -2.8815773629       -2.8388843756       -1.6247676320
 C         -1.5029017275       -2.0516159800        0.0821661899
 C         -2.6742919973       -1.8763441192        0.8796516036
 C         -1.6610518671       -2.5616744927       -1.1936147937
 C         -1.0201550593       -1.2994344384        2.0653910420
 C         -3.9106345112       -2.6212079559       -0.8116989431
 H         -0.8404643932       -2.7593650730       -1.8695547176
 H         -0.4205190486       -0.9674584454        2.8893236154
 H         -4.8858202003       -2.8585352852       -1.2125660473
 P          0.5287261176        3.0674707059       -0.4484585928
 O          1.7038961129       -0.9963117448        1.4968533839
 O          3.5305669046       -0.2233942842       -0.8493677872
 O          1.6019697262       -1.8440979686       -1.7765900097
 O          1.2764901577        2.6117928134        0.9120075388
 O          1.6914209574        3.4487624665       -1.4391189644
 O         -0.2016960267        4.4054850944       -0.0611191310
 O         -0.3701073592        2.0482583346       -0.9978106753
 C          2.2420571627        0.1570590506       -0.4754988602
 C          2.0699094061        0.3054376651        1.0441184876
 C          1.1764119341       -0.9139437722       -0.8264757094
 C          0.9446231775       -1.6440690043        0.5191527329
 C          0.9926326073        1.3308505581        1.4305732721
 H          2.0422544000        1.0895828539       -1.0022055434
 H          3.0170774850        0.5578618481        1.5277692565
 H          0.2547361837       -0.4064517498       -1.1460119056
 H          1.2892115604       -2.6855915220        0.4393730363
 H          0.9509439277        1.4263707720        2.5176084845
 H          0.0222671775        0.9976983249        1.0525676248
 H          3.7580524623       -1.0752578160       -0.4453087235
 H          1.9852541941       -1.3835004223       -2.5390462412
 H          2.3625985857        4.0781034945       -1.1436769599
 H          0.2153289720        4.9788855725        0.5958968231
  35
        -70.95478222
 N         -0.8672299512       -1.3947852441        0.0545189034
 N         -2.6899698004       -0.8702746395       -1.1436748966
 N         -4.2116984391       -2.4216377595       -0.0664470551
 N         -3.2249524866       -3.7097021433        1.6756666468
 C         -1.8858201607       -2.1824552860        0.5301638152
 C         -3.0305707871       -1.8420541979       -0.2476370894
 C         -2.0394320952       -3.1433475096        1.5120483385
 C         -1.4271896791       -0.6363311153       -0.9309177241
 C         -4.2277085995       -3.3289848034        0.8910580169
 H         -1.2482948059       -3.4668941216        2.1740138280
 H         -0.8796901917        0.0908438616       -1.5005006378
 H         -5.1738749072       -3.8220654571        1.0625333452
 P          1.2574683795        3.0072597300       -1.1280610871
 O          0.5082460781       -0.5090580538        1.7425218108
 O          3.4559559386       -0.3646440796        0.9812983678
 O          2.3966301715       -1.9921738807       -0.7271102385
 O          1.0902576402        2.8868795481        0.4764650521
 O          2.8003807675        3.1409428283       -1.3509982416
 O          0.7318980817        4.4537145018       -1.4634632801
 O          0.6215475674        1.8909081361       -1.8442907742
 C          2.3111865111        0.1940429268        0.3941209216
 C          1.2916846277        0.6431634129        1.4549541157
 C          1.5704530081       -0.9351712996       -0.3640075487
 C          0.4620801211       -1.3707409549        0.6297435537
 C          0.3732258729        1.7925296781        1.0065245519
 H          2.5694667513        1.0020137340       -0.2917289123
 H          1.8001546680        0.9082205013        2.3862645934
 H          1.1309538575       -0.5378583047       -1.2809830457
 H          0.6613517377       -2.3890665301        0.9880605121
 H         -0.1879487613        2.1619841440        1.8671414469
 H         -0.3233551046        1.4106569810        0.2573299600
 H          4.1266313708        0.3125284840        1.1417949991
 H          3.1422327352       -2.0236779134       -0.0979209796
 H          3.1915956469        3.9763327044       -1.0616162941
 H         -0.2141773490        4.5482640430       -1.6174703537
  35
        -70.95469788
 N         -0.5967803185       -1.5197796529        0.6918171186
 N         -2.4124688378       -2.4728934972        1.5932899299
 N         -3.7764019771       -2.4586190261       -0.4124088108
 N         -2.7154829439       -1.5015626436       -2.3170003800
 C         -1.5226674132       -1.6030316125       -0.3150400446
 C         -2.6687435413       -2.2144349412        0.2776599132
 C         -1.6005384062       -1.2507788303       -1.6486020177
 C         -1.2007488004       -2.0432403339        1.7918738802
 C         -3.7240892558       -2.0836184469       -1.6760129954
 H         -0.7993454137       -0.7672231670       -2.1896979526
 H         -0.7007941277       -2.1026475298        2.7387272999
 H         -4.6116025223       -2.2701995616       -2.2635112421
 P          0.4197062349        2.8607536478        0.8068188301
 O          0.6122959745        0.3232580535        0.0153946998
 O          3.8210716533       -0.7135449450       -0.9252520907
 O          2.5454406860       -2.5743932919        0.4048836677
 O          1.1660451224        2.9377435140       -0.6205862376
 O         -1.0464506958        2.3371788762        0.5907954181
 O          0.1733342558        4.4117816326        1.0000190790
 O          1.1638431768        2.2259491629        1.9056085284
 C          2.4407088728       -0.6369229894       -1.1091892299
 C          1.9069823306        0.6470652576       -0.4493264213
 C          1.6876055520       -1.7591098081       -0.3214803572
 C          0.7109712210       -0.9544935972        0.5966685621
 C          1.7562922769        1.8658035022       -1.3349320676
 H          2.1651492779       -0.6582307209       -2.1673716916
 H          2.5525362374        0.8968248271        0.4055607470
 H          1.1068020986       -2.4025656333       -0.9900651972
 H          1.1352211147       -0.8910650400        1.6109265520
 H          1.1079236468        1.6287893825       -2.1847221430
 H          2.7320212280        2.2104732046       -1.6847253096
 H          4.2229317470       -1.2938581746       -1.5896054044
 H          3.3842193862       -2.0938528342        0.5458007415
 H         -1.6088730323        2.9550292136        0.1059360460
 H          0.9314762884        4.9111359738        1.3192506963
  35
        -70.95469087
 N         -0.8462457218       -2.2449186538       -0.1242613889
 N         -1.7292532199       -3.9091377927       -1.3359026735
 N         -4.0028853170       -3.6890206947       -0.5207440901
 N         -4.3052737952       -1.9663038245        1.0957269691
 C         -2.1744005553       -2.2926042230        0.2073948328
 C         -2.7186872638       -3.3530142063       -0.5785235115
 C         -3.0303530374       -1.6119175007        1.0531309365
 C         -0.6562684232       -3.2343253908       -1.0389302176
 C         -4.7156907369       -2.9654693494        0.3203662669
 H         -2.7157303682       -0.7962687246        1.6877685809
 H          0.3097898606       -3.4374199151       -1.4588304324
 H         -5.7649359912       -3.2152495864        0.3899665926
 P          2.0527592072        3.5858101149        0.0161783005
 O         -0.4405137606       -0.1306614894        0.7311907259
 O          2.7909829514        0.0492859980        0.8560421194
 O          2.2574654987       -2.0058619698       -0.7063707603
 O          0.4654925977        3.3189196368        0.0680841036
 O          2.0873468187        5.1424691869        0.1898433770
 O          2.5056219831        3.3472087068       -1.4686408248
 O          2.8371489273        2.8071494396        0.9898173264
 C          1.7711171096        0.3182924050       -0.0646727588
 C          0.5160396704        0.9221405518        0.5981272262
 C          1.2728752707       -1.0365807744       -0.6041161812
 C          0.1552470365       -1.3637829307        0.4149623348
 C         -0.1221342774        2.0614875539       -0.1972363496
 H          2.1418786842        0.9605488181       -0.8712075619
 H          0.7725873955        1.2921403291        1.5990477552
 H          0.8170460463       -0.9116020556       -1.5923460973
 H          0.5984301660       -1.8218509998        1.3170343940
 H         -1.1674861813        2.1543663195        0.1071541774
 H         -0.0733977844        1.8404311666       -1.2676895074
 H          3.1731692160        0.9016057620        1.1321406469
 H          2.9372754785       -1.8226926767       -0.0329929778
 H          1.9933098514        5.4675741394        1.0917033938
 H          2.2803974645        4.0512435261       -2.0907506319
  35
        -70.95467100
 N         -0.7907341390       -1.4346463664        0.0013454352
 N         -2.5783296882       -0.8934743260       -1.2408955683
 N         -4.1878108363       -2.2775785508       -0.0665124095
 N         -3.2775411540       -3.4952454523        1.7655311712
 C         -1.8534528196       -2.1295623926        0.5240033364
 C         -2.9753984623       -1.7799734525       -0.2814834108
 C         -2.0615091449       -3.0099654240        1.5692737630
 C         -1.3055935346       -0.7143318146       -1.0371659475
 C         -4.2564311054       -3.1135119114        0.9518002546
 H         -1.2898908312       -3.3298438328        2.2554056108
 H         -0.7190814675       -0.0529392667       -1.6468720162
 H         -5.2292822016       -3.5388025178        1.1527787387
 P          1.1624408657        2.9722016164       -1.1140132598
 O          0.5824094576       -0.6164619144        1.7288558873
 O          3.5704597455       -0.1140919151        0.8879068353
 O          2.5399503529       -2.1167685881       -0.4772778990
 O          0.9405419558        2.8214526997        0.4801695849
 O          2.6971421695        3.2099319676       -1.2904114276
 O          0.5499486012        4.3843307750       -1.4512813936
 O          0.6307785039        1.8279308015       -1.8713772619
 C          2.3194765847        0.1909895399        0.3507473554
 C          1.2873434911        0.5819227715        1.4246428187
 C          1.6660877754       -1.0317201751       -0.3561953588
 C          0.5305188939       -1.4515299730        0.5966754533
 C          0.2957010787        1.6691161491        0.9774303561
 H          2.4921359103        1.0043311914       -0.3533539716
 H          1.7955437427        0.8980305085        2.3399814616
 H          1.2729178276       -0.7303034074       -1.3320094765
 H          0.7052837092       -2.4800566209        0.9394710377
 H         -0.3041504719        1.9831701306        1.8343885972
 H         -0.3597920968        1.2561226429        0.2075787829
 H          3.5162127539       -0.9349662408        1.4034590183
 H          3.2937268348       -1.8721609772       -1.0357352188
 H          3.0463906578        4.0212115161       -0.8986078605
 H         -0.3983914505        4.4213817995       -1.6166990090
  35
        -70.95466877
 N         -1.7388429474       -1.3754037104       -0.0965419619
 N         -3.0698445311       -2.0921200974       -1.7499805313
 N         -3.9863619049       -4.0064483238       -0.5786983278
 N         -3.1532145827       -4.2977838673        1.6324411970
 C         -2.3681526928       -2.4934692387        0.3810606411
 C         -3.2118138006       -2.9329686058       -0.6849980427
 C         -2.3710243183       -3.2331490192        1.5488427863
 C         -2.1986953471       -1.2044576576       -1.3648266423
 C         -3.9051863245       -4.6213811937        0.5852450949
 H         -1.7667282599       -3.0034958498        2.4152461777
 H         -1.8751085100       -0.3844225804       -1.9742291917
 H         -4.5249977945       -5.4986514203        0.7037469736
 P          2.8224030418        3.3363060556       -0.3728050620
 O         -0.9064420080        0.7559161888        0.2111835792
 O          2.0167073927        0.3103228341        1.6520138493
 O          1.2307208756       -2.0409473788        0.8425625750
 O          1.2841092431        3.4515869810       -0.7672868119
 O          3.2824981168        4.8275531892       -0.4649625172
 O          3.4355862775        2.5488092948       -1.6102093993
 O          3.1376934761        2.7334888004        0.9335359952
 C          1.4531677203        0.3629885313        0.3719722275
 C          0.3475589801        1.4347044387        0.2525161311
 C          0.7062940206       -0.9671860104        0.1407791120
 C         -0.7390002278       -0.5911530935        0.5680453988
 C          0.4584768242        2.3245569585       -0.9863025822
 H          2.2289282978        0.5192795292       -0.3853499919
 H          0.3734319484        2.0774936106        1.1431376173
 H          0.6954867440       -1.2291537159       -0.9232646738
 H         -0.8524091292       -0.7394638468        1.6531129480
 H         -0.5318354727        2.7268754972       -1.2122117566
 H          0.8308195546        1.7516842544       -1.8394750300
 H          2.5907279485        1.0903918798        1.7608842600
 H          1.7161187744       -1.6878594766        1.6115356349
 H          2.9998747244        5.3255126902       -1.2438412461
 H          4.3828111666        2.3769267492       -1.5646885902
  35
        -70.95466309
 N          0.0003495837       -1.4530063899       -0.2083477995
 N         -1.4856661525       -2.0268517856       -1.7843038732
 N         -3.4715269939       -1.3222634066       -0.5842888350
 N         -3.0420685218       -0.4427930851        1.5883430516
 C         -1.2332218865       -1.1294925053        0.2909333315
 C         -2.1626497250       -1.4899216117       -0.7279980187
 C         -1.7336832526       -0.6077809762        1.4663392971
 C         -0.2309327377       -1.9794951702       -1.4397043975
 C         -3.8213199249       -0.7881848431        0.5691718035
 H         -1.1165809044       -0.3256607349        2.3076748135
 H          0.5547080166       -2.3640453896       -2.0598290681
 H         -4.8807697172       -0.6268183630        0.7122147404
 P         -0.7533394574        2.0898381434       -0.3189634963
 O          1.2838976035       -0.0988589509        1.2270245815
 O          4.1665799871       -0.7836457763        1.2284423729
 O          3.0969245537       -2.5432905272       -0.5658731204
 O          0.5291274429        1.3067543763       -0.8394871334
 O         -0.5277508580        3.6054025953       -0.7575891659
 O         -0.5554708891        2.1667040234        1.2399582656
 O         -1.9894498617        1.4910323080       -0.8357435544
 C          3.3774528865       -0.2247525003        0.2170885634
 C          2.3171529078        0.7532452762        0.7355687509
 C          2.4848754115       -1.3033623322       -0.4406936732
 C          1.2525958752       -1.3069905414        0.5021595279
 C          1.8076335938        1.7186278333       -0.3655907207
 H          4.0717611062        0.2240671469       -0.4933882650
 H          2.6701967998        1.3258909360        1.5959770106
 H          2.1728571985       -0.9650003080       -1.4331996289
 H          1.3171003312       -2.1377964289        1.2236868613
 H          2.4729912162        1.7028370276       -1.2305023661
 H          1.7384779668        2.7347125109        0.0229319780
 H          3.6367430009       -0.9364409287        2.0251729691
 H          3.8236744830       -2.5983529847        0.0828783713
 H         -0.9639351982        3.8532529709       -1.5793631266
 H         -1.0151641868        2.8881750503        1.6862599518
  35
        -70.95465389
 N         -1.5490239260       -1.2684013567        0.7458606704
 N         -3.7323600038       -1.0003809738        0.3260096278
 N         -4.1689353767       -3.2708328220       -0.4102411430
 N         -2.2598901861       -4.6956455344       -0.3801646644
 C         -2.0024999701       -2.4823615976        0.3010851488
 C         -3.3932167728       -2.2904766481        0.0405162241
 C         -1.4648562006       -3.7348520922        0.0646133795
 C         -2.6274994297       -0.4439959537        0.7364545357
 C         -3.5436547245       -4.4184860821       -0.5873140035
 H         -0.4216375674       -3.9790210256        0.2116201526
 H         -2.5540261726        0.5768969081        1.0539177668
 H         -4.1487825165       -5.2373575919       -0.9499348370
 P          2.2482811914        3.3876774311       -0.6465301547
 O         -0.0884388405        0.3787771557        1.5195624033
 O          2.8726335322       -0.1990690854        0.6081084224
 O          1.5501232073       -2.3903246358        0.1611051519
 O          0.9222465483        2.6758078451       -1.1805795916
 O          1.7092912392        4.3539791087        0.4692251519
 O          2.6094931002        4.3131552294       -1.8599310771
 O          3.3370015622        2.4790236981       -0.2265705521
 C          1.6679937979        0.0544053774       -0.0567895626
 C          0.7981073874        1.0933906407        0.6683312927
 C          0.8108908391       -1.2301486689       -0.0172919196
 C         -0.1888686773       -0.9629980389        1.1462817561
 C          0.0380419496        1.9924584884       -0.3107836436
 H          1.8583092612        0.3672562238       -1.0888721676
 H          1.4155445578        1.7236146272        1.3163629226
 H          0.2450264829       -1.3379602275       -0.9498824358
 H          0.0619756083       -1.6006737147        2.0074476593
 H         -0.5574907513        2.7158482338        0.2521148582
 H         -0.6161982258        1.4005236550       -0.9565115678
 H          3.4512652444        0.5723824623        0.4809509172
 H          2.3980123743       -2.1488025657        0.5781331750
 H          2.3750169800        4.8687983392        0.9403364308
 H          3.2065414418        3.9323859297       -2.5132102861
  35
        -70.95465071
 N         -0.8824410305       -0.8886704748        0.5252154998
 N         -2.8986875406       -0.2418862600       -0.2030740227
 N         -3.8802854203       -2.4534736933       -0.3574557454
 N         -2.4234503896       -4.2216473501        0.2926579550
 C         -1.6176957664       -2.0358763753        0.3727143494
 C         -2.8955123797       -1.6010797885       -0.0941743859
 C         -1.4250851493       -3.3931404006        0.5586939674
 C         -1.7082775467        0.1307592082        0.1740881785
 C         -3.5734997445       -3.7183611237       -0.1442377224
 H         -0.4986512758       -3.8295890796        0.9061981704
 H         -1.3869007425        1.1521680417        0.2098911595
 H         -4.3544400422       -4.4369842551       -0.3491708970
 P          0.8132417584        3.3590988407       -0.4924361155
 O          0.9740605627        0.5005778165        0.8877675279
 O          3.5694692424       -1.0083672248        0.8757771615
 O          1.7718284322       -2.9008820921        0.8673845315
 O          0.4676015338        2.0339181649       -1.3395481757
 O         -0.0384147178        3.2440983500        0.8388608595
 O          0.0656734054        4.4653652995       -1.3074183953
 O          2.2496876065        3.6084308472       -0.3093188410
 C          2.6251254737       -0.8260941061       -0.1417166993
 C          1.9867103339        0.5696363067       -0.1106956775
 C          1.4248463132       -1.7439999778        0.1874614886
 C          0.4856171420       -0.8043350308        1.0034084681
 C          1.4086286103        0.9865117597       -1.4686379469
 H          3.0450907207       -1.0562979100       -1.1254814909
 H          2.6815480482        1.3425822928        0.2254426391
 H          0.9150461240       -2.0481657750       -0.7326451738
 H          0.4947514208       -1.0902865160        2.0656111885
 H          0.8543877912        0.1685042945       -1.9359331426
 H          2.2274081048        1.3046956372       -2.1188836926
 H          4.4013222834       -0.5674703315        0.6560196893
 H          2.5689715380       -2.7198538060        1.3986500398
 H          0.4680173362        3.0475957914        1.6326846679
 H         -0.8817411809        4.3368195140       -1.4417165205
  35
        -70.95459619
 N         -0.1092245859       -1.7046656266       -0.0163434993
 N         -1.6230312464       -1.8384215726       -1.6673794149
 N         -3.4702895916       -0.8387605920       -0.4599997302
 N         -2.9724928417       -0.2660739771        1.7963389643
 C         -1.2782966159       -1.1921313978        0.4868817785
 C         -2.2185250574       -1.2668749742       -0.5816984400
 C         -1.7230631202       -0.6890822535        1.6963258650
 C         -0.3975731337       -2.0677564943       -1.2957922371
 C         -3.7592729489       -0.3460077711        0.7273458609
 H         -1.1023352495       -0.6215121699        2.5780524943
 H          0.3155644441       -2.5316801116       -1.9468970717
 H         -4.7663903432        0.0251903209        0.8550938744
 P         -0.2705604325        2.1353948900       -0.8124111097
 O          1.2367961259       -0.8789649578        1.7278923075
 O          3.8139490359        0.3987325380       -0.3291062327
 O          3.5341238215       -2.1470871230        0.3774311294
 O         -0.0730148421        1.3587537269        0.5603168744
 O         -1.8083355431        2.4793572395       -0.8092375229
 O         -0.1666565219        0.9910822628       -1.8958385852
 O          0.6456814562        3.2744246391       -0.9981040301
 C          2.5210420945       -0.0551995438       -0.1090017699
 C          1.9741018102        0.2668873413        1.2989186580
 C          2.3804864783       -1.5924907968       -0.1870496822
 C          1.1491586839       -1.8328572206        0.7109125191
 C          1.1078301927        1.5260985857        1.3328392010
 H          1.8856975423        0.4181020111       -0.8633376061
 H          2.8043224369        0.4059508926        2.0013698018
 H          2.2314351859       -1.9269319869       -1.2149230140
 H          1.1746688159       -2.8170922538        1.1985364657
 H          1.6814906950        2.3734010902        0.9471525637
 H          0.7796513963        1.7186896015        2.3561873061
 H          4.4337885550       -0.2189156175        0.0990090265
 H          3.6224504028       -3.0825927487        0.1469028535
 H         -2.0257227125        3.3609539883       -0.4852117851
 H         -0.2193555050        1.3230672918       -2.8000676291
  35
        -70.95457742
 N         -0.0793195213       -1.9856884274        0.6138358294
 N         -1.9392866523       -1.9898859628        1.8744445212
 N         -3.4766650353       -1.2703705815        0.1646316920
 N         -2.5045715757       -0.9247786351       -1.9714448666
 C         -1.1025900131       -1.5839018447       -0.2156794303
 C         -2.2715124784       -1.5963295666        0.6102140645
 C         -1.2938568447       -1.2373240726       -1.5433437815
 C         -0.6601864633       -2.2000496655        1.8312608048
 C         -3.5132643418       -0.9400203945       -1.1100187292
 H         -0.5177196211       -1.1977640964       -2.2938771080
 H         -0.0767732250       -2.5098804712        2.6761556440
 H         -4.4798490747       -0.6625488680       -1.5056649636
 P         -0.2491682782        2.5548609151       -0.0681578364
 O          1.9949632712       -1.2207279097        1.4130071784
 O          2.7947538474        0.6875927739       -1.3796772305
 O          3.2147703297       -1.9519355508       -1.0841373854
 O          0.9192366400        2.2655752829        1.0104666281
 O          0.4640351307        2.8655090222       -1.4221904727
 O         -0.7940739865        3.9669250920        0.3715338441
 O         -1.2293360029        1.4583468530       -0.1363845173
 C          1.8432525362       -0.0045806857       -0.6382316902
 C          2.0567794965        0.1098682990        0.8948310996
 C          1.8977823973       -1.5360713151       -0.8680532059
 C          1.3660742411       -2.0553392515        0.4681449149
 C          1.0052581138        0.9830620252        1.5908927175
 H          0.8574324310        0.3881900160       -0.9057003163
 H          3.0534072567        0.5102581650        1.1060961565
 H          1.3302232871       -1.8693026776       -1.7337364533
 H          1.6866391949       -3.0806138316        0.6857773381
 H          1.2764635813        1.1198031209        2.6399613587
 H          0.0281072931        0.4943479836        1.5289364187
 H          3.4958759334        0.0610233738       -1.6439490730
 H          3.7210607167       -1.9002807756       -0.2568206611
 H          0.9924576992        3.6739100319       -1.4412686407
 H         -1.4279764662        3.9790718916        1.0966917274
  35
        -70.95456850
 N         -0.7899024368       -2.2911153784       -0.1175609105
 N         -1.6526680680       -4.0694840689       -1.1715050725
 N         -3.9758466516       -3.6284197277       -0.6346620672
 N         -4.3271152025       -1.6785040627        0.6866390581
 C         -2.1439280607       -2.2282841466        0.0789600938
 C         -2.6740309322       -3.3645987401       -0.6044721871
 C         -3.0347592268       -1.3942006751        0.7288887143
 C         -0.5739834889       -3.4095524665       -0.8620956253
 C         -4.7211717350       -2.7583727482        0.0184234857
 H         -2.7334455532       -0.5119937341        1.2745923260
 H          0.4138756982       -3.7126595312       -1.1507268975
 H         -5.7856184705       -2.9455977496        0.0118106270
 P          1.8902683888        3.6356880835        0.2638304678
 O         -0.3508811046       -0.1115424460        0.5379046592
 O          2.8718731495        0.0053256272        0.8038517981
 O          2.3554499110       -2.2151502321       -0.5168380085
 O          0.9732167307        2.9944263788       -0.8979726860
 O          0.9313760311        4.0591416573        1.4296542543
 O          2.3150395337        4.9836530071       -0.4136354314
 O          2.9925587328        2.7664471559        0.7102738533
 C          1.9088764424        0.1829390837       -0.1977891738
 C          0.6392574431        0.8899034407        0.3131788513
 C          1.3987325269       -1.2159569245       -0.5959207535
 C          0.2135909946       -1.3899971823        0.3858365577
 C          0.0840916567        1.9186762071       -0.6697552988
 H          2.3353606789        0.7197091773       -1.0520910832
 H          0.8545984792        1.3896254140        1.2673399384
 H          1.0059394164       -1.2051577560       -1.6185025420
 H          0.5877788203       -1.7640249557        1.3552066568
 H         -0.8651706021        2.2930309425       -0.2767472562
 H         -0.0887879376        1.4562433560       -1.6449647862
 H          3.2491954488        0.8786706344        1.0126897411
 H          3.0050122890       -1.9628855089        0.1640745161
 H          0.4309025706        4.8739756712        1.2915137796
 H          3.0324480032        4.9294486145       -1.0539515758
  35
        -70.95452880
 N         -0.1759670665       -1.4600146737        0.6339351886
 N         -2.0952873859       -2.1835464596        1.5479699183
 N         -3.5370877474       -1.6619954972       -0.3154663573
 N         -2.4406835357       -0.6700100410       -2.1750514956
 C         -1.1535717955       -1.2334161299       -0.3038956987
 C         -2.3622635435       -1.7060641400        0.2985478706
 C         -1.2584068144       -0.7091854633       -1.5786860916
 C         -0.8197392867       -2.0009899589        1.7050986338
 C         -3.4986999405       -1.1373026302       -1.5243033206
 H         -0.4362843638       -0.2993986694       -2.1474027983
 H         -0.2957190986       -2.2702527315        2.6016235671
 H         -4.4411408980       -1.0821702042       -2.0506402805
 P         -0.4572357213        2.2144579349        0.5013661313
 O          1.3741097305        0.2923455210        0.8490075519
 O          4.1339268923       -0.8139201719        0.0685004087
 O          2.4861151712       -2.7446512523       -0.6615560581
 O          0.2424520639        1.7853831533       -0.8665561006
 O         -1.2283316812        3.5445114619        0.0692446197
 O          0.7007647616        2.7970653187        1.3935811768
 O         -1.3759089194        1.2226700054        1.0844699466
 C          3.0549082919       -0.3511072699       -0.6973129513
 C          2.3423396719        0.8442126526       -0.0368900741
 C          1.9764643450       -1.4549189826       -0.6587217013
 C          1.2125432225       -1.0966791754        0.6395919006
 C          1.6469052486        1.8063001068       -1.0369767905
 H          3.3625044267       -0.1269159250       -1.7224334769
 H          3.0389181069        1.4100078946        0.5896174767
 H          1.3057835116       -1.3722999566       -1.5158398565
 H          1.6671586320       -1.6317343389        1.4879052180
 H          1.8084883197        1.4942379327       -2.0709451762
 H          2.0157184515        2.8232258086       -0.8939895799
 H          4.9215923326       -0.2743566428       -0.0871688862
 H          3.3319089504       -2.7438675092       -0.1766728583
 H         -2.1615010975        3.4324820752       -0.1305781848
 H          0.4466125327        2.9451805684        2.3111463714
  35
        -70.95447996
 N         -0.7028373240       -2.4074391561        0.4273699297
 N         -1.7276572398       -4.3951887762        0.5774431156
 N         -3.8564053528       -3.6992733714       -0.3493548508
 N         -3.9591085962       -1.4022726929       -0.9654129709
 C         -1.9662780894       -2.2233270985       -0.0711809205
 C         -2.6018726850       -3.4983591516        0.0365303415
 C         -2.7122479732       -1.1780698901       -0.5815529462
 C         -0.6373531652       -3.7173596813        0.7882073084
 C         -4.4545401194       -2.6290005143       -0.8348016686
 H         -2.3400986880       -0.1681396292       -0.6794543091
 H          0.2510717030       -4.1477785747        1.2070083705
 H         -5.4755296110       -2.7627935757       -1.1625708833
 P          1.8772481140        3.6389134225        0.3182699184
 O         -0.1252572873       -0.2295433367        0.9816396757
 O          2.9020744657        0.0761630662       -0.2614802629
 O          1.8657713957       -2.0570260360       -1.3720099762
 O          0.5776745653        3.0839216700       -0.4205664357
 O          1.3772268526        3.9172397177        1.7805625952
 O          2.0340341406        5.0515649841       -0.3427059072
 O          3.0796303760        2.7826238769        0.2114494674
 C          1.5689044464        0.2751219818       -0.6407960141
 C          0.7001596214        0.8303214875        0.5093988560
 C          0.9594016076       -1.1153476616       -0.9133504079
 C          0.3606321996       -1.4522884896        0.4792786681
 C         -0.1815183044        2.0038271200        0.0868520178
 H          1.5099437980        0.9254750091       -1.5210352269
 H          1.3570067728        1.1582624652        1.3265170791
 H          0.1427488840       -1.0505915851       -1.6403736965
 H          1.1522584541       -1.8632743007        1.1250252500
 H         -0.7730464962        2.3313475638        0.9453585904
 H         -0.8486351493        1.7073293830       -0.7262617000
 H          3.3043429268        0.9506910036       -0.0980631534
 H          2.7516902499       -1.8067901015       -1.0506069647
 H          2.0432320118        4.2342148865        2.4019260742
 H          2.5490111585        5.0815835353       -1.1565220249
  35
        -70.95444612
 N         -0.9342570535       -1.5053335594        0.9707668420
 N         -3.0353596891       -0.7739500412        1.2304947741
 N         -4.1168331869       -2.5086282836       -0.0710557091
 N         -2.6321587753       -4.1467150222       -0.9512309543
 C         -1.7320708402       -2.3865793195        0.2867531742
 C         -3.0637558146       -1.8971512096        0.4577918188
 C         -1.5666878532       -3.5543364996       -0.4356456702
 C         -1.7782242147       -0.5861325549        1.5093458275
 C         -3.8269583006       -3.6002916656       -0.7521550344
 H         -0.6135977555       -4.0357258846       -0.6079244445
 H         -1.4206268130        0.2111047400        2.1293556601
 H         -4.6637653901       -4.1193734417       -1.1970427604
 P          1.2173952112        3.3254884057       -0.8121898514
 O          1.0038231775       -0.5358674611        1.8897827418
 O          2.5451740415        0.3262467499       -1.1751316139
 O          2.4479883515       -2.1883031602       -0.2516747147
 O          1.5806400982        2.8753427596        0.6991939894
 O          2.5231733301        3.0538738419       -1.6509075568
 O          1.1810493501        4.8866476847       -0.7327834500
 O         -0.0347816282        2.7261273257       -1.2987103410
 C          1.4300829490        0.0119177280       -0.3976285407
 C          1.5515116190        0.4959619689        1.0638802685
 C          1.2269180304       -1.5128048898       -0.2372814523
 C          0.5099581077       -1.5938115295        1.1229243201
 C          0.8503283488        1.8342965288        1.3099134303
 H          0.5490829248        0.4651270163       -0.8645229671
 H          2.6083497947        0.6230003090        1.3325236522
 H          0.6325759573       -1.9314666313       -1.0503215811
 H          0.7341189878       -2.5330098224        1.6474142463
 H          0.8270171282        2.0480565746        2.3808220260
 H         -0.1658603264        1.8153388232        0.9046491532
 H          3.1091648977       -0.4700024868       -1.2419529427
 H          2.9417832144       -2.0289062272        0.5685111606
 H          2.7221656743        2.1118974522       -1.7818281520
 H          2.0002157465        5.3118729741       -0.4455003297
  35
        -70.95440805
 N         -0.8306831385       -1.4083384207        0.0085063593
 N         -2.6367830355       -0.9049812557       -1.2228864383
 N         -4.1991324935       -2.3589605950       -0.0699209315
 N         -3.2474270615       -3.5775140059        1.7402359613
 C         -1.8696038121       -2.1461051657        0.5202095769
 C         -3.0036941320       -1.8193674882       -0.2779873475
 C         -2.0480327389       -3.0498215420        1.5508309776
 C         -1.3696843284       -0.6899032403       -1.0186568925
 C         -4.2392382012       -3.2140121961        0.9339857463
 H         -1.2662742709       -3.3573638955        2.2311550315
 H         -0.8055158376       -0.0055737527       -1.6237802829
 H         -5.1976656056       -3.6737331774        1.1283838510
 P          1.2281793677        2.9809368641       -1.1217582502
 O          0.5381759861       -0.5760274376        1.7348465303
 O          3.4911784818       -0.2772336926        1.0246183986
 O          2.4781282896       -1.9825953729       -0.6920176299
 O          0.9774556958        2.8483889677        0.4710386044
 O          2.7740478316        3.1572809300       -1.2742044756
 O          0.6767406713        4.4131221872       -1.4755151875
 O          0.6608308350        1.8498234590       -1.8720830540
 C          2.3189657006        0.1965316763        0.4263763277
 C          1.2599713969        0.6188659031        1.4507695950
 C          1.6161649383       -0.9351097793       -0.3708612315
 C          0.4951400989       -1.4027552086        0.5906636708
 C          0.2981439290        1.7131942403        0.9605762108
 H          2.6209001352        1.0092106833       -0.2331941842
 H          1.7298070777        0.9391687203        2.3851480478
 H          1.1960800579       -0.5321967566       -1.2955500078
 H          0.6908728892       -2.4318419680        0.9202203177
 H         -0.3231696153        2.0454297798        1.7951024346
 H         -0.3390283362        1.3009601624        0.1756376915
 H          3.2740578656       -0.8179567616        1.8008191496
 H          3.3481593213       -1.7953685206       -0.2862950850
 H          3.1403949197        3.9841546098       -0.9331747502
 H         -0.2677646095        4.4860050499       -1.6508091058
  35
        -70.95440550
 N         -0.9929991829       -1.0441928748        0.4716048642
 N         -2.9536047498       -0.5344584325       -0.4812523221
 N         -3.9322045434       -2.7503836066       -0.3412928782
 N         -2.5114169762       -4.3875485571        0.6470568450
 C         -1.7202915960       -2.2054185282        0.4510840860
 C         -2.9645740418       -1.8587448830       -0.1561699067
 C         -1.5303695860       -3.5190172489        0.8386287816
 C         -1.7867994932       -0.0993085075       -0.0958799652
 C         -3.6383121380       -3.9642421760        0.0827408843
 H         -0.6168298311       -3.8913909357        1.2817552507
 H         -1.4652228277        0.9164544747       -0.2156139028
 H         -4.4077855610       -4.7116061859       -0.0496773073
 P          1.0583427760        3.5790882400       -0.6521581971
 O          0.7690448016        0.4194033278        1.0212058456
 O          3.5256339756       -0.8561288981        0.8656465478
 O          1.8146145547       -2.8720837811        0.8640630664
 O          0.3238533420        2.2066901885       -1.0958796144
 O          0.9987750737        3.6560339771        0.9126334439
 O          0.0151041424        4.6653711814       -1.1033792149
 O          2.4242280421        3.6680512022       -1.1875758275
 C          2.5053789046       -0.7109405520       -0.0791932547
 C          1.7657783306        0.6255599827        0.0219576126
 C          1.3742711690       -1.7405839907        0.1896994282
 C          0.3449069417       -0.9121394443        1.0169959960
 C          1.1571313655        1.0840442798       -1.3052771405
 H          2.9659670918       -0.8621336139       -1.0561378277
 H          2.4052530936        1.4356309029        0.3869316143
 H          0.9085044276       -2.0578501525       -0.7506922187
 H          0.3107546107       -1.2762930257        2.0540500950
 H          0.5213036125        0.3176399485       -1.7521722835
 H          1.9692026040        1.3539329956       -1.9853358466
 H          3.2835949775       -0.4193140147        1.6968704012
 H          2.7234907388       -2.7045313746        1.1837140460
 H          0.1363636957        3.8630403721        1.2926699721
 H         -0.0232164805        4.8558197806       -2.0471538540
  35
        -70.95440226
 N         -0.9744127099       -0.9841659453        0.1343466098
 N         -2.7464124265       -0.8842913449       -1.2272550417
 N         -3.8343213060       -2.9059486337       -0.4386616671
 N         -2.6581506856       -4.0399947025        1.2950932080
 C         -1.7435017964       -2.0781961641        0.4316235319
 C         -2.8663574207       -1.9961112844       -0.4462167932
 C         -1.6805593649       -3.1462546324        1.3063923636
 C         -1.6285287095       -0.3241964552       -0.8597323937
 C         -3.6625687748       -3.8747636055        0.4406002623
 H         -0.8730700246       -3.3054585525        2.0078490383
 H         -1.2519933695        0.5920721270       -1.2737994359
 H         -4.4346909503       -4.6304233730        0.4691429151
 P          0.6114810769        3.3622101663       -0.5349732532
 O          0.7147219429        0.5895655647        0.3172897800
 O          3.7921417331       -1.1821905200        0.3634452763
 O          1.7368499120       -2.4077777144        1.5365717819
 O          2.1415351297        2.9091901427       -0.6205253761
 O          0.7212567833        4.9013497504       -0.8545086694
 O          0.2934265755        3.2835401893        1.0181698121
 O         -0.3215124221        2.6659558915       -1.4301504599
 C          2.5570198607       -0.8429740031       -0.1749152354
 C          2.1220806621        0.6059758641        0.1355988318
 C          1.3863647192       -1.7082185559        0.3794861004
 C          0.2937686928       -0.6749285410        0.7464900583
 C          2.4457423002        1.5785156544       -0.9890555884
 H          2.6484406319       -0.9818819007       -1.2546587621
 H          2.5983790575        0.9560765513        1.0630790184
 H          1.0075655604       -2.3900697717       -0.3923284024
 H          0.1607214018       -0.6960430551        1.8423718685
 H          1.8574802932        1.3081504005       -1.8707671993
 H          3.5141350056        1.5612114525       -1.2094579339
 H          3.7499641811       -1.1446822464        1.3338871770
 H          2.4047170587       -3.0784428115        1.3209988222
 H          1.3796992661        5.3937161892       -0.3477278668
 H         -0.6438433170        3.2809363546        1.2324631069
  35
        -70.95438863
 N         -1.4149777971       -1.3835196634        0.9246246805
 N         -3.6377129139       -1.1320960435        1.0329527340
 N         -4.2222880951       -3.2204423333       -0.0535465046
 N         -2.3521887960       -4.5380043022       -0.7175067717
 C         -1.9529219047       -2.5006121267        0.3411198816
 C         -3.3672841759       -2.3205125387        0.4207107129
 C         -1.4797445430       -3.6549844384       -0.2567452026
 C         -2.4708708789       -0.6227549618        1.3107723314
 C         -3.6503935842       -4.2794367539       -0.5927247957
 H         -0.4296232453       -3.8793554057       -0.3835006473
 H         -2.3319543141        0.3139507278        1.8118382394
 H         -4.3199174292       -5.0317013342       -0.9851951330
 P          2.1761989541        3.3798450757       -0.7407975600
 O          0.1609699400        0.1466061854        1.6966820047
 O          2.9061617020       -0.2294868915        0.1947118791
 O          1.4326587262       -2.2406488847       -0.5494053820
 O          0.7994979483        3.3293244255        0.0596104780
 O          2.4833688622        4.9127986842       -0.7206708741
 O          1.7321180906        2.9912397227       -2.2192860930
 O          3.2926931920        2.5735088926       -0.2213864615
 C          1.6229507214        0.1797346438       -0.1819503631
 C          0.9308399314        1.0345536222        0.8909945471
 C          0.7297051404       -1.0755438187       -0.2830210937
 C         -0.0029536221       -1.0998733098        1.0888849709
 C          0.0588061994        2.1477645964        0.3011810080
 H          1.6527770804        0.7104466460       -1.1389640660
 H          1.6724306316        1.4991870605        1.5498536244
 H         -0.0160559983       -0.9498048773       -1.0764861379
 H          0.4300929942       -1.8842230795        1.7289548896
 H         -0.7023260243        2.4307471570        1.0324680621
 H         -0.4225795034        1.8180990264       -0.6242521612
 H          3.4948758218        0.5426133761        0.1511739221
 H          2.3514845398       -2.1178972619       -0.2465910269
 H          1.7599409262        5.5088252684       -0.9567589961
 H          2.4431409313        2.9474132632       -2.8690403495
  35
        -70.95437977
 N         -0.8499382237       -1.8469480134        0.0056234047
 N         -2.1853622069       -1.8850924267       -1.7974965816
 N         -4.1531514121       -2.7705614652       -0.6905328222
 N         -3.8722595243       -3.1642416421        1.6400677249
 C         -2.0640128856       -2.3249050481        0.4317043105
 C         -2.8943071389       -2.3501673715       -0.7268315424
 C         -2.6158941282       -2.7485388452        1.6268062216
 C         -1.0081659297       -1.5976636650       -1.3250087631
 C         -4.5609011148       -3.1560084770        0.5030703849
 H         -2.0856416029       -2.7590755386        2.5687495430
 H         -0.2196571242       -1.2108014809       -1.9397821733
 H         -5.5815957824       -3.5048589437        0.5670783679
 P          1.7091611989        3.4457337828       -0.5450358314
 O          0.1535593252       -0.2919465415        1.4547895572
 O          3.2468134556        0.1707389699        0.1521734515
 O          2.5927106942       -2.1596352983        0.9784356461
 O          0.6234181861        2.3776861856       -1.0245979296
 O          0.8856294296        4.3720959583        0.4392339415
 O          1.9698652888        4.2365529925       -1.8662703504
 O          2.9468935019        2.8975358256        0.0373373598
 C          1.9122167724       -0.0969537765       -0.1625019459
 C          0.8989383994        0.6704775558        0.7200171420
 C          1.6316974677       -1.5926790802        0.1408095178
 C          0.2757369436       -1.5630928382        0.8721314491
 C         -0.0545661281        1.5571858453       -0.0935850258
 H          1.7198427703        0.1227505252       -1.2215505181
 H          1.4354190643        1.2857803920        1.4498967402
 H          1.5682162688       -2.1890203531       -0.7779719801
 H          0.2645969027       -2.2984438918        1.6837232463
 H         -0.6402701746        2.1734451544        0.5926374501
 H         -0.7314730545        0.9386260607       -0.6890548608
 H          3.4024773225        1.1342535377        0.0920424970
 H          3.3585220447       -1.5558957609        1.0082714429
 H          1.4071626008        4.8830974971        1.0682853529
 H          1.1941948150        4.5691381598       -2.3367292019
  35
        -70.95436593
 N         -0.0404710812       -1.6252721632       -0.0774997440
 N         -1.5640756462       -1.3361616866       -1.6942013248
 N         -3.3948715373       -0.6520798141       -0.2656710114
 N         -2.8624906961       -0.5910174467        2.0512941212
 C         -1.1935084487       -1.2236972408        0.5483399544
 C         -2.1470537027       -1.0418835490       -0.4952972415
 C         -1.6155915416       -0.9840716878        1.8439804207
 C         -0.3382469863       -1.6731962628       -1.3992022429
 C         -3.6692231480       -0.4416146974        1.0065188574
 H         -0.9841793995       -1.1016607034        2.7132493804
 H          0.3706858520       -1.9933124494       -2.1373944477
 H         -4.6745875393       -0.1142272489        1.2295012606
 P         -0.4733348357        2.1319873301       -0.9979287675
 O          1.3085173276       -0.9943238160        1.7274470007
 O          4.1959727244       -0.4471677519        1.0725146443
 O          3.3042287393       -2.0784208523       -0.8015808103
 O          0.3989869796        1.0108899193       -0.2582384419
 O         -1.8521936798        2.0992346183       -0.2094415990
 O         -0.7086763943        1.5010028910       -2.4102450947
 O          0.1673493549        3.4526418752       -1.0287676066
 C          3.0090499547       -0.0023449173        0.4824382858
 C          1.9005453422        0.2831587253        1.5031518760
 C          2.3823681784       -1.1204007864       -0.3946704858
 C          1.2780259586       -1.7181235652        0.5300253336
 C          0.8907493249        1.3372149464        1.0377260898
 H          3.2637049812        0.8752597397       -0.1121977029
 H          2.3016227659        0.6088568967        2.4661833395
 H          1.9196362666       -0.6680104250       -1.2769899655
 H          1.4903895802       -2.7708423038        0.7603016913
 H          1.3629648474        2.3224884973        0.9992732507
 H          0.0509295743        1.3667110501        1.7386766414
 H          3.9979198041       -1.0365836644        1.8177030532
 H          4.1540355618       -1.8962514873       -0.3541008016
 H         -2.2884396862        2.9587282696       -0.1799886680
 H         -1.2550205790        0.7019238890       -2.4652315028
  35
        -70.95434413
 N         -0.1377908570       -1.8999923929        0.0132799348
 N         -1.6628899389       -2.1820206796       -1.6075078319
 N         -3.5004104832       -1.0735907123       -0.4853024340
 N         -2.9942437274       -0.3080268994        1.7099144059
 C         -1.3007421626       -1.3376202575        0.4763706694
 C         -2.2492645582       -1.5116120196       -0.5744657417
 C         -1.7443245598       -0.7349439261        1.6408648586
 C         -0.4362105584       -2.3841243786       -1.2226630199
 C         -3.7857298848       -0.4792227208        0.6556736351
 H         -1.1261616559       -0.6042887041        2.5166348760
 H          0.2765940889       -2.9137507754       -1.8227203087
 H         -4.7927109346       -0.0990514027        0.7547904999
 P         -0.0348179852        2.2837939551       -0.7464620047
 O          1.1644458701       -0.9644240457        1.7151236473
 O          3.4319519523        0.5696159602       -0.5569277026
 O          3.4935735516       -2.0498876795        0.2830490269
 O         -0.1582262379        1.5163485433        0.6469692172
 O         -1.2015795288        3.3425641687       -0.7532803120
 O         -0.5533824172        1.1938428763       -1.7579988000
 O          1.3145910839        2.8314264531       -0.9913013810
 C          2.2230225907       -0.0146072970       -0.1844912661
 C          1.8333947009        0.2248773358        1.2867456147
 C          2.3025433169       -1.5499218961       -0.2457513047
 C          1.1491027050       -1.9231988387        0.6999763349
 C          0.9722031720        1.4672516065        1.5083893366
 H          1.4046276133        0.3036334424       -0.8383936012
 H          2.7431366497        0.3301770783        1.8919790452
 H          2.1495237282       -1.9182398363       -1.2667391976
 H          1.3064716458       -2.9072590365        1.1589007127
 H          1.5959881980        2.3488078254        1.3434654023
 H          0.5770093460        1.4616332200        2.5249312684
 H          3.2743365017        1.4876360252       -0.8239120595
 H          4.2272696763       -1.5025147119       -0.0431709283
 H         -0.9860142457        4.2218953279       -0.4213401363
 H         -0.8733110770        1.5451752872       -2.5976124118
  35
        -70.95429349
 N         -0.1145224551       -1.4933746604       -0.2332019923
 N         -1.6894724711       -1.7232627664       -1.8157066845
 N         -3.5855279721       -1.1196173051       -0.4356104403
 N         -3.0385808187       -0.6375944513        1.8310844875
 C         -1.3099035691       -1.1989573808        0.3680854706
 C         -2.2937040204       -1.3317600223       -0.6573422062
 C         -1.7488981966       -0.8589858322        1.6339004303
 C         -0.4239270841       -1.8029945534       -1.5211006665
 C         -3.8694213577       -0.7648048855        0.8011953902
 H         -1.0940114683       -0.7690411907        2.4886692296
 H          0.3169343313       -2.1184156176       -2.2296121701
 H         -4.9119265689       -0.5700934233        1.0110944768
 P         -0.4318419511        2.0000583632       -0.6488277667
 O          1.2726500504       -0.9063138753        1.5907295071
 O          4.2052964895       -0.0146818531        0.6092634637
 O          3.2844613795       -1.9600421658       -0.8637945491
 O         -0.1022070019        1.2837036045        0.7163425643
 O          0.7178058960        1.5255027595       -1.6307125924
 O         -0.0879260030        3.5372454754       -0.4357517115
 O         -1.8047351228        1.7157102218       -1.0801601464
 C          2.8771337240        0.2069957054        0.2183027435
 C          2.0022751851        0.3128096282        1.4778036684
 C          2.3094840756       -1.0167164211       -0.5582718780
 C          1.2079204563       -1.5865711146        0.3774000641
 C          1.0595720069        1.5264125767        1.5049360280
 H          2.7892916943        1.1130160582       -0.3844294663
 H          2.6561174168        0.3667073732        2.3556857836
 H          1.8650378961       -0.6919734406       -1.4999956786
 H          1.3995937110       -2.6511285176        0.5827423389
 H          1.5770437920        2.4240305878        1.1642738721
 H          0.6925071931        1.6698526216        2.5233398127
 H          4.8100313801        0.2234914710       -0.1091530691
 H          3.9418955871       -1.9711518536       -0.1427320373
 H          0.6443944285        1.9175877008       -2.5092267169
 H         -0.8564336856        4.1007510005       -0.2983536752
  35
        -70.95426501
 N         -0.0192623061       -1.5489640410       -0.1802684309
 N         -1.4640794652       -1.4984712225       -1.8970787798
 N         -3.4290532332       -0.8855724324       -0.6175360053
 N         -3.0279466151       -0.5947655164        1.7121501330
 C         -1.2384718159       -1.1938539992        0.3439035426
 C         -2.1392758318       -1.1667735114       -0.7582985986
 C         -1.7445396057       -0.8944257338        1.5941657149
 C         -0.2371589858       -1.7017154638       -1.5150222720
 C         -3.7841919774       -0.6006948490        0.6186671468
 H         -1.1460401908       -0.8874550052        2.4941675491
 H          0.5291882389       -1.9837113430       -2.2081765247
 H         -4.8261736864       -0.3539296076        0.7665878124
 P         -0.6253363275        2.0390140335       -0.5142958281
 O          1.3165432716       -0.8178879854        1.6188188803
 O          3.9593447755        0.3010309040       -0.4704533657
 O          3.5735618462       -2.1975222649        0.4498149647
 O         -0.0046960626        1.3614304367        0.7687976510
 O          0.2126379081        1.4349581360       -1.7139749023
 O         -0.1514137727        3.5562790901       -0.4933886046
 O         -2.0784145748        1.8451268963       -0.5660992529
 C          2.6580890028       -0.1157914346       -0.2254247169
 C          2.1282847645        0.2715820021        1.1760377168
 C          2.4764146388       -1.6491605570       -0.2246556225
 C          1.1877028156       -1.7761305208        0.6089198228
 C          1.3351022582        1.5835579805        1.2094705479
 H          2.0285360035        0.3301108867       -0.9987996964
 H          2.9710880354        0.3591665538        1.8722844535
 H          2.3837526260       -2.0567936887       -1.2325488522
 H          1.0930878542       -2.7478058814        1.1113289317
 H          1.8307484378        2.3327552977        0.5902556103
 H          1.2540007905        1.9362968066        2.2393908483
 H          4.5691992322       -0.2868068816        0.0080914071
 H          3.6106950762       -3.1574689869        0.3361233290
 H          0.0613802593        1.8727872980       -2.5603838813
 H         -0.8271984122        4.1770507730       -0.2014035554
  35
        -70.95424911
 N         -0.0740395986       -2.0356911976        0.5778638033
 N         -1.9177425738       -2.1284905933        1.8595349546
 N         -3.4874233974       -1.3441472542        0.2096121411
 N         -2.5535112780       -0.8896429824       -1.9221276107
 C         -1.1136167468       -1.6061048994       -0.2177615729
 C         -2.2717242317       -1.6763708738        0.6215105562
 C         -1.3324702770       -1.2021464695       -1.5252342538
 C         -0.6364404432       -2.3193382431        1.7891537013
 C         -3.5486815023       -0.9561669981       -1.0477110476
 H         -0.5712311606       -1.1215044761       -2.2872708395
 H         -0.0381762853       -2.6637040869        2.6098931814
 H         -4.5246705426       -0.6737354528       -1.4156678881
 P         -0.2233704033        2.6071762817       -0.0685077787
 O          1.9711314056       -1.2292429526        1.3922379406
 O          2.9571384247        0.6986173556       -1.2042625266
 O          3.1462674493       -1.9792368280       -1.2296070760
 O          0.8478063964        2.2493795220        1.0869853691
 O          0.6134607183        2.9739852864       -1.3378323619
 O         -0.7858315520        4.0048151545        0.3897072066
 O         -1.2019147215        1.5274347363       -0.2772824994
 C          1.8735366094        0.0324775009       -0.6305472522
 C          2.0041969288        0.1095715665        0.9058536913
 C          1.8771890513       -1.4961644291       -0.9158618368
 C          1.3744681702       -2.0550230271        0.4237561750
 C          0.8966784157        0.9299857900        1.5792575613
 H          0.9180141775        0.4670268757       -0.9522020239
 H          2.9777029720        0.5401064318        1.1624979542
 H          1.2419172884       -1.7876673440       -1.7498427504
 H          1.7311706775       -3.0744714054        0.6083326769
 H          1.0932580264        0.9892909774        2.6518818565
 H         -0.0719563899        0.4491045262        1.4126363341
 H          2.9300487961        0.6174064847       -2.1689739730
 H          3.8031907070       -1.6303456221       -0.6068093414
 H          1.1013412534        3.8062547368       -1.2801158172
 H         -1.4652253496        3.9975082408        1.0724737878
  35
        -70.95419249
 N         -0.7454926859       -2.3635441681        0.5731126647
 N         -1.8047083088       -4.2928213309        0.9922843462
 N         -3.8396140754       -3.7802515343       -0.2231514402
 N         -3.8589982186       -1.6307208076       -1.2473245224
 C         -1.9614678625       -2.2744538623       -0.0534033327
 C         -2.6197418912       -3.5104153468        0.2270033754
 C         -2.6456987940       -1.3384050357       -0.8056269850
 C         -0.7268762379       -3.5856788173        1.1688787500
 C         -4.3797345865       -2.8152296416       -0.9417211505
 H         -2.2501463278       -0.3632902238       -1.0543733823
 H          0.1179525764       -3.9314022936        1.7316527121
 H         -5.3706580952       -3.0080526841       -1.3273317034
 P          1.9126816409        3.6593163975        0.2337674825
 O         -0.2320431758       -0.1323059979        0.8703643306
 O          2.7842476317        0.2817628118       -0.6446044743
 O          1.9699197971       -2.1273618046       -1.0953029922
 O          0.3593199350        3.3218678375        0.4934859820
 O          2.6804682544        3.2814525873        1.5467212775
 O          1.9114900399        5.2281954503        0.2563187380
 O          2.4683034995        3.0033681733       -0.9621115366
 C          1.3987911151        0.2571062895       -0.8385557335
 C          0.6266422467        0.8777417656        0.3562778946
 C          0.9458842467       -1.2224480567       -0.8586563600
 C          0.3028784184       -1.3914718795        0.5457873755
 C         -0.2187020869        2.1140903111        0.0405963656
 H          1.1367992008        0.7589720409       -1.7752968880
 H          1.3650523655        1.1446444782        1.1272206800
 H          0.1702884270       -1.3784757196       -1.6172104746
 H          1.0765108199       -1.7015165501        1.2653422537
 H         -1.1671583267        2.0247051290        0.5762541956
 H         -0.4079633010        2.1831621241       -1.0339212596
 H          3.0916407284        1.1900318552       -0.8145990232
 H          2.8174841946       -1.6725720935       -0.9297886475
 H          2.4867783857        3.8290949964        2.3184894674
 H          1.5813748682        5.6721591142       -0.5324014941
  35
        -70.95418157
 N         -1.4999850076       -1.2871544871        0.7888899775
 N         -3.6945124525       -0.9983900829        0.4474353224
 N         -4.1571902455       -3.2302494742       -0.3833458519
 N         -2.2526798353       -4.6584026152       -0.4723015216
 C         -1.9691476059       -2.4788673238        0.3019942584
 C         -3.3663966302       -2.2734998185        0.0910960757
 C         -1.4426948969       -3.7208634225       -0.0055306424
 C         -2.5769933094       -0.4631184693        0.8512778012
 C         -3.5406301783       -4.3690018464       -0.6324184059
 H         -0.3969836508       -3.9741667477        0.1034646715
 H         -2.4926205795        0.5408375377        1.2161106964
 H         -4.1581595651       -5.1683293458       -1.0169201351
 P          2.1898864634        3.3974921275       -0.6635123872
 O         -0.0108823325        0.3353663004        1.5607479085
 O          2.9024373425       -0.2135876213        0.5744530424
 O          1.5835225464       -2.4007287401        0.0930470818
 O          0.8116489702        2.7074258717       -1.1430649341
 O          1.8176743589        4.3557730014        0.5354517128
 O          2.5211623409        4.2751109352       -1.9163838772
 O          3.2700547182        2.4804973316       -0.2810937118
 C          1.6906633667        0.0490949118       -0.0745580923
 C          0.8261888552        1.0719866780        0.6774670276
 C          0.8377840931       -1.2385544955       -0.0384434061
 C         -0.1275220098       -0.9968979703        1.1597564921
 C          0.0004432000        1.9427475169       -0.2714529874
 H          1.8704488303        0.3771332379       -1.1038844259
 H          1.4491739579        1.7210770666        1.3010839862
 H          0.2462283123       -1.3287833269       -0.9568040807
 H          0.1453067696       -1.6538657780        1.9990401084
 H         -0.6323932488        2.6053913174        0.3254128527
 H         -0.6292699296        1.3227174729       -0.9159944018
 H          3.4811942273        0.5568307041        0.4525909433
 H          2.4392313840       -2.1685998994        0.4988321648
 H          1.3513413465        5.1803602458        0.3472072906
 H          1.8021185067        4.4703337741       -2.5316953950
  35
        -70.95413318
 N         -1.8942789910       -1.2553433221        0.2007825711
 N         -3.6579255664       -1.5929504231       -1.1354347786
 N         -4.1115032428       -3.8753168341       -0.4466484401
 N         -2.6124734642       -4.7201741281        1.1997254020
 C         -2.3149110850       -2.5358949881        0.4445840603
 C         -3.4390486316       -2.7306635575       -0.4139645621
 C         -1.9251030776       -3.5896879642        1.2495410561
 C         -2.7331142147       -0.7620700002       -0.7492426028
 C         -3.6502640837       -4.8003815510        0.3731904522
 H         -1.0793346490       -3.5569207876        1.9224961249
 H         -2.6302354579        0.2376123591       -1.1213772999
 H         -4.1789615573       -5.7428739167        0.3703015932
 P          2.7854401166        3.2441394341       -0.8113054200
 O         -0.8997523873        0.7774169363        0.6598656039
 O          2.5996289393        0.2850995515        0.6905888642
 O          1.2245598848       -1.9332912860        0.9751561457
 O          1.5487399317        3.4213389715        0.2171293018
 O          3.9497892030        2.6111340237        0.0425280808
 O          3.2851227500        4.7080649721       -1.0366915658
 O          2.4063562056        2.5473578527       -2.0498149933
 C          1.3576290221        0.3391508434        0.0552475587
 C          0.3929805285        1.3587463970        0.7061034017
 C          0.5849012281       -1.0102277660        0.1451944710
 C         -0.7614354605       -0.6093781848        0.8008844839
 C          0.3508088915        2.7110289932       -0.0020295259
 H          1.5444324692        0.6131573964       -0.9856562682
 H          0.6954246384        1.5175102762        1.7527721816
 H          0.3983204363       -1.4197656189       -0.8529998654
 H         -0.7218264046       -0.9040853571        1.8640252327
 H         -0.4597835055        3.3138599108        0.4118189152
 H          0.1951719677        2.5622181903       -1.0741528686
 H          2.5282112791       -0.2958733548        1.4717046034
 H          1.9383179500       -2.3794044075        0.4946219319
 H          3.7931444889        1.6872495838        0.3021800673
 H          3.5642972187        5.1782079091       -0.2401539416
  35
        -70.95408748
 N         -0.9417371310       -1.1397277168        0.6013409458
 N         -2.9905887655       -0.3454662307        0.1641569772
 N         -4.1248841031       -2.4863071416        0.0856624600
 N         -2.7102164276       -4.3632741527        0.4640875016
 C         -1.7624573073       -2.2324630413        0.5157010439
 C         -3.0609452128       -1.7059336016        0.2370072680
 C         -1.6357735089       -3.6047227717        0.6185306267
 C         -1.7374516989       -0.0602860958        0.3759726740
 C         -3.8746351528       -3.7754436494        0.2111793487
 H         -0.7050284365       -4.1180915447        0.8164108337
 H         -1.3476770107        0.9386057699        0.3744155915
 H         -4.7208833721       -4.4370705382        0.0931462266
 P          0.9515170752        3.0944785802       -1.1693203007
 O          0.7908532545       -0.1842411629        1.8346190335
 O          3.4735347089       -1.0297028336        0.5463283045
 O          1.6609809971       -1.9320768674       -1.1417723011
 O          0.6032208289        2.1443326458        0.0530159343
 O          2.4502029573        2.7179755460       -1.5009659386
 O          1.0883080657        4.5572577069       -0.5687727992
 O         -0.0242533041        2.9455690618       -2.2549298699
 C          2.5173545588       -0.0604316335        0.2042250922
 C          1.9030550151        0.6233227777        1.4375528921
 C          1.3149716030       -0.8099958661       -0.4034501061
 C          0.4744680774       -1.1405904020        0.8592884338
 C          1.4632726290        2.0700262977        1.1900164819
 H          2.9209143369        0.6699232915       -0.4996995417
 H          2.6037505409        0.6190890998        2.2796326989
 H          0.7364455823       -0.1433863782       -1.0523928409
 H          0.7333022137       -2.1460571396        1.2234904865
 H          2.3348739474        2.7076051133        1.0424061842
 H          0.8893310102        2.4113511459        2.0543426537
 H          4.3362626927       -0.6194112535        0.6987854560
 H          2.4847340562       -2.2975322582       -0.7676778944
 H          2.8007427650        3.1492812923       -2.2888165005
 H          0.3163685401        5.1187717892       -0.6948886068
  35
        -70.95401880
 N         -0.1522787140       -1.6916325445        0.6563204018
 N         -2.2013992583       -2.1931974299        1.4266507527
 N         -3.4554959968       -1.2411215820       -0.4047352773
 N         -2.1279168893       -0.2578560562       -2.1120661390
 C         -1.0392968357       -1.2025530234       -0.2704868124
 C         -2.3343174493       -1.5396845068        0.2363953834
 C         -0.9976522278       -0.5429309048       -1.4827917902
 C         -0.9214142117       -2.2356840606        1.6398994391
 C         -3.2760269885       -0.6047373939       -1.5462521042
 H         -0.0909606234       -0.2311002371       -1.9801889203
 H         -0.4858142588       -2.6826657342        2.5122600321
 H         -4.1717510736       -0.3427319227       -2.0908966913
 P         -0.6632560132        2.1590231025        0.4192861749
 O          1.5684275063       -0.2397116280        1.2739748241
 O          3.9483226485       -0.3201798583       -1.2331974926
 O          3.0416986819       -2.6434975628       -0.4771393783
 O          0.6965292657        1.9570017661       -0.4285652196
 O         -1.7062021144        2.3747798221       -0.7320981008
 O         -0.4655396355        3.5361615095        1.1792441502
 O         -1.0376044447        1.1032604512        1.3581756316
 C          2.5940457471       -0.2741592610       -0.8927248474
 C          2.4490689496        0.4899984929        0.4352542816
 C          2.0294445153       -1.6902528158       -0.5849102919
 C          1.2767676062       -1.5158839961        0.7575740036
 C          1.9355393887        1.9185436798        0.2670837000
 H          1.9969410737        0.2193622376       -1.6645626622
 H          3.4361750817        0.5375421790        0.9180464431
 H          1.3346294106       -2.0382832893       -1.3554173975
 H          1.6285741710       -2.2753881444        1.4713463805
 H          2.6495603017        2.4910957761       -0.3291225198
 H          1.8171475275        2.3600029130        1.2587235602
 H          4.0573706066       -0.5194941786       -2.1751976447
 H          3.8998806883       -2.1813626307       -0.4056214242
 H         -1.4786137613        3.0015541710       -1.4323977445
 H         -0.3292346620        4.3403201672        0.6605441311
  35
        -70.95401569
 N         -0.8505320644       -2.2797324083       -0.1120748556
 N         -1.7163920994       -4.0048177581       -1.2483494225
 N         -4.0012982389       -3.7443673118       -0.4776293892
 N         -4.3264810635       -1.9401644552        1.0426415306
 C         -2.1833257379       -2.3109494645        0.2027234645
 C         -2.7164391831       -3.4109137359       -0.5348322906
 C         -3.0510516713       -1.5876688966        0.9996303763
 C         -0.6476442668       -3.3148780021       -0.9716723444
 C         -4.7258933109       -2.9785749544        0.3145544045
 H         -2.7459374772       -0.7392554378        1.5947594121
 H          0.3243678538       -3.5388917370       -1.3663939158
 H         -5.7759777097       -3.2252179283        0.3826548528
 P          2.0486756046        3.6502993813        0.0396171145
 O         -0.4596643085       -0.1212833791        0.6257114734
 O          2.8159710322        0.0535953011        0.7838595507
 O          2.2629574331       -2.0742704843       -0.6495930214
 O          0.4962932530        3.3229312894        0.1797100189
 O          2.0903767836        5.1471396784        0.4881019617
 O          2.2702177636        3.5947535350       -1.5333050925
 O          2.9862585618        2.8109059225        0.8046491947
 C          1.7776690763        0.2811840458       -0.1266225037
 C          0.5289214571        0.9039342853        0.5354398187
 C          1.2816788655       -1.0968675495       -0.6125891917
 C          0.1407015948       -1.3714283333        0.3969037222
 C         -0.0682746104        2.0902523765       -0.2217992917
 H          2.1240484558        0.8989436659       -0.9621347234
 H          0.7890623355        1.2369511297        1.5498425184
 H          0.8449295398       -1.0153774414       -1.6139223691
 H          0.5633004725       -1.7764012838        1.3337151882
 H         -1.1303407582        2.1591761879        0.0247529778
 H          0.0513509487        1.9587897291       -1.3001742087
 H          3.2081585479        0.9150594279        1.0149282519
 H          2.9389578372       -1.8546361334        0.0172657277
 H          1.4119386666        5.7278206554        0.1193495496
 H          3.1704655815        3.7566771401       -1.8387091594
  35
        -70.95401452
 N         -0.9856334196       -1.0024698229       -0.2438425696
 N         -2.7144001822       -1.0818890820       -1.6624888150
 N         -3.9129497360       -2.8807562807       -0.5589777413
 N         -2.8403463574       -3.7202261925        1.3956970291
 C         -1.8130231665       -1.9890342316        0.2226214734
 C         -2.9057808999       -2.0254941402       -0.6956351025
 C         -1.8236407253       -2.8796686611        1.2796133363
 C         -1.5846759566       -0.5092065362       -1.3588017398
 C         -3.8107491129       -3.6766948942        0.4882302849
 H         -1.0425334842       -2.9370886679        2.0250101365
 H         -1.1482795205        0.2965128771       -1.9130501293
 H         -4.6161075745       -4.3839731100        0.6263974076
 P          0.7387662381        3.2316206926       -0.0346163439
 O          0.7442599178        0.5273679601       -0.3332813360
 O          3.7254638158       -1.1018590011        0.7363396999
 O          1.4717886833       -2.3215815469        1.4864031672
 O          2.1667639496        2.9207591880       -0.7168605096
 O         -0.3914555166        2.8829735855       -1.0692319841
 O          0.7884102281        4.8087145397       -0.1255043388
 O          0.5404273168        2.7068872717        1.3256914626
 C          2.6438307125       -0.8322520402       -0.0917540591
 C          2.1171815935        0.6152279273        0.0071410918
 C          1.3700791875       -1.6710287854        0.2563276500
 C          0.2547889757       -0.5935096193        0.3468436387
 C          2.7404897603        1.6397145595       -0.9153936750
 H          2.9784624098       -1.0459138502       -1.1093208521
 H          2.2040261529        0.9694495139        1.0453815882
 H          1.1321855378       -2.3778723455       -0.5488633556
 H          0.0856152737       -0.3626795672        1.4141379988
 H          2.5762665233        1.3432883156       -1.9557655064
 H          3.8093869070        1.7358029275       -0.7120285519
 H          3.4657809189       -0.9903569982        1.6655925575
 H          2.1613699864       -3.0035835087        1.4369271128
 H         -0.4374660879        3.5098855204       -1.8034744997
 H          1.3095513248        5.2453292798        0.5557328594
  35
        -70.95401224
 N         -0.6887667976       -2.3970131229        0.4260792140
 N         -1.7112425810       -4.3857033066        0.5796511783
 N         -3.8407050129       -3.6940156342       -0.3485963541
 N         -3.9465368558       -1.3981529927       -0.9680934020
 C         -1.9522063658       -2.2154397651       -0.0732805756
 C         -2.5864072619       -3.4910326392        0.0367586534
 C         -2.6996753498       -1.1720642900       -0.5851149340
 C         -0.6218699805       -3.7061529021        0.7895207532
 C         -4.4404265184       -2.6252452980       -0.8355657445
 H         -2.3287307423       -0.1619559588       -0.6843166704
 H          0.2669036654       -4.1343675583        1.2098839157
 H         -5.4613288429       -2.7612131969       -1.1627253199
 P          1.8551878486        3.6352141139        0.3218686565
 O         -0.1122049116       -0.2156704958        0.9699701384
 O          2.9177038719        0.0393982805       -0.1965857579
 O          1.8746754471       -2.0619383617       -1.3750868162
 O          0.5163916933        3.1246878074       -0.4141272971
 O          1.4921130629        3.8459317584        1.8434782315
 O          2.0295559964        5.0432630263       -0.3386033286
 O          3.0314359029        2.7663953219        0.1832208613
 C          1.6055406327        0.2693079863       -0.6301894864
 C          0.7021833574        0.8471893896        0.4795812155
 C          0.9797171774       -1.1109234263       -0.9140808663
 C          0.3745882111       -1.4413260368        0.4769555243
 C         -0.2024037255        1.9783284370       -0.0023248648
 H          1.5990749018        0.9153998808       -1.5152995626
 H          1.3285555667        1.2198717380        1.3012114766
 H          0.1661983314       -1.0331906390       -1.6432464442
 H          1.1638699401       -1.8482423367        1.1279297874
 H         -0.8894299016        2.2365286595        0.8083884448
 H         -0.7764017717        1.6599170791       -0.8767284983
 H          3.3401267364        0.9032469956       -0.0397828103
 H          2.7598111260       -1.8357675580       -1.0351359988
 H          0.9500715343        4.6065912798        2.0884178160
 H          1.2806324299        5.4025509684       -0.8320797485
  35
        -70.95399116
 N         -0.9270589671       -1.0553317921       -0.3047174448
 N         -2.5764747748       -1.2407584336       -1.8058029153
 N         -3.9149348369       -2.8438215990       -0.5693053618
 N         -2.9825143343       -3.4925954866        1.5247923249
 C         -1.8214475892       -1.9472630601        0.2238697780
 C         -2.8636324506       -2.0515471507       -0.7464289934
 C         -1.9232340583       -2.7131198050        1.3699788337
 C         -1.4403165249       -0.6797361025       -1.5052949944
 C         -3.9047889196       -3.5130925055        0.5675279825
 H         -1.1803897606       -2.7226742371        2.1557600233
 H         -0.9384850984        0.0329735398       -2.1273614506
 H         -4.7495969945       -4.1641145636        0.7417878131
 P          0.6875181980        3.1935557730       -0.0052072415
 O          0.7733089762        0.5100420342       -0.3564885473
 O          3.7756980784       -1.0703985033        0.7310439047
 O          1.5314806030       -2.3273032409        1.4593003715
 O          2.1258757371        2.9346346366       -0.6874709824
 O         -0.4327806856        2.8284233304       -1.0442171347
 O          0.6915577994        4.7729706312       -0.0759821394
 O          0.5009310992        2.6467270221        1.3482079198
 C          2.6954196775       -0.8135538473       -0.1026300425
 C          2.1380371155        0.6217266885        0.0087498716
 C          1.4351352690       -1.6800763519        0.2269077285
 C          0.2957581965       -0.6265255419        0.3057583504
 C          2.7498580428        1.6768701521       -0.8862611694
 H          3.0413588144       -1.0084585088       -1.1201686313
 H          2.1998549014        0.9600409113        1.0540339185
 H          1.2227636137       -2.3905123169       -0.5816552499
 H          0.1028550172       -0.4084946450        1.3710870213
 H          2.6211013578        1.3895671167       -1.9341463100
 H          3.8096060454        1.8063927181       -0.6555297548
 H          3.4993268021       -0.9965321659        1.6593617343
 H          2.1968977101       -3.0321583535        1.4079516081
 H         -0.4902820423        3.4552178070       -1.7775101333
 H          1.2009593578        5.2163675611        0.6096780180
  35
        -70.95398733
 N         -1.7297968120       -1.2523595549        0.4226302639
 N         -3.4003883768       -1.2810331670       -1.0688048972
 N         -4.0774135750       -3.5821376338       -0.7055112458
 N         -2.7877356339       -4.7375676202        0.9296459187
 C         -2.2624648840       -2.5131359782        0.4720440751
 C         -3.3253026032       -2.5104660293       -0.4821280183
 C         -2.0233505494       -3.6835672170        1.1684734857
 C         -2.4509960487       -0.5830747982       -0.5140111418
 C         -3.7559200430       -4.6326070069        0.0244325949
 H         -1.2390991380       -3.8001527876        1.9038821460
 H         -2.2510097404        0.4429198366       -0.7504898176
 H         -4.3511129338       -5.5206604971       -0.1330042408
 P          2.6027157567        3.2665562685       -0.7218634912
 O         -0.5764183061        0.6191458121        1.1894363393
 O          2.5524609346       -0.0389765883       -0.4080885922
 O          1.6444088087       -1.5336817113        1.5819863748
 O          1.1246720791        3.4413052032       -0.1033338863
 O          3.5422050488        2.8571718780        0.4602704749
 O          3.0223872420        4.7463440740       -1.0277200229
 O          2.6319064266        2.3100740495       -1.8441220000
 C          1.1645327510       -0.0331794525       -0.2806313891
 C          0.5867568581        1.1378816525        0.5438387934
 C          0.7377854543       -1.2538656177        0.5596898178
 C         -0.5896627361       -0.7793451366        1.1809048688
 C          0.1929592504        2.3896212863       -0.2472704238
 H          0.6695340267       -0.0728934489       -1.2612277434
 H          1.3197931677        1.4210846993        1.3123559784
 H          0.5836756000       -2.1421954780       -0.0697442641
 H         -0.6797776260       -1.1589428954        2.2076817635
 H         -0.7462300473        2.7725193680        0.1577641762
 H          0.0780987822        2.1475526565       -1.3077492772
 H          2.8168369581        0.6678624190       -1.0263532742
 H          2.5414514380       -1.3750474441        1.2396067147
 H          3.7391621033        3.5517401347        1.1016670218
 H          2.6532720747        5.1481708560       -1.8216024230
  35
        -70.95397305
 N         -0.2208445915       -2.3858222485       -0.0341990716
 N         -1.6113305965       -4.1431287418        0.1114148235
 N         -3.6817300704       -2.9140852415       -0.0321458115
 N         -3.4295702995       -0.5638282125       -0.2580323733
 C         -1.4948236047       -1.8703129187       -0.1003585087
 C         -2.3587200148       -3.0087808788       -0.0060043755
 C         -2.1071150204       -0.6357632828       -0.2448192769
 C         -0.3795739701       -3.7322914097        0.0989033860
 C         -4.1361353922       -1.6824856979       -0.1490213437
 H         -1.5887118237        0.3063067613       -0.3652775363
 H          0.4600178134       -4.3947773120        0.1797263703
 H         -5.2104631664       -1.5673756350       -0.1635328901
 P          0.5017726643        3.2471934931        0.0757490821
 O          1.2496851471       -1.1358515621        1.2835729279
 O          3.5095375033       -0.0681919388       -0.5408189192
 O          1.7928840042       -1.1129899457       -2.2365944806
 O          1.0813913651        2.5210942544        1.4005016619
 O          1.7737145589        3.7798927088       -0.6648276733
 O         -0.1594754349        4.5695525981        0.6203653560
 O         -0.3560898052        2.3584964174       -0.7216706268
 C          2.1925149367        0.3570665429       -0.3069766973
 C          1.7831345533        0.1818191407        1.1646018601
 C          1.2638814006       -0.6254079935       -1.0496762935
 C          1.0568254148       -1.7277656151        0.0157682566
 C          0.7229467244        1.1801555343        1.6540885643
 H          2.0342100318        1.3783019646       -0.6581888744
 H          2.6671433808        0.2321844268        1.8094694504
 H          0.3173717079       -0.1372613285       -1.2895629248
 H          1.8129681153       -2.5140476286       -0.1321674708
 H          0.6039548445        1.0756163084        2.7341002114
 H         -0.2239608345        0.9476363064        1.1627702789
 H          4.1394047417        0.6424505468       -0.3588546916
 H          2.7635883265       -1.1464395255       -2.1463437620
 H          2.2157539393        4.5280079725       -0.2410247753
 H         -1.0744345688        4.5079387290        0.9154796262
  35
        -70.95397262
 N         -1.6708284118       -1.2577382466        0.5799220239
 N         -3.4925355340       -1.0967194859       -0.7131093322
 N         -4.1012948140       -3.4442482911       -0.6550568004
 N         -2.6339511517       -4.8064089533        0.6343557782
 C         -2.1824306393       -2.5245637278        0.4834836569
 C         -3.3415212302       -2.4007729910       -0.3421305927
 C         -1.8603981544       -3.7824581679        0.9590110940
 C         -2.4960280588       -0.4693052891       -0.1564048000
 C         -3.6924395870       -4.5874717804       -0.1397771103
 H         -1.0040094197       -3.9909616845        1.5855952025
 H         -2.3329798237        0.5861717196       -0.2450423871
 H         -4.2902029000       -5.4561362475       -0.3760285157
 P          2.4727681442        3.2749878737       -0.8098772325
 O         -0.4063754584        0.5075462174        1.4286339441
 O          2.4947696057       -0.0121722516       -0.5882468837
 O          1.8045047086       -1.6544538965        1.3811351481
 O          1.1287219655        3.4131385360        0.0687968553
 O          3.6056836607        2.8180235379        0.1667824625
 O          2.8346843035        4.7707475108       -1.1162257733
 O          2.3031138882        2.3719991866       -1.9631960487
 C          1.1308153443       -0.0202613939       -0.3002957083
 C          0.6614351410        1.0830478050        0.6735320102
 C          0.7946818257       -1.3037764830        0.4855172814
 C         -0.4561977841       -0.8806397787        1.2769142994
 C          0.1653363456        2.3814645266        0.0287684784
 H          0.5256162630        0.0156426990       -1.2167366120
 H          1.4857183370        1.3219752612        1.3600765789
 H          0.5721431655       -2.1425964646       -0.1895434658
 H         -0.4609882321       -1.3606589500        2.2646213294
 H         -0.6833011408        2.7517670543        0.6081171798
 H         -0.1328794050        2.1999618413       -1.0078983375
 H          2.6773253271        0.7056487001       -1.2216404206
 H          2.6604560035       -1.4674093650        0.9578835097
 H          3.9003404393        3.4750003732        0.8103495486
 H          2.3191225641        5.2120087504       -1.8000276600
  35
        -70.95395892
 N         -0.4085972524       -2.6615610353        0.2421389309
 N         -1.6867318419       -4.5024189352        0.2234399275
 N         -3.7834051718       -3.4011921375       -0.2916101814
 N         -3.6224037979       -1.0381728766       -0.5270088152
 C         -1.6820310030       -2.2387941618       -0.0415366016
 C         -2.4783750447       -3.4247892511       -0.0489805587
 C         -2.3205864254       -1.0379160983       -0.2876757126
 C         -0.4942018678       -4.0113368054        0.3903120446
 C         -4.2723882172       -2.1977048027       -0.5185150647
 H         -1.8203553912       -0.0792194077       -0.2946831073
 H          0.3636259187       -4.6134596014        0.6175859191
 H         -5.3324825111       -2.1446582508       -0.7211239253
 P          1.1806946117        3.6352769820        0.0992304828
 O          0.5240653374       -0.8343012523        1.3043089436
 O          2.3926473965        0.9548499998       -1.0775073750
 O          2.3987407046       -1.6331774680       -1.4373206354
 O          1.3445127359        2.7010384086        1.4073067159
 O          2.5956370481        3.7282451115       -0.5504956265
 O          0.9998959733        5.0782814062        0.7214151127
 O          0.1108724874        3.1904684059       -0.8062732087
 C          1.2198941293        0.3508184268       -0.6181748183
 C          1.2207483870        0.3355835783        0.9196672245
 C          1.1698910586       -1.1605852171       -0.9837312385
 C          0.7665449597       -1.8484962932        0.3529198777
 C          0.5480719604        1.5473008472        1.5565679762
 H          0.3304010801        0.8666055076       -0.9874092543
 H          2.2665601523        0.2892629393        1.2597283340
 H          0.4129913914       -1.3667817347       -1.7496318273
 H          1.5932426209       -2.4994399240        0.6756103051
 H          0.4358620927        1.3739307347        2.6285309837
 H         -0.4333752339        1.6998306714        1.0998202550
 H          2.2612640878        1.3117540599       -1.9671209688
 H          3.0494356481       -0.9058024854       -1.3653359869
 H          3.2970330410        4.0772176155        0.0133772899
 H          0.1142278248        5.3101474253        1.0190450945
  35
        -70.95395372
 N         -0.6613161753       -1.3317761084       -0.3931379876
 N         -2.0758954761       -1.8465005445       -2.0525344023
 N         -3.9188152048       -2.5670829610       -0.6510502023
 N         -3.4897538948       -2.4272421400        1.6865046176
 C         -1.8122621144       -1.7638748998        0.2098948115
 C         -2.6963767060       -2.0937179467       -0.8616383364
 C         -2.2657685405       -1.9586103346        1.5010419541
 C         -0.8976149124       -1.3991541796       -1.7322438915
 C         -4.2374789327       -2.6998565217        0.6218961148
 H         -1.6812198094       -1.7519198163        2.3870244318
 H         -0.1624140129       -1.0968464326       -2.4511528415
 H         -5.2276240441       -3.0806257621        0.8274656906
 P          0.4257644886        2.9877712717        0.1575810839
 O          0.8542352482        0.4037509713       -0.3492604633
 O          4.0473755544       -0.8988672751        0.5448177339
 O          1.9780571113       -2.4149478197        1.2765677107
 O          1.8429768489        2.9530309894       -0.6103662823
 O         -0.7059640789        2.5158656747       -0.8236735479
 O          0.2167064035        4.5564341582        0.1467343195
 O          0.3870643996        2.3822279975        1.4982197261
 C          2.9143845275       -0.7108941292       -0.2352972717
 C          2.2073864941        0.6433027654       -0.0095891231
 C          1.7700470442       -1.7321821858        0.0765838424
 C          0.5181657484       -0.8279743354        0.2373192683
 C          2.6599365143        1.8179261043       -0.8491407994
 H          3.2389857049       -0.7996323353       -1.2745271367
 H          2.2656861820        0.9171618023        1.0544410667
 H          1.6196834862       -2.4264680547       -0.7580139842
 H          0.3139514290       -0.7054568045        1.3127526937
 H          2.5850224021        1.5648575575       -1.9109710124
 H          3.6853819550        2.0979648897       -0.5983113262
 H          3.7915608798       -0.9656206691        1.4799434982
 H          2.6707550217       -3.0839773038        1.1594020375
 H         -0.8182417504        3.0853101013       -1.5959792308
 H          0.7093532523        5.0447838892        0.8136459081
  35
        -70.95392202
 N         -0.8643333849       -0.8836387629        0.5413532623
 N         -2.8874410252       -0.1990905320       -0.1294364565
 N         -3.8803304237       -2.3991594806       -0.3627818935
 N         -2.4258588922       -4.1976415721        0.2046439057
 C         -1.6066584148       -2.0206989352        0.3524864147
 C         -2.8882184725       -1.5618417189       -0.0796694753
 C         -1.4200728650       -3.3845014850        0.4893612607
 C         -1.6912354710        0.1535226326        0.2483478115
 C         -3.5776086832       -3.6727500159       -0.2011920949
 H         -0.4945530703       -3.8381963104        0.8170982724
 H         -1.3655516662        1.1710442806        0.3305532117
 H         -4.3645681462       -4.3794149919       -0.4237536247
 P          0.7915766238        3.3372064950       -0.4856343208
 O          1.0164131179        0.4748993790        0.9258175880
 O          3.6623722451       -0.9909091298        0.7601775991
 O          1.8242669075       -2.8935098480        0.9079063183
 O          0.4440650489        2.0292405852       -1.3426066011
 O         -0.0793877437        3.1646913198        0.8287809594
 O          0.0709967392        4.4596098176       -1.3138449194
 O          2.2187919308        3.6005393535       -0.2569974998
 C          2.6249658643       -0.8335292343       -0.1633609801
 C          1.9763317342        0.5525617027       -0.1241599974
 C          1.4359644565       -1.7639595811        0.1990713642
 C          0.5035819406       -0.8247639571        1.0216066612
 C          1.3375831682        0.9378297704       -1.4618122039
 H          3.0434373649       -1.0753235361       -1.1410124003
 H          2.6763222995        1.3412353751        0.1611797263
 H          0.9131937886       -2.0884071207       -0.7077073681
 H          0.5012453080       -1.1227890064        2.0807202062
 H          0.7292012270        0.1227990168       -1.8630231309
 H          2.1328804378        1.1903433962       -2.1678465477
 H          3.4758787451       -0.4898915799        1.5689872840
 H          2.7487081742       -2.7696811601        1.2012883902
 H          0.3362329116        3.4973902627        1.6301523263
 H         -0.8617800387        4.3164693645       -1.5176632290
  35
        -70.95386608
 N         -0.0463489349       -1.6156034225       -0.0876770133
 N         -1.5725301761       -1.2911567683       -1.6955610431
 N         -3.3998902854       -0.6312072677       -0.2516906216
 N         -2.8636189218       -0.6177429709        2.0650869534
 C         -1.1984882518       -1.2240987718        0.5472369015
 C         -2.1530461733       -1.0186201288       -0.4905084336
 C         -1.6178676112       -1.0089713084        1.8483529319
 C         -0.3475803004       -1.6382769439       -1.4088538618
 C         -3.6720131130       -0.4461919170        1.0247914943
 H         -0.9845275110       -1.1444947248        2.7136131922
 H          0.3525147126       -1.9495695726       -2.1586679836
 H         -4.6765456035       -0.1221367517        1.2562608846
 P         -0.4673494811        2.1332686713       -1.0091089040
 O          1.2994094418       -1.0015377991        1.7234561816
 O          4.2299984691       -0.2756662777        0.9829727664
 O          3.3224421285       -2.2224049116       -0.5739113147
 O          0.3966448958        1.0069348532       -0.2680179478
 O         -1.8467870326        2.1107282752       -0.2212793645
 O         -0.7057058037        1.5028819584       -2.4213531075
 O          0.1817222076        3.4499673557       -1.0426940851
 C          2.9813706708        0.0077495735        0.4323198456
 C          1.8909906759        0.2718780861        1.4880414837
 C          2.4003998215       -1.1945051031       -0.3693793248
 C          1.2650325231       -1.7345593447        0.5348828600
 C          0.8718019533        1.3231952356        1.0375095525
 H          3.1244480726        0.8798447751       -0.2076691204
 H          2.3179077313        0.5944236178        2.4406180417
 H          1.9933603832       -0.8230150680       -1.3169278590
 H          1.4498576070       -2.7891157339        0.7810813602
 H          1.3336191501        2.3137840007        1.0161752999
 H          0.0258796616        1.3337982325        1.7313676297
 H          4.1783087306       -1.0753259190        1.5301804985
 H          4.1340205296       -1.8650231286       -0.9667526959
 H         -2.2809098687        2.9714429363       -0.1967241473
 H         -1.2544346698        0.7041453550       -2.4724656391
  35
        -70.95386333
 N         -0.3465651775       -1.9853253540       -0.2149654715
 N         -1.8766213972       -2.1911853165       -1.8426694508
 N         -3.8399436846       -1.9785104157       -0.4378367827
 N         -3.3641098889       -1.7206683683        1.8797458948
 C         -1.5751673300       -1.9017121659        0.3938642742
 C         -2.5308087848       -2.0224662688       -0.6581561481
 C         -2.0557465351       -1.7588962361        1.6834059208
 C         -0.6117241427       -2.1648704433       -1.5374894896
 C         -4.1716119925       -1.8240239913        0.8289441923
 H         -1.4199509261       -1.6785414475        2.5534293809
 H          0.1527096894       -2.2973642596       -2.2760037093
 H         -5.2304809526       -1.7821018778        1.0409005372
 P          0.6016899894        3.0192126772       -0.7091233173
 O          0.8334081597       -1.0803852240        1.5949441380
 O          3.4224800398        0.5123770166        0.3966302683
 O          3.2862603340       -2.0510917048       -0.0802276780
 O          0.2625919667        2.4381718973        0.7603288479
 O          2.1465422914        3.2699489356       -0.7414738715
 O          0.0123634781        4.4757463370       -0.6412102022
 O          0.1152030303        2.1421248331       -1.7857568397
 C          2.1397767693        0.1181652005        0.0039753612
 C          1.1903024339        0.2403450571        1.2108361203
 C          2.0925297761       -1.3949717462       -0.3700885017
 C          0.9273741916       -1.9351835803        0.4937918318
 C         -0.0591588108        1.0745758884        0.9013578466
 H          1.7723780488        0.7241581603       -0.8294423452
 H          1.7191144086        0.6920742846        2.0561874842
 H          1.9069113886       -1.5390694202       -1.4342666383
 H          1.1561816412       -2.9378721856        0.8782591517
 H         -0.7615572332        0.9975257034        1.7348518627
 H         -0.5348714127        0.7180239635       -0.0184872129
 H          3.9963027301        0.6033243917       -0.3784265471
 H          3.7141960087       -1.6171577848        0.6796301805
 H          2.4606439539        3.9987762671       -0.1900055485
 H         -0.9418798041        4.5589606923       -0.7415621312
  35
        -70.95385936
 N         -0.1764022385       -1.2029800822        0.0894437298
 N         -1.5106401137       -1.0901666853       -1.7116886844
 N         -3.6186759664       -1.2923412031       -0.5316532898
 N         -3.4045688320       -1.4989733493        1.8303667018
 C         -1.4635637217       -1.2919602978        0.5542453098
 C         -2.2948816337       -1.2220702574       -0.6029144142
 C         -2.0822983767       -1.4343999105        1.7806924360
 C         -0.2917218336       -1.0632312783       -1.2607201793
 C         -4.0887043009       -1.4246262536        0.6941592314
 H         -1.5572659251       -1.4920574792        2.7242279050
 H          0.5551359031       -0.9594011789       -1.9080724737
 H         -5.1639847661       -1.4813279279        0.7869383806
 P         -0.4015359783        2.3471920102       -0.6007132603
 O          1.3794361535        0.1270878285        1.2765256202
 O          4.3818794990       -0.7260871549       -0.1365930546
 O          2.9933077710       -2.5594538353        1.1277559057
 O          0.9063292503        1.5367391549       -1.0389995320
 O         -1.0596521432        1.5720831911        0.6066811544
 O         -1.3768227061        2.0375546215       -1.7865731064
 O         -0.1289906393        3.7655665009       -0.2988650109
 C          3.0039136698       -0.5987344419       -0.3311089262
 C          2.4930025425        0.5833084250        0.5191530354
 C          2.2281145547       -1.8248538017        0.2212881356
 C          1.0102145235       -1.1805509229        0.9178672801
 C          2.1076896542        1.8013075083       -0.3252323403
 H          2.7536349988       -0.4314864083       -1.3827991646
 H          3.2811842535        0.8799859069        1.2222951317
 H          1.8959369832       -2.5067264980       -0.5688156656
 H          0.7662436309       -1.7174598221        1.8420800001
 H          2.8908185673        2.0095362756       -1.0571690891
 H          1.9590324952        2.6770854870        0.3096785733
 H          4.7832908473       -1.2445148285       -0.8499780558
 H          3.8305821688       -2.0823019350        1.2860553261
 H         -1.3797240110        2.1945265221        1.2691277601
 H         -1.2727734268        2.5813110165       -2.5758103627
  35
        -70.95385274
 N         -0.1024370370       -1.3568394641        0.9859356001
 N         -2.1575668507       -1.5137501368        1.8794751248
 N         -3.4062818949       -1.1706827419       -0.1569038863
 N         -2.0754116976       -0.8828633334       -2.1021060667
 C         -0.9863038527       -1.1740834805       -0.0512824149
 C         -2.2843000218       -1.2800815194        0.5415474774
 C         -0.9458335138       -0.9844524782       -1.4203760192
 C         -0.8772466860       -1.5341260940        2.0926720574
 C         -3.2260669132       -0.9624236603       -1.4457565752
 H         -0.0394736156       -0.9167968842       -2.0031308126
 H         -0.4444503883       -1.6922060312        3.0611545769
 H         -4.1208295024       -0.8588967856       -2.0427197754
 P         -0.7035421593        2.2675313593        0.0428331751
 O          1.7094973054        0.1270876869        1.1871994760
 O          3.9383666306       -0.8098872665       -1.2953962270
 O          3.1106217294       -2.6415934508        0.2957773063
 O          0.4192861080        1.5231498816       -0.8141314367
 O         -0.9362890623        1.4117945135        1.3468343198
 O         -1.9840677628        1.9917973405       -0.8279093916
 O         -0.3918447888        3.6829714027        0.3168955399
 C          2.6118498063       -0.5721848425       -0.9246260733
 C          2.4659347075        0.5962468146        0.0799737469
 C          2.0843543043       -1.8116417930       -0.1601811760
 C          1.3354204124       -1.2229962982        1.0502778643
 C          1.7802101984        1.8244078147       -0.5257974632
 H          1.9818531729       -0.3797387292       -1.7981140880
 H          3.4583567015        0.8861251082        0.4496390283
 H          1.3978216829       -2.4021280294       -0.7812302151
 H          1.6528536763       -1.7540076695        1.9580819906
 H          2.2579483481        2.1052444907       -1.4664463530
 H          1.8199445440        2.6655508001        0.1694868783
 H          4.2109577350       -0.2261339048       -2.0156600615
 H          3.9229025036       -2.4256884076       -0.1987839207
 H         -1.1148252177        1.9798902400        2.1052710037
 H         -2.2202738418        2.7285248698       -1.4038416794
  35
        -70.95383729
 N         -0.1773431024       -1.5395347634       -0.0525033097
 N         -1.5536565691       -0.6662124685       -1.5899175630
 N         -3.5679504668       -0.6890946165       -0.2381350501
 N         -3.2495463776       -1.5103090021        1.9727398323
 C         -1.4165617920       -1.4517873791        0.5359620153
 C         -2.2766919440       -0.9059773403       -0.4547095975
 C         -1.9596948716       -1.7350437654        1.7749518981
 C         -0.3362119419       -1.0349358587       -1.3024829334
 C         -3.9727402364       -1.0130550741        0.9751976976
 H         -1.3927930005       -2.1221725144        2.6096565039
 H          0.4605414397       -0.9654218225       -2.0153391596
 H         -5.0199594351       -0.8505243563        1.1865249412
 P         -0.1100231228        2.2958156141       -1.0531894918
 O          1.1199610547       -0.8969476283        1.7825019401
 O          3.9555651310        0.1879158979        0.1011172331
 O          3.3781917358       -2.3273925713        0.5535925951
 O         -0.0434788238        1.2673017995        0.1729406776
 O         -1.5715718374        2.1428104333       -1.5895603158
 O          0.8423643404        1.6260041612       -2.1407341474
 O          0.2649921130        3.6714038254       -0.7015857210
 C          2.6021344015       -0.1253555983        0.0691684708
 C          1.8442051063        0.2594260573        1.3666379578
 C          2.3283210701       -1.6461976005       -0.0737766227
 C          1.0226339237       -1.8098874668        0.7242462033
 C          0.9126252517        1.4674308499        1.2107222131
 H          2.1763625118        0.4186020951       -0.7757914282
 H          2.5548979818        0.4946485014        2.1658339533
 H          2.2237975650       -1.9479191738       -1.1176466442
 H          0.9228752931       -2.8026879989        1.1775621943
 H          1.4931749342        2.3689036997        1.0047547251
 H          0.3507507397        1.5976485699        2.1394090821
 H          4.4238441649       -0.5148664871        0.5864853978
 H          3.4310397772       -3.2452907189        0.2531191025
 H         -1.8089824921        1.2483711288       -1.9018384864
 H          1.1470455391        2.2409751747       -2.8187447532
  35
        -70.95381845
 N         -0.3913025344       -1.6151465040        0.9563369997
 N         -2.2552973217       -1.2529036620        2.1452436163
 N         -3.8268329485       -2.0303929292        0.4710876597
 N         -2.8149730282       -2.8136151201       -1.5377811096
 C         -1.4333720779       -2.0071255492        0.1578712219
 C         -2.6090534784       -1.7643502520        0.9312929129
 C         -1.5915176184       -2.5560756962       -1.1025658257
 C         -0.9543246076       -1.1863982472        2.1149001312
 C         -3.8466897616       -2.5371981893       -0.7460232547
 H         -0.7696014188       -2.7915819559       -1.7648224270
 H         -0.3547806856       -0.8327375701        2.9300263161
 H         -4.8235042385       -2.7622197600       -1.1501626436
 P          0.3534489547        3.0480980795       -0.5622334265
 O          1.7641058589       -0.9189960309        1.5551880508
 O          3.6154502362       -0.5898660750       -0.7767648028
 O          1.6151593590       -1.9664676347       -1.7427076943
 O          1.4455824998        2.6002624193        0.5485463230
 O          1.0832144999        4.2490510347       -1.2570909119
 O         -0.8223168228        3.7119572018        0.2318145432
 O         -0.0909937183        1.9272587364       -1.4040668111
 C          2.3830520272        0.0185658343       -0.5069815193
 C          2.1889791403        0.3160342162        0.9871615305
 C          1.2760460373       -1.0217977423       -0.7844576535
 C          1.0220258382       -1.6453062948        0.6208939171
 C          1.1435313504        1.4113123539        1.2541617739
 H          2.2253815692        0.9100563642       -1.1181436211
 H          3.1328385349        0.5707597328        1.4747666482
 H          0.3745697218       -0.5033219606       -1.1279822199
 H          1.3598129881       -2.6911643659        0.6422295713
 H          1.1295014705        1.6428158623        2.3217634498
 H          0.1561660755        1.0505178312        0.9519942136
 H          4.3230701391        0.0684830226       -0.8127348368
 H          2.5847301933       -2.0726027576       -1.7358836349
 H          1.6718361721        4.0426402361       -1.9907302732
 H         -0.6164869407        4.5484722882        0.6708845844
  35
        -70.95381123
 N         -0.1738136150       -1.5343841271       -0.0681577223
 N         -1.5740401366       -0.6694824921       -1.5893751832
 N         -3.5701873140       -0.6987621081       -0.2115229134
 N         -3.2206923068       -1.5207186536        1.9946071098
 C         -1.4061297716       -1.4555491897        0.5344130284
 C         -2.2811903677       -0.9127094213       -0.4453523319
 C         -1.9326542403       -1.7408248096        1.7803559313
 C         -0.3518622086       -1.0366846589       -1.3171250905
 C         -3.9582061320       -1.0251964750        1.0064781320
 H         -1.3521801071       -2.1276993344        2.6058131811
 H          0.4357583894       -0.9699288736       -2.0400301534
 H         -5.0030598818       -0.8658181798        1.2315118449
 P         -0.1091102237        2.2787389690       -1.0684225226
 O          1.1131670960       -0.9073919242        1.7737256244
 O          3.9923844987        0.1080045315        0.2505161366
 O          3.3268556547       -2.3932624761        0.4505450270
 O         -0.0674135908        1.2482110335        0.1553214288
 O         -1.5656432406        2.1585331853       -1.6232902282
 O          0.8494113076        1.5948461816       -2.1436751820
 O          0.2970089881        3.6433248452       -0.7062072923
 C          2.6126050506       -0.0726774551        0.1097947340
 C          1.8127874329        0.2757996552        1.3908818955
 C          2.3327965010       -1.5819394501       -0.1029067072
 C          1.0381278736       -1.7947271764        0.6928595123
 C          0.8434308533        1.4551906654        1.2302879257
 H          2.2167789012        0.4945819324       -0.7353755019
 H          2.4952195286        0.5117658475        2.2147029315
 H          2.2150793309       -1.8315858936       -1.1636549923
 H          0.9881989343       -2.8077416813        1.1072048834
 H          1.3847826602        2.3900033190        1.0691661123
 H          0.2453597586        1.5344026794        2.1419189265
 H          4.2443987985        1.0231216347        0.0712485884
 H          4.1513513247       -1.8767901095        0.4972729746
 H         -1.8297756287        1.2650769991       -1.9146226448
 H          1.0675273673        2.1681989305       -2.8887888808
  35
        -70.95379839
 N         -0.4725187095       -1.6247084444        0.9761943550
 N         -2.3738236867       -1.2510709038        2.1002869417
 N         -3.8778854905       -2.2135974806        0.4595180448
 N         -2.7931837913       -3.0945726773       -1.4694675642
 C         -1.4815981768       -2.1149652726        0.1897675683
 C         -2.6818968834       -1.8645758634        0.9216689246
 C         -1.5907510184       -2.7536731277       -1.0328972183
 C         -1.0758224790       -1.1353896436        2.0892517807
 C         -3.8512935408       -2.8093370644       -0.7165490884
 H         -0.7463583236       -2.9932712139       -1.6647310491
 H         -0.5080763562       -0.7011713431        2.8877857301
 H         -4.8092432729       -3.1063478665       -1.1193678607
 P          0.5137538908        3.2018179493       -0.6182083370
 O          1.6572999041       -0.8688337979        1.5923522110
 O          3.5515746215       -0.6109525863       -0.7208331039
 O          1.5721103681       -2.0206559123       -1.6777903879
 O          1.4556780587        2.6582026934        0.5829385538
 O          1.3611647036        4.4026003207       -1.1643892000
 O         -0.7200248384        3.8806078649        0.0671522366
 O          0.1268394476        2.1401703944       -1.5591734488
 C          2.3133070466        0.0026606889       -0.4899006377
 C          2.0922769541        0.3463744972        0.9904808164
 C          1.2149749835       -1.0513037473       -0.7519262702
 C          0.9466006520       -1.6363029012        0.6676199566
 C          1.0460320712        1.4518170298        1.1977436955
 H          2.1607044567        0.8725564525       -1.1322735981
 H          3.0249021289        0.6217072393        1.4888141937
 H          0.3136027146       -0.5504587053       -1.1219642444
 H          1.3024551560       -2.6749469808        0.7249179816
 H          0.9304783659        1.6377608681        2.2683468292
 H          0.0861967477        1.1336041401        0.7803067093
 H          4.2556893850        0.0486909223       -0.7858321845
 H          2.5429590009       -2.1142938879       -1.6602929010
 H          2.0774631827        4.2019748724       -1.7762781378
 H         -0.5342109994        4.6815839118        0.5759086515
  35
        -70.95377351
 N         -0.9884265775       -1.0481771471        0.7021191128
 N         -2.9905614522       -0.1418625120        0.2661058600
 N         -4.2461880374       -2.2145539321        0.2113699549
 N         -2.9398300945       -4.1659996125        0.6004652162
 C         -1.8714053056       -2.0928667483        0.6296496378
 C         -3.1387326944       -1.4952748834        0.3523389930
 C         -1.8224653713       -3.4695764637        0.7409551743
 C         -1.7230130215        0.0734520927        0.4736125244
 C         -4.0705678298       -3.5144401028        0.3496872562
 H         -0.9205637309       -4.0342255294        0.9333181184
 H         -1.2786145894        1.0492022457        0.4683313329
 H         -4.9543108679       -4.1273023163        0.2436237943
 P          1.2764911252        2.8902983566       -1.2882261515
 O          0.8201375412       -0.2011019979        1.9185999716
 O          3.5629038751       -0.7992835948        0.4419443950
 O          1.6837524214       -2.0326829158       -0.9523077188
 O          0.5974427287        2.2076969344        0.0085148738
 O          0.2404288730        3.9890469322       -1.7368445073
 O          1.1254895005        1.8067373830       -2.4125889234
 O          2.6494673048        3.3414305016       -1.0184090318
 C          2.4423192906        0.0012256816        0.1954997566
 C          1.8581778440        0.6634161031        1.4472319489
 C          1.2684351040       -0.8581995313       -0.3346515390
 C          0.4303662428       -1.1318542202        0.9436332501
 C          1.3553191008        2.0894427188        1.2006342999
 H          2.7557360557        0.7439754035       -0.5422478742
 H          2.6008970952        0.7203276461        2.2500174397
 H          0.6640760697       -0.2783045711       -1.0399411994
 H          0.6228245482       -2.1514070422        1.3076387388
 H          2.2205872538        2.7542108469        1.1381552765
 H          0.7041977783        2.3833302428        2.0267865536
 H          3.4549385560       -1.2945887744        1.2690343896
 H          2.6469910589       -2.1258520432       -0.8137842588
 H          0.2959995539        4.8404844516       -1.2891180414
 H          0.4090028634        1.9682985952       -3.0387828863
  35
        -70.95376779
 N         -0.7085727472       -2.5155443296        0.4615840723
 N         -1.8897697377       -4.4082076763        0.6691481298
 N         -3.9162313607       -3.6080807628       -0.3966162805
 N         -3.8124174445       -1.3475161214       -1.1351968417
 C         -1.9351765562       -2.2631561636       -0.0978797454
 C         -2.6698756421       -3.4792536214        0.0423255771
 C         -2.5697020481       -1.1965106987       -0.7054174240
 C         -0.7628604165       -3.8028075142        0.9007995816
 C         -4.4083333956       -2.5230838512       -0.9628126948
 H         -2.1126850720       -0.2275232325       -0.8499540309
 H          0.0696959852       -4.2723189278        1.3871549194
 H         -5.4213467974       -2.5964413392       -1.3317128814
 P          1.9576530487        3.5390168922        0.2651806232
 O         -0.0829593739       -0.4245004388        1.2078022721
 O          2.2646677335        0.9025358197       -1.1219435309
 O          2.2658288651       -1.7496023682       -0.8858341264
 O          0.4524586421        2.9678005390        0.0916863180
 O          1.7628729004        5.0250264863        0.7350926679
 O          2.4476587126        3.7169446829       -1.2193253759
 O          2.7963723544        2.7670560095        1.1916206964
 C          1.0439739595        0.3718417171       -0.7090884136
 C          0.7198345760        0.6571367579        0.7721932692
 C          0.9922078400       -1.1827680045       -0.7872955344
 C          0.3833707278       -1.5964685641        0.5769689706
 C         -0.0320419765        1.9721256073        0.9680979606
 H          0.2815939258        0.8184538332       -1.3518752701
 H          1.6603926897        0.6849769113        1.3385592570
 H          0.3416919960       -1.5161304060       -1.6031743557
 H          1.1753755444       -2.0789977807        1.1708263329
 H          0.0560247512        2.2969296405        2.0066403112
 H         -1.0857791792        1.8326326064        0.7143082998
 H          2.9818501855        0.4203559083       -0.6754518883
 H          2.5852308546       -1.6999363208       -1.7997583315
 H          1.2763959609        5.5949565687        0.1254282573
 H          2.6266715865        2.8789752006       -1.6669326370
  35
        -70.95376415
 N         -0.1401342545       -1.5332490099       -0.0632663445
 N         -1.6052245676       -0.8035652880       -1.5920431412
 N         -3.5284208551       -0.6606534971       -0.1203480084
 N         -3.0751895800       -1.2585221339        2.1388108202
 C         -1.3389492365       -1.3738249509        0.5899220408
 C         -2.2553041490       -0.9170215416       -0.3953240355
 C         -1.8030787256       -1.5232533251        1.8829217663
 C         -0.3750817908       -1.1559358892       -1.3461318973
 C         -3.8556518677       -0.8521449404        1.1435559596
 H         -1.1849146701       -1.8342348459        2.7131191241
 H          0.3742880185       -1.1633177422       -2.1113062491
 H         -4.8851663092       -0.6505011836        1.4028968195
 P         -0.1910695282        2.0232748547       -1.1126611336
 O          1.2145970824       -0.8890711992        1.7246987145
 O          3.9322695077        0.3113915933       -0.0741309161
 O          3.4589731162       -2.2265245948        0.3982748633
 O         -0.1358490845        1.2926142480        0.3063765146
 O          0.1494429647        3.5150727637       -0.7334149311
 O         -1.7255955087        2.0447501255       -1.4386260385
 O          0.6718974548        1.4493954116       -2.1644716170
 C          2.5897521148       -0.0511542383       -0.0458204238
 C          1.8928664549        0.2902999623        1.2969984661
 C          2.3649690269       -1.5781228187       -0.1878187665
 C          1.0973547507       -1.7882831925        0.6586473220
 C          0.9419261430        1.4903777155        1.2219781483
 H          2.1024171595        0.4794014986       -0.8668220384
 H          2.6452000953        0.5190350202        2.0602961175
 H          2.2335512250       -1.8747452608       -1.2297347388
 H          1.0420549432       -2.7905959038        1.1000171800
 H          1.5116551825        2.3798932578        0.9498226395
 H          0.4722931351        1.6317795920        2.1986409570
 H          4.4471075475       -0.3860367816        0.3707604145
 H          3.5275368364       -3.1421549841        0.0943738224
 H          0.3653848274        4.0803768971       -1.4844296270
 H         -2.0210856682        1.3363449873       -2.0254664921
  35
        -70.95376216
 N         -0.8153172292       -2.2856816585       -0.1432344757
 N         -1.6636397547       -4.0752413502       -1.1896525456
 N         -3.9885004662       -3.6619320154       -0.6363318237
 N         -4.3534751423       -1.7150186001        0.6859496315
 C         -2.1688526270       -2.2389090743        0.0619967862
 C         -2.6897807142       -3.3819765968       -0.6166249731
 C         -3.0645454453       -1.4142932284        0.7171656056
 C         -0.5908520525       -3.4021276718       -0.8881668223
 C         -4.7391962649       -2.8006356535        0.0222359062
 H         -2.7703925498       -0.5260844548        1.2570427389
 H          0.3984565389       -3.6954548872       -1.1815020595
 H         -5.8011423625       -3.0015817915        0.0250249078
 P          1.9295493594        3.6395607163        0.2841164076
 O         -0.3953141600       -0.0912124759        0.4680537617
 O          2.8516440703        0.0212327040        0.8046444881
 O          2.3348136002       -2.2145904437       -0.4827092087
 O          1.0947028361        2.9662420846       -0.8964590251
 O          0.8174608314        4.1367525384        1.2757357756
 O          2.4740243169        4.9339648904       -0.4131860112
 O          2.9797959622        2.7870807029        0.8842408036
 C          1.8897661966        0.1891697572       -0.1995463067
 C          0.6171880881        0.8979286436        0.3070420148
 C          1.3837455290       -1.2130208672       -0.5944639348
 C          0.1752124433       -1.3726045586        0.3607222078
 C          0.1123341996        1.9780807491       -0.6480746938
 H          2.3156434677        0.7222172344       -1.0567897547
 H          0.8227207393        1.3540772023        1.2846239287
 H          1.0138704159       -1.2102330197       -1.6256351543
 H          0.5273379102       -1.7223843056        1.3475547608
 H         -0.7821787628        2.4399368702       -0.2233989018
 H         -0.1284433756        1.5421723869       -1.6204523871
 H          3.2094295490        0.9006715332        1.0281996942
 H          2.9767058223       -1.9519609855        0.2016823424
 H          1.1295217539        4.5583842725        2.0848973341
 H          3.3294921198        4.8480314140       -0.8480938766
  35
        -70.95373935
 N         -0.2691763068       -1.7502440732       -0.3604841279
 N         -1.6594087047       -3.0174657600       -1.5750307883
 N         -3.7282027318       -2.1738710763       -0.6271548747
 N         -3.4278940527       -0.5269862111        1.0694816545
 C         -1.5385336487       -1.4168017733        0.0399997449
 C         -2.4056736693       -2.2287366881       -0.7470193061
 C         -2.1083921351       -0.5566821169        0.9611824778
 C         -0.4227440679       -2.7044931763       -1.3182219372
 C         -4.1513602082       -1.3176563465        0.2820097907
 H         -1.5394867676        0.1076224454        1.5967056211
 H          0.4122315550       -3.1827297518       -1.7907925223
 H         -5.2228062274       -1.2506431782        0.4076993171
 P         -0.0850165029        2.6702376779        0.4318247811
 O          0.8717416618        0.2368244993       -0.0454855990
 O          3.8799991652       -0.8366040180        0.9703621259
 O          2.7088786242       -2.8258018121       -0.2902514458
 O          1.2781452756        2.9251424142       -0.3882598408
 O         -1.1181709161        1.9543845705       -0.5118498337
 O         -0.6215834413        4.1583848694        0.4138998586
 O          0.0579821326        2.0957440679        1.7780228319
 C          3.1706495711       -0.4026068481       -0.1570809568
 C          2.1812017774        0.7433415718        0.1780854715
 C          2.2314815689       -1.5610397692       -0.5853464518
 C          0.9291242316       -1.1596740918        0.1499959155
 C          2.3028142652        1.9908647342       -0.6795406881
 H          3.8441428797       -0.1228193112       -0.9709198074
 H          2.2723675914        1.0086090191        1.2408465731
 H          2.0470015358       -1.5105945910       -1.6629787222
 H          1.0154116885       -1.3880351789        1.2272633047
 H          2.2167487613        1.7147348940       -1.7355971608
 H          3.2499090032        2.5039063935       -0.4978727161
 H          4.6982890598       -0.3344020762        1.0849549282
 H          3.2526725450       -2.7715142772        0.5166700388
 H         -1.3992001281        2.5063981059       -1.2525291872
 H         -0.2559422931        4.7358338081        1.0913805727
  35
        -70.95373282
 N         -1.2183397775       -1.4092625283        0.7977012446
 N         -3.4116402517       -0.9965798873        0.6160834663
 N         -4.0170349794       -3.0920451799       -0.4451919732
 N         -2.1891617511       -4.5780811033       -0.7967679970
 C         -1.7653860150       -2.5159450618        0.2023191094
 C         -3.1602471839       -2.2312841239        0.0932789853
 C         -1.3146317988       -3.7366001180       -0.2677885629
 C         -2.2532564753       -0.5581770214        1.0197353269
 C         -3.4675388771       -4.2180023397       -0.8573096502
 H         -0.2802674534       -4.0508716376       -0.2349728109
 H         -2.1066850649        0.3908462530        1.4956743934
 H         -4.1400936719       -4.9392344773       -1.2994584834
 P          1.5080416469        3.7709910702       -0.5057835787
 O          0.4062251486        0.0611508828        1.6350366324
 O          3.2067051500       -0.4129424933        0.5373291056
 O          1.8414608806       -2.6122085453       -0.0200301918
 O          0.8723067312        2.4227971565       -1.1455365878
 O          1.6152154809        4.7118670157       -1.7596705399
 O          3.0058916745        3.4413293121       -0.1777430905
 O          0.7394340320        4.2464688564        0.6521093871
 C          1.9816773354       -0.1596211806       -0.0864329354
 C          1.0970834746        0.8393315536        0.6637024394
 C          1.1015787063       -1.4391042541       -0.0937307850
 C          0.1792068140       -1.2295875898        1.1449302333
 C          0.1432519564        1.5904062619       -0.2723477248
 H          2.2102040185        0.1767725905       -1.0986325369
 H          1.6806240018        1.5893722039        1.2079239615
 H          0.4843489261       -1.4754703444       -0.9987685572
 H          0.4262937938       -1.9555672828        1.9330986794
 H         -0.5311057910        2.1984553308        0.3378341220
 H         -0.4315451829        0.9086393768       -0.9024436751
 H          3.1106342783       -0.3830335501        1.5014608733
 H          2.7666635981       -2.3793615757        0.1943000263
 H          0.7955326277        5.1203382026       -2.0596878245
 H          3.6147850078        3.4603741713       -0.9272094236
  35
        -70.95370946
 N         -0.0471631069       -1.3221738205        0.0653720410
 N         -1.3306431729       -1.4562502110       -1.7702797085
 N         -3.4662229682       -1.1501749204       -0.6620408820
 N         -3.3124571879       -0.8613826597        1.6960924331
 C         -1.3442835048       -1.1600080472        0.4837897166
 C         -2.1428963125       -1.2487222635       -0.6923929594
 C         -1.9924854426       -0.9642551778        1.6874249849
 C         -0.1248252887       -1.4716570656       -1.2874745486
 C         -3.9654669324       -0.9521758924        0.5426978598
 H         -1.4902154593       -0.8807299765        2.6408167752
 H          0.7351973359       -1.6195733135       -1.9083174553
 H         -5.0406737100       -0.8585575291        0.6013932552
 P         -0.6109629036        2.2230976724       -0.4534637631
 O          1.4580164204        0.0819311077        1.2591097257
 O          4.3798952484       -0.7007631350       -0.4875558515
 O          3.2513343634       -2.3277456842        1.3020404337
 O          0.6025681564        1.3320058169       -0.9926002858
 O         -0.9550633667        1.6975990407        0.9935172501
 O         -1.7989700728        1.6952931294       -1.3320989981
 O         -0.3407699986        3.6725514984       -0.4987875105
 C          2.9896104371       -0.6496495039       -0.4303596968
 C          2.4604094914        0.5711372227        0.3691846372
 C          2.3725205368       -1.8554784948        0.3229559810
 C          1.1058101113       -1.2430860937        0.9373014164
 C          1.9029834564        1.6808837099       -0.5310260470
 H          2.6173408289       -0.5973945806       -1.4577461675
 H          3.2680535224        0.9958212563        0.9762974596
 H          2.1631950855       -2.7043522359       -0.3284187357
 H          0.8247220865       -1.7304294677        1.8787812233
 H          2.5466679326        1.8035298388       -1.4049251765
 H          1.8440464079        2.6277379610        0.0099792625
 H          4.6959668324       -1.3437634698        0.1752953576
 H          3.3127188193       -1.6938436687        2.0339876390
 H         -1.1421029443        2.4247409104        1.5989493015
 H         -1.9621682242        2.2055870987       -2.1335531075
  35
        -70.95368809
 N         -0.7326944050       -1.5737711859        0.0892964333
 N         -2.3662586592       -0.9812735637       -1.3291165400
 N         -4.1542718775       -2.2230077034       -0.2594541613
 N         -3.4887235912       -3.4155931541        1.6897982750
 C         -1.8785006946       -2.1824878817        0.5399221307
 C         -2.9002942159       -1.8031233231       -0.3783621480
 C         -2.2327835496       -3.0091249649        1.5897637339
 C         -1.1095984145       -0.8642641011       -1.0149389931
 C         -4.3657745084       -3.0110941506        0.7772859435
 H         -1.5489124779       -3.3477180459        2.3555669861
 H         -0.4321345819       -0.2551930110       -1.5822595050
 H         -5.3772472429       -3.3700464610        0.9024508148
 P          1.1003730471        3.0881060553       -1.0294268742
 O          0.6449671019       -0.6386059860        1.7628842469
 O          3.4563720962        0.3059407148        0.0324358645
 O          2.8460345246       -2.1949877202        0.3081449269
 O          1.0043012895        2.8054369602        0.5583617389
 O          2.6172335302        3.0400908812       -1.3966582909
 O          0.7644594115        4.6251130784       -1.1317968772
 O          0.2590076005        2.1757348957       -1.8210161163
 C          2.0893080207        0.0573097395       -0.0206708657
 C          1.3426370356        0.4967103524        1.2636590655
 C          1.7538718886       -1.4540889188       -0.1591580090
 C          0.5419366368       -1.6317311299        0.7782270375
 C          0.3527062213        1.6436057232        1.0216434012
 H          1.7048739546        0.6100338406       -0.8807942758
 H          2.0666055933        0.8023418222        2.0266431612
 H          1.4980645089       -1.7092339195       -1.1890886914
 H          0.5799805461       -2.5942154818        1.3007843468
 H         -0.1344330991        1.9045630365        1.9640196757
 H         -0.4015525416        1.3293742458        0.2934702058
 H          3.8899330855       -0.4607587853        0.4521073353
 H          2.9442329447       -3.0260191563       -0.1761182091
 H          3.1697717872        3.7147189096       -0.9819253634
 H         -0.1688832391        4.8622372676       -1.1094077609
  35
        -70.95367828
 N         -0.1815790785       -1.4377917032       -0.2972352219
 N         -1.7221353665       -1.8014478555       -1.8815034953
 N         -3.6726844351       -1.4909904554       -0.4697769838
 N         -3.1649028646       -1.0289509720        1.8125216637
 C         -1.4015031250       -1.3107633592        0.3165290400
 C         -2.3651223651       -1.5379549354       -0.7053277708
 C         -1.8602047442       -1.0521222898        1.5940204446
 C         -0.4545929800       -1.7179600707       -1.5996906525
 C         -3.9838344043       -1.2328242009        0.7851970879
 H         -1.2147489353       -0.8616624037        2.4390079742
 H          0.3151357192       -1.9042640657       -2.3217713314
 H         -5.0399780185       -1.1893487915        1.0119676483
 P         -0.3610579949        2.1782526603       -0.1700124457
 O          1.0220353569        0.1877336712        0.8190526567
 O          3.8744914848       -1.1312910034        1.2047625082
 O          2.7829976995       -2.4609995514       -0.8572119168
 O          1.0751997502        2.7385553250        0.3001717212
 O         -0.1055549694        1.2592802289       -1.4326476905
 O         -0.9521544109        3.4839850116       -0.8650626505
 O         -1.2461095720        1.6755410973        0.8891330467
 C          3.2829390690       -0.3075300498        0.2375883987
 C          2.3346427154        0.7461234528        0.8463979386
 C          2.3099020056       -1.1915719622       -0.5755710324
 C          1.0669098581       -1.1424203505        0.3398770637
 C          2.2880040140        2.0562078885        0.0487446629
 H          4.0351759717        0.1561687277       -0.4062034762
 H          2.5772397228        0.9480410597        1.8958890794
 H          2.0690656782       -0.7036850856       -1.5239299239
 H          1.1986792287       -1.8332496654        1.1909189403
 H          2.3709212083        1.8375112097       -1.0194126083
 H          3.0787222931        2.7394301383        0.3606259286
 H          4.6653912560       -0.7148402613        1.5755662690
 H          3.3033483988       -2.7775532539       -0.0975637612
 H         -0.2376135723        1.7531861939       -2.2531969529
 H         -1.4549921235        4.0569308482       -0.2791361997
  35
        -70.95363466
 N         -0.2102083657       -2.4340802130        0.2546402546
 N         -1.8425457056       -3.8614303526        0.8418023285
 N         -3.6928983672       -2.6077330399       -0.0620406781
 N         -3.0940990353       -0.5579164366       -1.0980695161
 C         -1.3870911685       -1.8660035531       -0.1766691988
 C         -2.4071961298       -2.7987666810        0.2012442656
 C         -1.8053701641       -0.7251848690       -0.8439249973
 C         -0.5702118164       -3.6046376244        0.8537191597
 C         -3.9558928708       -1.4874098430       -0.7045758974
 H         -1.1574978019        0.0730319161       -1.1807898942
 H          0.1576889658       -4.2582421718        1.2929639465
 H         -4.9940015080       -1.3004163885       -0.9386842471
 P          0.4068424658        3.2414022090        0.0853802763
 O          1.4330201244       -1.1526179229        1.3462611106
 O          3.1223816231        0.6675949439       -0.8033245765
 O          2.6549371567       -1.7199352855       -1.6681691908
 O          0.6901717599        2.4199072797        1.4463683110
 O          1.8033878582        3.5059281401       -0.5723909635
 O         -0.0028561694        4.6588719166        0.6281292029
 O         -0.5440450985        2.5568535916       -0.8044133493
 C          1.8025324161        0.2805349345       -0.5365983849
 C          1.6021367694        0.2106780539        0.9878072152
 C          1.5376977229       -1.1713043233       -1.0446389184
 C          1.1590386158       -1.9600900851        0.2308544928
 C          0.4160815489        1.0379397769        1.4977932770
 H          1.0919111747        0.9794173882       -0.9805251255
 H          2.5137884170        0.5660550737        1.4834657466
 H          0.7198579223       -1.2076380499       -1.7681652523
 H          1.7877674075       -2.8566772577        0.3103990964
 H          0.2430936281        0.7923416398        2.5480141266
 H         -0.4818878294        0.8160682238        0.9138915742
 H          3.1897620358        1.0456338237       -1.6920490137
 H          3.4512826137       -1.2734760376       -1.3195973267
 H          2.3682758208        4.1373255646       -0.1078617970
 H         -0.9075620013        4.7513636645        0.9453351144
  35
        -70.95361304
 N         -1.3479372863       -1.3761669445        0.7778191566
 N         -3.5527969804       -1.0653867331        0.5383217580
 N         -4.0487262786       -3.2287440800       -0.4405609098
 N         -2.1519045994       -4.6453973060       -0.7028480732
 C         -1.8358585954       -2.5286673655        0.2195315908
 C         -3.2393953493       -2.3094334579        0.0745906320
 C         -1.3237223398       -3.7445515328       -0.1972189784
 C         -2.4211888434       -0.5610946514        0.9425802434
 C         -3.4439043113       -4.3458312920       -0.7952088213
 H         -0.2759231024       -4.0066243143       -0.1435215866
 H         -2.3218722969        0.4130807563        1.3781963920
 H         -4.0769083368       -5.1147018791       -1.2150409700
 P          1.7811450182        3.6764459895       -0.5271132136
 O          0.1771638977        0.1909909244        1.6089100178
 O          3.0014349053       -0.3514892883        0.6994273601
 O          1.6987624011       -2.4805991552       -0.0603610573
 O          0.8215775801        2.5337605175       -1.1555657857
 O          1.9035628566        4.7031274259       -1.7096811681
 O          3.2152237709        3.0319658925       -0.4760778841
 O          1.2952605994        4.1728016512        0.7672776768
 C          1.8524985282       -0.0248884592       -0.0329766411
 C          0.9417054156        0.9696065744        0.6972857061
 C          0.9781125403       -1.2970236935       -0.0900697325
 C          0.0339459878       -1.1166899506        1.1378182912
 C          0.0469401203        1.7669084940       -0.2591017532
 H          2.1081384006        0.3328500384       -1.0355146269
 H          1.5140399628        1.6864051248        1.2951357222
 H          0.3759337933       -1.3059341124       -1.0048395244
 H          0.3143039317       -1.8167423368        1.9384162755
 H         -0.5890824923        2.4245080316        0.3398468696
 H         -0.5698140887        1.1101083617       -0.8761707508
 H          3.5918386376        0.4115846943        0.7608347401
 H          2.5256520140       -2.3271785826        0.4320732085
 H          1.1618001877        5.3061674900       -1.8317284498
 H          3.7273505811        3.1396853353       -1.2885286879
  35
        -70.95360274
 N         -1.2655351120       -1.4464559463        0.9044089796
 N         -3.3703246559       -0.8331462672        0.4458162283
 N         -4.1869708171       -3.0308032625       -0.1768694448
 N         -2.5533231086       -4.7583988102       -0.0430413308
 C         -1.9191633061       -2.5869395910        0.5194820756
 C         -3.2562402468       -2.1754156306        0.2312929487
 C         -1.6082429464       -3.9255375652        0.3631235497
 C         -2.1871690863       -0.4517299250        0.8355836591
 C         -3.7683936901       -4.2765497223       -0.2869247315
 H         -0.6291115419       -4.3445402307        0.5514409224
 H         -1.9451922835        0.5568152696        1.1049648368
 H         -4.5027098674       -4.9973058511       -0.6171019343
 P          1.8115789217        3.5270522960       -0.9919411609
 O          0.4076658156       -0.0925391683        1.8053659309
 O          2.5720024093       -0.0067649512       -1.0105827043
 O          2.2004718457       -2.2050202921        0.3973372627
 O          1.6757209286        3.0474571311        0.5230562131
 O          2.9872906897        4.5492118833       -0.8997414247
 O          0.4678543367        4.3329257945       -1.2260163728
 O          2.0408966792        2.4687214675       -1.9922726983
 C          1.3225629967       -0.0679381179       -0.3948944179
 C          1.2438803810        0.6879500137        0.9494518485
 C          1.0405353907       -1.5263919007        0.0248160583
 C          0.1382314100       -1.3495613307        1.2602523007
 C          0.6782659408        2.1089954926        0.8837756351
 H          0.5269282292        0.2804762501       -1.0667896101
 H          2.2506561302        0.7344089941        1.3875451390
 H          0.5177686336       -2.0770114942       -0.7706046220
 H          0.3612244080       -2.1263659265        2.0041243937
 H          0.3420388325        2.3855930817        1.8864105611
 H         -0.1614480184        2.1612154559        0.1864462293
 H          2.6337507352        0.8350971280       -1.5040917742
 H          2.9309394916       -1.8784569091       -0.1569627606
 H          2.9229362471        5.2204029303       -0.2079561063
 H          0.1949753818        4.4313217112       -2.1448004813
  35
        -70.95360130
 N         -1.8696711918       -1.2340893226        0.0383404159
 N         -3.4313906966       -1.7685953725       -1.4750385055
 N         -3.9737625243       -3.9546587703       -0.5755784569
 N         -2.7156268708       -4.5625906491        1.3530673518
 C         -2.3159061924       -2.4829427172        0.3789792873
 C         -3.3117819224       -2.8029858227       -0.5936988729
 C         -2.0398178783       -3.4242074262        1.3529095100
 C         -2.5673305142       -0.8806603640       -1.0728471624
 C         -3.6301254011       -4.7620975792        0.4090713680
 H         -1.2902677901       -3.2978763402        2.1211073319
 H         -2.4171610808        0.0668097159       -1.5503253875
 H         -4.1540082757       -5.7063510805        0.4534749833
 P          2.8618868818        3.2317390184       -0.4491953885
 O         -0.9462093870        0.8574535814        0.3719291240
 O          2.0521440788        0.2846144020        1.5939353598
 O          1.1200039827       -2.0219250702        0.8266639257
 O          1.3174821957        3.4424061436       -0.7728890271
 O          3.4365147417        4.6661300936       -0.7062214676
 O          3.3780371104        2.3642107387       -1.6576628807
 O          3.1618449073        2.6832635722        0.8919521955
 C          1.4027458523        0.3746925560        0.3582750955
 C          0.3335226001        1.4873146107        0.3276136646
 C          0.5949319956       -0.9247053782        0.1618692733
 C         -0.8095328036       -0.5035313208        0.6753314607
 C          0.3926194237        2.3814678642       -0.9125288867
 H          2.1281069650        0.5139259948       -0.4507675162
 H          0.4457466873        2.1192948209        1.2188353262
 H          0.5135243706       -1.1758443300       -0.9020492505
 H         -0.8711566006       -0.6845093979        1.7606565886
 H         -0.5811540013        2.8595868053       -1.0428601391
 H          0.6351758965        1.7896494257       -1.7993610298
 H          2.6468755645        1.0548856396        1.6734850755
 H          1.6834245234       -1.6906786630        1.5513338080
 H          3.4046528335        5.2674861325        0.0455816202
 H          4.3354431537        2.2784308401       -1.7374811377
  35
        -70.95359450
 N         -1.7745510190       -1.3963510203       -0.4305707571
 N         -2.9803244354       -2.4112829071       -2.0203862177
 N         -3.8993504317       -4.1627630424       -0.6148012197
 N         -3.1708004568       -4.0845982066        1.6521376280
 C         -2.3890270866       -2.4576391402        0.1792362723
 C         -3.1559765960       -3.0863729862       -0.8478110295
 C         -2.4187807006       -3.0148967026        1.4442100624
 C         -2.1637966884       -1.4380748628       -1.7315105235
 C         -3.8605972486       -4.5880255146        0.6331365641
 H         -1.8469686027       -2.6389497699        2.2810746565
 H         -1.8251082444       -0.7092754256       -2.4399240841
 H         -4.4601877621       -5.4591969081        0.8559298151
 P          2.7806628263        3.4226169259       -0.0561854991
 O         -0.6366438873        0.5998129543       -0.6682729316
 O          2.1401152918        0.3823273895        1.4234309756
 O          0.6125991050       -1.6465502466        1.7527056054
 O          1.6018216373        3.2802304287       -1.1450958734
 O          2.0939879361        3.7879094412        1.3033520542
 O          3.4744815444        4.7626582895       -0.4854409189
 O          3.6309875002        2.2223032921        0.0341781512
 C          1.5090968756        0.0636148403        0.2178301200
 C          0.5942312845        1.2053904612       -0.3001417487
 C          0.5338985202       -1.1162046801        0.4710807353
 C         -0.8597539495       -0.4822629793        0.1909705320
 C          1.1165683904        2.0006715779       -1.4983972359
 H          2.2471356135       -0.2089880581       -0.5438272686
 H          0.4234024284        1.8975042059        0.5388291937
 H          0.7057200495       -1.9215630762       -0.2542932029
 H         -1.2922570089       -0.1542706709        1.1520824182
 H          0.2826856497        2.1816937349       -2.1797707055
 H          1.9014738429        1.4398354210       -2.0115308070
 H          2.8845185197        0.9796585460        1.2254013052
 H          1.2332137148       -1.0950470944        2.2670566112
 H          1.7100273202        4.6726210924        1.3571801826
 H          4.0693366018        4.7191333920       -1.2420700574
  35
        -70.95359250
 N         -1.3487367858       -1.4127513383        0.8522582102
 N         -3.4657551721       -0.8440055066        0.3946174136
 N         -4.2229319090       -3.0487367143       -0.2765998589
 N         -2.5443287157       -4.7352424317       -0.1752534265
 C         -1.9707002256       -2.5613568120        0.4399377927
 C         -3.3167413230       -2.1782601333        0.1537315995
 C         -1.6230703805       -3.8866635798        0.2533024879
 C         -2.2946499249       -0.4398792802        0.7971215233
 C         -3.7711141687       -4.2805369082       -0.4118272803
 H         -0.6333245151       -4.2835825913        0.4337767073
 H         -2.0786105369        0.5697507033        1.0841578942
 H         -4.4852568488       -5.0128035710       -0.7604871067
 P          1.8814850571        3.3618771058       -0.9466049631
 O          0.2642537885       -0.0531069491        1.8423112420
 O          2.5232244483        0.3218715433       -0.8403965661
 O          2.1351472794       -2.0641201111        0.2908732472
 O          1.6717880784        3.0770423382        0.6293132092
 O          3.3556594441        2.9648191580       -1.2683800170
 O          1.9426162467        4.9419719353       -1.0065235757
 O          0.8617862109        2.7324277797       -1.7991620561
 C          1.2448027974        0.1239418408       -0.3140956398
 C          1.1520182811        0.7581089781        1.0811008027
 C          0.9654296160       -1.3694329510       -0.0165988012
 C          0.0473013687       -1.2892905528        1.2227804786
 C          0.6555507372        2.2028043260        1.0688278813
 H          0.4659887642        0.5329370407       -0.9642716238
 H          2.1493521775        0.7355967978        1.5425493974
 H          0.4461591761       -1.8674682425       -0.8470862372
 H          0.2891914854       -2.1008018730        1.9233586592
 H          0.4014419960        2.5045341885        2.0870236611
 H         -0.2199906540        2.2869412026        0.4188293895
 H          2.4960676350        0.3085615081       -1.8068020445
 H          2.8936637899       -1.5386587623       -0.0289548739
 H          4.0322902470        3.4194939078       -0.7518359213
 H          1.0998101226        5.4036167579       -1.0631514957
  35
        -70.95357263
 N         -1.8765546108       -1.3179279905       -0.3618613901
 N         -3.1429420480       -2.2707285744       -1.9428692075
 N         -3.8976242052       -4.1558151846       -0.6141591101
 N         -3.0273660932       -4.2037916193        1.6032340797
 C         -2.4084929690       -2.4448674454        0.2065538276
 C         -3.2151846052       -3.0333104212       -0.8138144693
 C         -2.3355042010       -3.0884140148        1.4282155167
 C         -2.3483449429       -1.2851012842       -1.6353276114
 C         -3.7594405715       -4.6660963981        0.5942565762
 H         -1.7285074279       -2.7438328406        2.2537667751
 H         -2.0842607207       -0.4947466330       -2.3085643582
 H         -4.3062392435       -5.5777638335        0.7890986112
 P          2.9159226924        3.2881479007       -0.1452041344
 O         -0.7740793842        0.7013569353       -0.5617845011
 O          2.1328463726        0.4365324509        1.3628414170
 O          0.5703931883       -1.5482619189        1.7882699667
 O          1.5725943780        3.3345877442       -1.0344896387
 O          2.4843664077        3.5580978887        1.3353751032
 O          3.6341396887        4.6203455080       -0.5617601002
 O          3.6743964830        2.0350042557       -0.3045895318
 C          1.4096445717        0.1433373861        0.2027483450
 C          0.4690157526        1.2994853885       -0.2258535872
 C          0.4444089305       -1.0351941158        0.5029970804
 C         -0.9611164617       -0.4095208180        0.2690820932
 C          0.9333685337        2.1352959913       -1.4191771683
 H          2.0837449267       -0.1191759212       -0.6179473908
 H          0.3356179594        1.9619221808        0.6436056219
 H          0.5937047259       -1.8489079496       -0.2183859857
 H         -1.3768809728       -0.1161527582        1.2488383270
 H          0.0525830374        2.4404401922       -1.9879194484
 H          1.6009143224        1.5469079699       -2.0535044143
 H          2.9412933735        0.9111991019        1.1067427667
 H          1.2382650426       -1.0135777863        2.2602063590
 H          2.1945289131        4.4583330625        1.5304433519
 H          4.0759199484        4.6236344887       -1.4178275726
  35
        -70.95353998
 N         -0.9714102356       -1.1394791917        0.5978325562
 N         -2.9810107552       -0.4964477386       -0.1513613833
 N         -3.9515172417       -2.7130881992       -0.3255634340
 N         -2.4824300102       -4.4784120743        0.3079923576
 C         -1.6993184795       -2.2874592038        0.4280497473
 C         -2.9748004113       -1.8561068471       -0.0470590142
 C         -1.4918486009       -3.6452909317        0.5877919087
 C         -1.7945787485       -0.1209316718        0.2380209095
 C         -3.6363502783       -3.9776462626       -0.1225695008
 H         -0.5572642783       -4.0775037560        0.9183260094
 H         -1.4765847263        0.9027471983        0.2741823310
 H         -4.4117738469       -4.6995630111       -0.3365002969
 P          1.0492588317        3.7214769117       -0.6200126793
 O          0.8155419936        0.2537647665        1.2034270975
 O          3.4976962096       -1.0240730161        0.8096583176
 O          1.8261080059       -3.0119843089        0.5740193585
 O          0.2946912454        2.2917021596       -0.6864710759
 O          0.0989461374        4.5572161175        0.3098380750
 O          0.8504187307        4.3605821489       -2.0387306236
 O          2.4633069265        3.6163116461       -0.2349193917
 C          2.4873237616       -0.7417326910       -0.1174914041
 C          1.7573581830        0.5763032853        0.1847910591
 C          1.3719994316       -1.7932422013        0.0944643198
 C          0.3980259846       -1.0698216594        1.0764913055
 C          1.0793051766        1.1723054264       -1.0537496564
 H          2.8686993894       -0.7664496395       -1.1431061262
 H          2.4128537693        1.3383203331        0.6132348666
 H          0.8494397442       -1.9909021886       -0.8476031483
 H          0.4311909712       -1.5484997623        2.0655050104
 H          0.3931740745        0.4583196537       -1.5149806470
 H          1.8482782543        1.4716391338       -1.7698000257
 H          4.2648109032       -0.4535590764        0.6638569975
 H          2.6319947861       -2.8556891347        1.0996675847
 H          0.2559821915        4.4809362784        1.2570394083
 H         -0.0650615327        4.5220540951       -2.3027333380
  35
        -70.95353256
 N         -0.3668332204       -1.9658569123       -0.2072753217
 N         -1.8962406489       -2.4877919793       -1.7606999904
 N         -3.8492370529       -2.2130529148       -0.3546169847
 N         -3.3671045382       -1.6034855169        1.8949513025
 C         -1.5842342789       -1.8744063826        0.4134398719
 C         -2.5430420767       -2.2021529016       -0.5949007589
 C         -2.0609158330       -1.5886499820        1.6802783734
 C         -0.6316695706       -2.3367301295       -1.4883715994
 C         -4.1769262245       -1.9029645914        0.8843289460
 H         -1.4214307967       -1.3593006959        2.5202856221
 H          0.1516543882       -2.4981646496       -2.2030940689
 H         -5.2340799861       -1.8981173118        1.1088305855
 P          0.6091918841        2.9913802786       -0.6797183767
 O          0.8732065528       -1.0764561560        1.5814602563
 O          3.6138980325       -0.2189233486        0.8045723072
 O          2.7799385474       -1.5574293080       -1.2934272405
 O          0.5249047897        2.5099073106        0.8477349504
 O          2.1261659875        3.4419794561       -0.7644999228
 O         -0.2473557932        4.3079164184       -0.7328101306
 O          0.1851165855        1.9774035529       -1.6543706293
 C          2.3711475544        0.2352132703        0.3421266465
 C          1.3108135125        0.2722200223        1.4515029176
 C          1.8083428857       -0.8445560901       -0.6080499460
 C          0.9551429507       -1.7306662769        0.3495161093
 C          0.1205388912        1.1830939629        1.1132799050
 H          2.4581141765        1.1967950876       -0.1650156094
 H          1.7393472096        0.5528754627        2.4163119684
 H          1.1549982159       -0.3732366936       -1.3501247362
 H          1.4404106785       -2.7046210529        0.5066456859
 H         -0.5656219916        1.2178253793        1.9624157383
 H         -0.4048443569        0.7844288698        0.2401796467
 H          4.1224857444        0.5067673621        1.1918281076
 H          3.5831956519       -1.5877845656       -0.7410754415
 H          2.4123422919        3.8110231490       -1.6087809502
 H         -0.0754463329        4.9607914349       -0.0407237031
  35
        -70.95350619
 N         -1.4338923878       -1.3619240328        0.9066982447
 N         -3.6557799615       -1.0866488856        0.9513015969
 N         -4.2338405531       -3.2071872427       -0.0755972235
 N         -2.3602356003       -4.5609046107       -0.6522887909
 C         -1.9684173284       -2.4927797920        0.3474838738
 C         -3.3823864861       -2.2978640242        0.3868432003
 C         -1.4911217518       -3.6687101017       -0.2029249592
 C         -2.4909931061       -0.5785569677        1.2401618764
 C         -3.6587994875       -4.2893031380       -0.5631249459
 H         -0.4401097819       -3.9031800087       -0.3014521751
 H         -2.3555060477        0.3736010600        1.7122258927
 H         -4.3259980402       -5.0502635580       -0.9425703307
 P          2.1885628023        3.3529406576       -0.7555579732
 O          0.1483145583        0.1502082521        1.7069099450
 O          2.9055674238       -0.2012148364        0.1848677498
 O          1.4548625632       -2.2422593886       -0.4968548114
 O          0.8097540637        3.3228767887        0.0412297151
 O          2.4586756978        4.8942047718       -0.8369936000
 O          1.7800105729        2.9435408594       -2.2213630739
 O          3.2895679337        2.5610512081       -0.1659462017
 C          1.6115695951        0.1871444135       -0.1741158633
 C          0.9239696788        1.0372534212        0.9060002029
 C          0.7338797777       -1.0803831375       -0.2650037082
 C         -0.0219228853       -1.0924115310        1.0949318945
 C          0.0570054710        2.1585419502        0.3241360668
 H          1.6203263515        0.7178671705       -1.1322651277
 H          1.6696701434        1.4906947959        1.5677503322
 H         -0.0000029740       -0.9785251787       -1.0729810159
 H          0.3887374186       -1.8828899439        1.7418439062
 H         -0.6773127664        2.4673264393        1.0724662444
 H         -0.4590423682        1.8220931378       -0.5803041220
 H          3.4750400463        0.5870151629        0.1395786496
 H          2.3720801971       -2.0961113617       -0.1983013339
 H          2.9085009030        5.2790445501       -0.0768161563
 H          2.4440193477        3.0938753330       -2.9046571894
  35
        -70.95349483
 N         -0.6719857977       -2.5499081672        0.4408401916
 N         -1.9150318836       -4.4085738669        0.6022635090
 N         -3.9183030220       -3.5152270101       -0.4294938607
 N         -3.7494582379       -1.2374944029       -1.0974514552
 C         -1.8938725370       -2.2412430127       -0.1019588489
 C         -2.6668152935       -3.4373190188        0.0064779335
 C         -2.5003956937       -1.1378362875       -0.6715931174
 C         -0.7688990277       -3.8465631668        0.8464625871
 C         -4.3804917084       -2.3990687587       -0.9585683612
 H         -2.0173091245       -0.1779656140       -0.7882521554
 H          0.0470434491       -4.3573066028        1.3194416538
 H         -5.3968789159       -2.4300640582       -1.3240890444
 P          1.8797529303        3.5264204558        0.2472005925
 O          0.0387616741       -0.5173693470        1.2775400753
 O          2.1379745382        0.9521660879       -1.2144636241
 O          2.4249366905       -1.6101999841       -0.8405695502
 O          0.3903225469        2.8962192324        0.1711337557
 O          1.6574583774        4.9980017842        0.7537764924
 O          2.2557686494        3.7475994497       -1.2640158736
 O          2.8103066425        2.7840029625        1.1071434246
 C          1.0073561081        0.3262103989       -0.6986170841
 C          0.7870513584        0.5884464164        0.8052900149
 C          1.0822279484       -1.2240556141       -0.7647625585
 C          0.4562007828       -1.6759732995        0.5887418919
 C          0.0150029604        1.8783140780        1.0745720554
 H          0.1501908680        0.6987549738       -1.2667054696
 H          1.7661710572        0.6312339762        1.3000415058
 H          0.4950873281       -1.6088815090       -1.6013983530
 H          1.2252270570       -2.2118630227        1.1663878227
 H          0.1810612642        2.1988665707        2.1049917183
 H         -1.0517053237        1.7056892455        0.9100175051
 H          2.9066659869        0.3825079058       -1.0230427060
 H          2.5572544249       -2.3328666660       -1.4690354451
 H          1.1100836147        5.5549551557        0.1855747651
 H          2.4102038445        2.9196617889       -1.7385810077
  35
        -70.95348991
 N         -0.0667569681       -1.5720738418        0.9605573652
 N         -1.9760220246       -1.2676090123        2.1055339593
 N         -3.4052401195       -0.8252548789        0.2195473852
 N         -2.3193981567       -0.8589337828       -1.8878096879
 C         -1.0279285371       -1.2732927370        0.0233281271
 C         -2.2343923419       -1.0983200480        0.7773538731
 C         -1.1422844267       -1.1343258482       -1.3496580149
 C         -0.7066992427       -1.5324140830        2.1632723187
 C         -3.3705970954       -0.7134627942       -1.0928270091
 H         -0.3307544555       -1.2360952481       -2.0552760789
 H         -0.1769472364       -1.7099236069        3.0789734397
 H         -4.3078363471       -0.4851835350       -1.5796974150
 P         -0.5613886124        2.2761196491       -0.4228495592
 O          2.0245438652       -0.7643098223        1.6482503876
 O          3.6053023640       -0.0022214388       -1.2170745672
 O          3.1287475146       -2.5299829094       -0.5782380894
 O          0.1158953274        1.2669265626        0.6090733229
 O         -2.0934822541        2.0090601474       -0.1958626579
 O         -0.2494517597        1.6315223429       -1.8297331541
 O         -0.1197065228        3.6750187670       -0.2829485470
 C          2.3430541368       -0.2061610464       -0.6524043094
 C          2.3653054730        0.3254294431        0.7959789408
 C          1.9991723271       -1.7153770135       -0.4929149978
 C          1.3759169113       -1.7668620451        0.9134637284
 C          1.4483145023        1.5258520082        1.0445140025
 H          1.5581916861        0.2997186450       -1.2235558981
 H          3.3847520352        0.6294330820        1.0580568100
 H          1.3099914093       -2.0884514951       -1.2490373815
 H          1.5994745126       -2.7201872006        1.4081393695
 H          1.8320304779        2.4135613221        0.5380974093
 H          1.4067427833        1.7083092542        2.1211870409
 H          3.5976911452       -0.2350761184       -2.1573546256
 H          3.8953076973       -2.0750752306       -0.1928248589
 H         -2.5267263127        2.6983331847        0.3201570909
 H         -0.3396366993        2.2451961661       -2.5694416812
  35
        -70.95348778
 N         -0.7410256109       -1.7734105305        0.0558577641
 N         -2.2449418251       -1.5194433056       -1.5902633653
 N         -4.1626163536       -2.3729130622       -0.3734957463
 N         -3.6878680414       -3.0311048559        1.8646684097
 C         -1.9437703981       -2.2045561791        0.5577393275
 C         -2.8826609560       -2.0437649851       -0.5021527642
 C         -2.4084179001       -2.7097793498        1.7581651389
 C         -1.0072880152       -1.3707551287       -1.2182779928
 C         -4.4814522417       -2.8525412660        0.8130964293
 H         -1.7890587235       -2.8555909074        2.6319821215
 H         -0.2538139120       -0.9795476682       -1.8729528690
 H         -5.5161780667       -3.1319250633        0.9505184790
 P          1.4654987267        3.2263843810       -0.8624927164
 O          0.4377526899       -0.5276420251        1.6581582006
 O          3.3275151037        0.2462047283        0.1403915897
 O          2.7941935351       -2.2090747995        0.6132654508
 O          0.3844337610        2.8395444630        0.2660545482
 O          1.2400516529        4.7706017336       -0.9835579155
 O          0.9317908802        2.6292887095       -2.2130357895
 O          2.8408760815        2.8044451009       -0.5434948612
 C          1.9763424584       -0.0066224401       -0.0969000785
 C          1.0426160951        0.5783452751        0.9949704762
 C          1.7463496759       -1.5396406935       -0.0205351669
 C          0.4751033644       -1.6635448414        0.8379631024
 C         -0.0534202651        1.5125178142        0.4634671177
 H          1.6823470446        0.3769977895       -1.0825569048
 H          1.6316801072        1.1176490384        1.7443011262
 H          1.5996013856       -1.9805065133       -1.0139340618
 H          0.5356142504       -2.5378919407        1.4944850449
 H         -0.8408847481        1.5765027281        1.2195025921
 H         -0.4740518157        1.1135623745       -0.4651063930
 H          3.5010290581        1.1826774856       -0.0784456663
 H          3.5491718266       -1.5954272612        0.6787552580
 H          1.6682691763        5.3131059110       -0.3123260754
 H          0.2744014151        3.1641193569       -2.6777613847
  35
        -70.95348739
 N         -1.9477736222       -1.2231004830        0.4383916377
 N         -3.9310489280       -1.4022857052       -0.5831933782
 N         -4.1086216916       -3.8196176014       -0.4503741058
 N         -2.2556664600       -4.8820321703        0.6056084464
 C         -2.2391786692       -2.5609646092        0.4077211468
 C         -3.5061096524       -2.6535546517       -0.2440144704
 C         -1.6331116222       -3.7332435882        0.8201370893
 C         -2.9911216490       -0.6005817183       -0.1688919464
 C         -3.4372211181       -4.8635591254       -0.0037222919
 H         -0.6661752184       -3.7734285665        1.3030275196
 H         -3.0197603350        0.4649954392       -0.2764938876
 H         -3.9034596141       -5.8268541997       -0.1542938747
 P          2.7311805485        3.2246496336       -0.8072615080
 O         -0.8508040264        0.7554098187        0.9159977639
 O          2.5670438902        0.2827969195        0.2363238720
 O          1.3355579005       -1.9026846909        0.9667451992
 O          1.5827588803        3.3780497340        0.3184992664
 O          3.9967244183        2.6857024993       -0.0705318245
 O          3.1306960187        4.7283460084       -1.0944757944
 O          2.3078105251        2.4405802514       -1.9768154366
 C          1.2172149734        0.2918192573       -0.1242085164
 C          0.4525611445        1.2881289744        0.7638390811
 C          0.5294375989       -1.0667912013        0.1991261920
 C         -0.7496036225       -0.6425054665        0.9814374321
 C          0.3551637441        2.6962608801        0.1868968340
 H          1.0801923363        0.5509854864       -1.1764750741
 H          0.9623688314        1.3381528911        1.7380873566
 H          0.2431957713       -1.5999087007       -0.7152004068
 H         -0.6394642327       -0.9828241555        2.0260866801
 H         -0.3827474816        3.2661272884        0.7549657526
 H          0.0604158861        2.6405938409       -0.8640957335
 H          3.1144377045        0.0235538475       -0.5177110703
 H          2.1518260795       -1.4118062898        1.1921953965
 H          4.3191552799        3.2328967542        0.6560753480
 H          2.5681894987        5.2107498453       -1.7087060964
  35
        -70.95346813
 N         -0.9068553717       -0.9251656313        0.5254922745
 N         -2.9222392527       -0.2938478067       -0.2167885759
 N         -3.9008035922       -2.5101656737       -0.3311310893
 N         -2.4392194989       -4.2642200184        0.3482916848
 C         -1.6401806863       -2.0753856785        0.3930925635
 C         -2.9180116559       -1.6508653742       -0.0827556058
 C         -1.4427001773       -3.4287473813        0.5995729474
 C         -1.7324281544        0.0877194507        0.1546913936
 C         -3.5908888784       -3.7704399826       -0.0951961220
 H         -0.5135838379       -3.8561977802        0.9512465641
 H         -1.4106426037        1.1104719849        0.1693205840
 H         -4.3706983002       -4.4939861383       -0.2866289436
 P          0.8700954755        3.4031685620       -0.5414718441
 O          0.9293429177        0.4762511822        0.9298269613
 O          3.5468479722       -0.9760784901        0.8788042907
 O          1.7870054239       -2.9027597717        0.8486508696
 O          0.4209489449        2.0723398977       -1.3022754772
 O          0.2361336446        3.2535761158        0.8868242161
 O         -0.0451791474        4.4948634645       -1.2128297929
 O          2.3227814366        3.6645283130       -0.5902410305
 C          2.5966397324       -0.7965221717       -0.1330055311
 C          1.9255254150        0.5847344782       -0.0785332156
 C          1.4157913660       -1.7445403368        0.1839575182
 C          0.4578448728       -0.8346199895        1.0131912087
 C          1.3349406790        0.9982687993       -1.4310595315
 H          3.0192503249       -1.0024399659       -1.1212449435
 H          2.6005095230        1.3748122429        0.2595703052
 H          0.9114575856       -2.0481397789       -0.7393106456
 H          0.4613784681       -1.1428361271        2.0690815669
 H          0.7558580816        0.1893094346       -1.8821914021
 H          2.1535624879        1.2931563214       -2.0927886534
 H          4.3619855834       -0.4980396947        0.6738402896
 H          2.5767331333       -2.7100658240        1.3868079850
 H          0.5631622386        3.8710327996        1.5503117238
 H          0.2857912651        4.8721502786       -2.0351588444
  35
        -70.95342627
 N         -1.0272261691       -1.1563394983        0.1598150672
 N         -2.8857928067       -0.8338374957       -1.0476045211
 N         -4.1917329058       -2.6219868339       -0.0602663777
 N         -3.0556118842       -3.8525474443        1.6312655908
 C         -1.9267917362       -2.0973631820        0.5889032263
 C         -3.0997979646       -1.8791864455       -0.1958826678
 C         -1.9544917352       -3.1265317501        1.5106435434
 C         -1.6695650189       -0.4401411242       -0.8050078765
 C         -4.0955499123       -3.5672907561        0.8553988102
 H         -1.1274322513       -3.3906599041        2.1554009742
 H         -1.1881548898        0.3761464330       -1.3084085437
 H         -4.9694677280       -4.1881200802        0.9912704641
 P          1.1260775508        2.8511849802       -1.0532375267
 O          0.3531839171        0.3624496224        1.2393922876
 O          3.6551065377       -0.5303075434        0.5009425935
 O          1.9357146850       -2.2931993362       -0.3961724295
 O          1.1084607161        2.9643775086        0.5451686752
 O          2.6132013008        3.0789614126       -1.5146023670
 O          0.4025817153        4.1943346467       -1.4325778075
 O          0.5307907581        1.6303678830       -1.6206330462
 C          2.4413380651        0.0484501131        0.1288511260
 C          1.7263584559        0.7019482218        1.3380879872
 C          1.4106866527       -0.9974489690       -0.3837254756
 C          0.2862267831       -0.9240707021        0.6749539036
 C          1.8889437648        2.2137162498        1.4541112981
 H          2.6508134002        0.7907427778       -0.6448086001
 H          2.1519098603        0.2503954171        2.2489980795
 H          1.0157279819       -0.6902570254       -1.3539555249
 H          0.4864704856       -1.6942145434        1.4386590183
 H          2.9510115229        2.4449867677        1.3317185181
 H          1.5411265257        2.5429820882        2.4356768986
 H          3.5146191415       -1.4889821800        0.6216011836
 H          2.3477647445       -2.4819397459       -1.2520783361
 H          2.9164047577        3.9963831629       -1.4924698116
 H         -0.5559466502        4.1950089633       -1.3461215172
  35
        -70.95341990
 N         -1.2710846371       -1.4175694161        0.8144551089
 N         -3.4771738195       -1.0634126482        0.6625350609
 N         -4.0396843941       -3.1703179180       -0.3996603812
 N         -2.1755167081       -4.6002930364       -0.7916999538
 C         -1.7956553568       -2.5354631773        0.2200097466
 C         -3.1993570613       -2.2890034882        0.1319531403
 C         -1.3171246175       -3.7374936210       -0.2703590731
 C         -2.3250437425       -0.5951461244        1.0518896511
 C         -3.4647558158       -4.2776346401       -0.8272573783
 H         -0.2726779576       -4.0178029219       -0.2632952625
 H         -2.1969473082        0.3565318491        1.5279680542
 H         -4.1234789377       -5.0153069133       -1.2632063296
 P          1.6290889923        3.7543755996       -0.5518735773
 O          0.3127375919        0.0859312423        1.6590762284
 O          3.0859018125       -0.4384364321        0.6104058832
 O          1.7341979659       -2.5247613982       -0.1750309941
 O          0.8320785127        2.4733068726       -1.0903377806
 O          1.7357308317        4.6570140076       -1.8289766543
 O          3.0833695795        3.1589575586       -0.2930324938
 O          1.0249719751        4.4191265446        0.6083729445
 C          1.9128186043       -0.0744165145       -0.0630910031
 C          1.0383657859        0.8968076269        0.7440765559
 C          1.0225920504       -1.3360704601       -0.1342405964
 C          0.1273625806       -1.1958446917        1.1351571778
 C          0.0997884101        1.7144633619       -0.1510751839
 H          2.1288247398        0.3250124422       -1.0581111362
 H          1.6370953722        1.5885739719        1.3435596389
 H          0.3867084831       -1.3061064843       -1.0252057777
 H          0.4236172012       -1.9355820882        1.8929762328
 H         -0.4934688825        2.3822868739        0.4800564036
 H         -0.5605195791        1.0671079052       -0.7321990826
 H          3.7521624939        0.2570124294        0.5306391587
 H          2.5800408061       -2.3917191780        0.2916332251
 H          2.0304783857        4.2235220656       -2.6409453832
 H          3.6998235178        3.7863829124        0.1030390185
  35
        -70.95337469
 N         -1.2684953994       -1.4289559671        0.7840811166
 N         -3.4725235248       -1.0798674220        0.5952093026
 N         -4.0235954917       -3.2211675854       -0.4024263523
 N         -2.1554085759       -4.6632489322       -0.7253751241
 C         -1.7864763254       -2.5654286635        0.2201735648
 C         -3.1890129479       -2.3219991557        0.1079112928
 C         -1.3025661817       -3.7827218245       -0.2248271293
 C         -2.3247244293       -0.5991386200        0.9822317684
 C         -3.4441945018       -4.3424246225       -0.7854200501
 H         -0.2581465068       -4.0618120847       -0.1978932906
 H         -2.2017197362        0.3676861734        1.4281948377
 H         -4.0983750783       -5.0951684556       -1.2020257407
 P          1.5797852536        3.8301833648       -0.5600241390
 O          0.2995122497        0.0912070451        1.6246174732
 O          3.0980942194       -0.4850745242        0.6578152095
 O          1.7397766616       -2.5627539445       -0.1419773156
 O          0.9450403926        2.4651947674       -1.1097845898
 O          1.8730630505        4.6253127828       -1.8773965711
 O          2.9878623808        3.3472742982        0.0044390355
 O          0.7500608479        4.5508266876        0.4122717023
 C          1.9471375367       -0.1139132248       -0.0493804824
 C          1.0644717320        0.8794156407        0.7216856274
 C          1.0424191101       -1.3650440549       -0.1270663519
 C          0.1242408250       -1.2006079775        1.1225187348
 C          0.1666793972        1.6999708014       -0.2131764953
 H          2.1917545168        0.2697714452       -1.0439939283
 H          1.6571059788        1.5658364490        1.3320360032
 H          0.4244847993       -1.3362819956       -1.0306478219
 H          0.4076556195       -1.9261358172        1.8990997873
 H         -0.4614643289        2.3639618425        0.3878127108
 H         -0.4619010632        1.0516064499       -0.8277529170
 H          3.7768658652        0.1998533885        0.5900862043
 H          2.5768622482       -2.4355610519        0.3419142757
 H          2.3584439665        4.1571621097       -2.5697725560
 H          3.4550834052        4.0110889738        0.5247312220
  35
        -70.95334044
 N         -0.1611524717       -2.3623853422        0.0051350559
 N         -1.5518761578       -4.0626472806       -0.4464657678
 N         -3.6178688040       -2.8116739645       -0.2654849222
 N         -3.3330131077       -0.5103845582        0.2730743593
 C         -1.4286639039       -1.8398822130        0.0480762614
 C         -2.2959805031       -2.9388148395       -0.2361536674
 C         -2.0127647795       -0.6122917765        0.3016858211
 C         -0.3179628645       -3.6800744894       -0.2920892064
 C         -4.0509230775       -1.5939338256       -0.0047152495
 H         -1.4550988776        0.2870424833        0.5184646389
 H          0.5184289618       -4.3436646676       -0.3936291213
 H         -5.1231409180       -1.4582603053       -0.0159311592
 P          0.2269818263        3.2565063285       -0.0994683996
 O          1.0528338060       -0.9311293976        1.3842643047
 O          3.7082524280       -0.4016158723       -0.2726428611
 O          1.9625279606       -1.2911694972       -2.0649718712
 O          0.2056317643        1.8104918614        0.5568158906
 O          1.7584624572        3.4759552590       -0.4218365494
 O         -0.0251765834        4.2839713678        1.0836623283
 O         -0.7071118171        3.3488264060       -1.2270522442
 C          2.4515047068        0.2165684042       -0.1797758635
 C          1.8982766758        0.2188078694        1.2595793306
 C          1.4520763853       -0.6891618354       -0.9257300170
 C          1.0874214076       -1.6886267058        0.2009196048
 C          1.1128701995        1.4843921873        1.6097239897
 H          2.4657841361        1.2227421333       -0.6029088546
 H          2.7133806407        0.1031183144        1.9841749960
 H          0.5593655650       -0.1223852947       -1.2093559961
 H          1.8679583849       -2.4651199415        0.2587883958
 H          1.7964860256        2.3154910237        1.7807951135
 H          0.5232045670        1.2907265349        2.5083277692
 H          4.4146835744        0.2278343510       -0.0714423049
 H          2.9135534700       -1.4543361255       -1.9229353138
 H          1.9549425806        4.3038258817       -0.8752812011
 H         -0.9338545578        4.5920870414        1.1625662086
  35
        -70.95332545
 N         -0.4759878369       -1.5861527994        0.9781688759
 N         -2.3766310732       -1.1573771998        2.0828337817
 N         -3.8874234568       -2.1285379247        0.4525431974
 N         -2.8051767109       -3.0849800512       -1.4412211473
 C         -1.4886252194       -2.0794792915        0.1985207835
 C         -2.6890208355       -1.7900878345        0.9153384807
 C         -1.6001583245       -2.7573274989       -1.0020106207
 C         -1.0772547587       -1.0640707344        2.0779700288
 C         -3.8638278870       -2.7537556484       -0.7083684379
 H         -0.7547904026       -3.0470387591       -1.6110038102
 H         -0.5073647051       -0.6256040234        2.8726265238
 H         -4.8244536134       -3.0392280223       -1.1129634761
 P          0.5001909887        3.1443073912       -0.6363898405
 O          1.6793764846       -0.8873704497        1.5944916429
 O          3.6036863996       -0.4225909298       -0.7853555360
 O          1.6829098624       -2.1326686158       -1.5500076767
 O          1.4243913940        2.6410062788        0.5938774568
 O          1.3618693517        4.3113803484       -1.2301969774
 O         -0.7289427015        3.8708684314        0.0072308661
 O          0.0970834091        2.0486590318       -1.5315107174
 C          2.3118703515        0.0077624270       -0.4861346830
 C          2.0976002466        0.3382449561        0.9986544151
 C          1.2407726301       -1.0852470418       -0.7407056959
 C          0.9430281566       -1.6378299002        0.6746073081
 C          1.0405608741        1.4318752126        1.2174274297
 H          2.1285179989        0.8779597781       -1.1160468655
 H          3.0333082031        0.6297489288        1.4822333994
 H          0.3418724269       -0.6087044040       -1.1590495305
 H          1.2666636773       -2.6871384017        0.7372393877
 H          0.9373301059        1.6233676258        2.2883177158
 H          0.0794916183        1.1014706872        0.8127139224
 H          3.8250357898       -1.2098804288       -0.2640247065
 H          2.1436965622       -1.7752128088       -2.3248621442
 H          2.1268783288        4.0784136892       -1.7670958967
 H         -0.5322761357        4.6811630849        0.4966016381
  35
        -70.95329126
 N         -0.8070015286       -1.1325116710        0.2375302744
 N         -2.6666043252       -0.3911424670       -0.7717904395
 N         -4.1791512662       -2.0565636707        0.1327411466
 N         -3.1512990453       -3.6218526210        1.6017223763
 C         -1.8221404065       -1.9615758654        0.6435251349
 C         -2.9920818656       -1.4807140859       -0.0158824209
 C         -1.9578965671       -3.0646705401        1.4654902180
 C         -1.3901543415       -0.2189504072       -0.5890655111
 C         -4.1785722363       -3.0998154455        0.9403454895
 H         -1.1465945249       -3.5151461350        2.0205802017
 H         -0.8385896596        0.5728602751       -1.0577236410
 H         -5.1305235850       -3.5906688179        1.0834170118
 P          0.8983173175        2.6449562406       -1.2782763900
 O          0.7295812714       -0.1860123164        1.7119047813
 O          3.8258337627       -0.5183428409        0.5828684141
 O          2.2239592067       -2.2229878222       -0.5968678121
 O          0.5057041406        2.2805121661        0.2210008366
 O          2.0904866007        3.6747051166       -1.0917729289
 O         -0.3685747302        3.4327108153       -1.7568955390
 O          1.1986804328        1.5222729554       -2.1824296162
 C          2.6017519144        0.0538055953        0.2289197608
 C          1.8623543847        0.6398389081        1.4485448417
 C          1.6138989368       -0.9846279354       -0.3672588361
 C          0.5490386404       -1.1725833775        0.7301786738
 C          1.4293937401        2.0978018809        1.2838400452
 H          2.8132385687        0.8399188074       -0.5005787031
 H          2.5205863835        0.5860604296        2.3251089344
 H          1.1584002870       -0.5797768676       -1.2741071867
 H          0.6833899833       -2.1660303765        1.1844029511
 H          2.3091385790        2.7250810654        1.1339131101
 H          0.8897770997        2.4059710325        2.1820877033
 H          3.7050634754       -1.4781650967        0.6972538725
 H          2.7029363648       -2.2086411327       -1.4389360868
 H          2.5954691636        3.8633718664       -1.8907733062
 H         -0.6751287075        4.1609477919       -1.2007883203
  35
        -70.95327768
 N         -1.8247340987       -1.3904922817       -0.4117873056
 N         -2.8731691764       -2.4772977175       -2.0640553146
 N         -3.7240714298       -4.3063321696       -0.7147339755
 N         -3.1240713434       -4.1891167213        1.5873149763
 C         -2.3930608885       -2.4966057934        0.1624667809
 C         -3.0565580651       -3.1739784242       -0.9050872180
 C         -2.4518807101       -3.0602480281        1.4232503114
 C         -2.1478255386       -1.4485215406       -1.7310763908
 C         -3.7150401038       -4.7393819753        0.5313269352
 H         -1.9725503050       -2.6383814975        2.2960232318
 H         -1.8324875518       -0.6887318433       -2.4174116697
 H         -4.2510220626       -5.6591186039        0.7175257820
 P          2.7883924743        3.3462960332        0.0186227518
 O         -0.8829195520        0.7140249292       -0.5598455142
 O          2.2899919451        0.6016602096        1.0634817663
 O          0.4948229976       -1.1675456029        1.9581736196
 O          2.1737155701        2.5246460933       -1.2330172036
 O          3.2603883538        4.7110177967       -0.5996761218
 O          4.1515143111        2.6090949326        0.2902786224
 O          1.8607873903        3.5396014221        1.1414578834
 C          1.3271382886        0.2444867479        0.1210598919
 C          0.3179337998        1.3692772283       -0.1898467503
 C          0.4127594330       -0.9282300837        0.5845547394
 C         -1.0151931640       -0.4146518027        0.2623372594
 C          0.7848774299        2.2812163697       -1.3217405367
 H          1.8719829867       -0.0282956452       -0.7857243281
 H          0.1606228641        1.9637234435        0.7201207168
 H          0.6185224162       -1.8392159025        0.0094025910
 H         -1.5014207006       -0.1576297594        1.2195600910
 H          0.2260983576        3.2188751077       -1.2973885627
 H          0.6298612640        1.7813420116       -2.2807415382
 H          1.8532988329        0.7689633891        1.9155123128
 H          1.3488120451       -1.5756917781        2.1704868981
 H          3.9195472746        4.6460579238       -1.3026532997
 H          4.0485885849        1.7372723708        0.6937581636
  35
        -70.95325650
 N         -0.3025907730       -2.1620763563        0.4360074149
 N         -1.6514385624       -3.9510859930        0.5169111030
 N         -3.6145497681       -2.8866236184       -0.4163059489
 N         -3.3271274423       -0.5886741292       -0.9604445427
 C         -1.5073281017       -1.7523298013       -0.0750912949
 C         -2.3503893608       -2.9056993125       -0.0101496444
 C         -2.0666110486       -0.5807981655       -0.5541305853
 C         -0.4653965308       -3.4735174733        0.7586603119
 C         -4.0191979280       -1.7201177171       -0.8789206183
 H         -1.5435890701        0.3630016652       -0.6054856070
 H          0.3321321973       -4.0586600321        1.1724319066
 H         -5.0415088162       -1.6750110168       -1.2268297053
 P          0.4178020053        3.4738732995        0.4983435409
 O          0.7124582921       -0.0710835662        0.6646732340
 O          3.7465635910       -0.5647823417        0.0422714234
 O          2.5444893237       -2.7672674188       -0.8161649306
 O         -0.0948218223        2.3249651856       -0.5169549135
 O          0.3656587099        2.8855875487        1.9501190178
 O         -0.7850480238        4.4869786515        0.4820470115
 O          1.7468076154        3.9819541675        0.1261397476
 C          2.6214604991       -0.3055165129       -0.7517602436
 C          1.6437071036        0.6908920614       -0.1059947631
 C          1.7929697797       -1.6054180910       -0.7832886162
 C          0.9427577204       -1.4447627047        0.5064489277
 C          0.9078020205        1.5463600988       -1.1383464525
 H          2.9077575956        0.0148702728       -1.7578199569
 H          2.1533692678        1.3694846085        0.5886533069
 H          1.1243402689       -1.6178585529       -1.6504648912
 H          1.5052614369       -1.8452813468        1.3650629372
 H          0.3953655593        0.9302646027       -1.8795297945
 H          1.6312397982        2.2089262452       -1.6211622180
 H          4.3886805829        0.1556924994       -0.0232551949
 H          3.3734164501       -2.6108158241       -0.3282124713
 H         -0.5162535949        2.7466161645        2.3157662137
 H         -0.8729746600        5.0338804310       -0.3063237228
  35
        -70.95324649
 N         -0.1871119546       -2.0694232579       -0.0342942919
 N         -1.5398075354       -3.4953674979       -1.1111857771
 N         -3.6105706741       -2.3112380956       -0.6919836726
 N         -3.3664418431       -0.3307841706        0.6059470716
 C         -1.4533494711       -1.5626399767        0.0970373105
 C         -2.2959410576       -2.4809647261       -0.6016657268
 C         -2.0537287987       -0.4738228914        0.7045450033
 C         -0.3194199063       -3.2175248445       -0.7516114385
 C         -4.0607734117       -1.2359028025       -0.0764108172
 H         -1.5104141576        0.2760120700        1.2609261701
 H          0.5231482769       -3.8392691957       -0.9849110459
 H         -5.1275824024       -1.0701356375       -0.1300932518
 P          0.0738098220        3.1782663567        0.2599253482
 O          0.9182439914       -0.2032232812        0.8645308979
 O          3.8895868765       -0.4546733878        0.6376861263
 O          3.0338105434       -2.7664912607       -0.3000615033
 O         -0.1197206263        1.9442227401       -0.7414608691
 O         -0.4056487549        2.5787017689        1.6463424347
 O         -1.0400681713        4.1861968865       -0.1970832753
 O          1.4215285711        3.7662787737        0.2636743554
 C          2.9228261414       -0.3056379878       -0.3637908148
 C          1.7634450148        0.6095017160        0.0597816249
 C          2.2137844091       -1.6698499367       -0.5101205173
 C          1.0513667872       -1.5521852479        0.5186202682
 C          1.0241197784        1.2100635532       -1.1386310700
 H          3.3703209369        0.0174841666       -1.3085659330
 H          2.0913093436        1.4328162207        0.6998957796
 H          1.7936252674       -1.7663585601       -1.5165468331
 H          1.2878814348       -2.1236994072        1.4291332491
 H          0.6453482173        0.4346953394       -1.8079828515
 H          1.7110055536        1.8724254067       -1.6723698390
 H          4.4415908392        0.3366085125        0.7027215715
 H          3.7176616986       -2.5229848713        0.3495257403
 H         -0.1139695902        3.0612866554        2.4273741527
 H         -1.9432755646        3.8503677505       -0.2517734967
  35
        -70.95323994
 N         -0.2611416614       -2.2854460172        0.0844241212
 N         -1.7227010638       -3.9230707514       -0.3692243591
 N         -3.7346914869       -2.5878570764       -0.1657340779
 N         -3.3497499063       -0.3047897780        0.3874578741
 C         -1.5064414652       -1.7134330010        0.1505186381
 C         -2.4197677538       -2.7722038932       -0.1399045891
 C         -2.0353397003       -0.4650022810        0.4237770360
 C         -0.4730131439       -3.5936817909       -0.2233725360
 C         -4.1143620445       -1.3528325957        0.0988140680
 H         -1.4386309232        0.4015985239        0.6711990042
 H          0.3368002646       -4.2863190932       -0.3442404444
 H         -5.1793279374       -1.1693387638        0.0809664945
 P          0.5303377455        3.0858737255       -0.1928132556
 O          0.9928245913       -0.8715592867        1.4327149781
 O          3.6976842715       -0.2726465608       -0.2427991462
 O          1.9582929063       -1.3904129807       -1.9360472771
 O          0.2405226749        1.9205410458        0.8772896810
 O         -0.7275856766        4.0274262828       -0.0912163322
 O          0.3001772424        2.3876356361       -1.5851142377
 O          1.8462608753        3.7151737119       -0.0006233739
 C          2.3977101375        0.2392495984       -0.1563398332
 C          1.9219089618        0.2092066706        1.3062278989
 C          1.3884359358       -0.6826626098       -0.8776711391
 C          1.0093188605       -1.6489527380        0.2643793052
 C          1.2664121959        1.5094606401        1.7638506664
 H          2.3724957780        1.2632663276       -0.5528980376
 H          2.7848807369        0.0058975371        1.9524963489
 H          0.5048531171       -0.1102020668       -1.1732901110
 H          1.7723560805       -2.4422076415        0.3215597283
 H          2.0295471945        2.2894071586        1.8217835958
 H          0.7962803536        1.3504980359        2.7357201422
 H          3.7628279712       -0.8116013464       -1.0531142708
 H          1.8445024774       -0.9132142657       -2.7708051248
 H         -0.7236737058        4.6735882394        0.6235212455
 H         -0.4561491149        2.7287703272       -2.0786799803
  35
        -70.95323272
 N         -0.1977424005       -1.4135390565        0.6549533411
 N         -2.1858381274       -1.9611915675        1.5465007023
 N         -3.5352691679       -1.4825397427       -0.3959516367
 N         -2.3200095493       -0.7205878531       -2.2891283124
 C         -1.1310427615       -1.1988358701       -0.3307135355
 C         -2.3852302003       -1.5530511853        0.2605799221
 C         -1.1611802019       -0.7938792088       -1.6515035752
 C         -0.9088131310       -1.8372609388        1.7374961104
 C         -3.4271413241       -1.0512788820       -1.6376194779
 H         -0.2934431064       -0.5250056853       -2.2361099141
 H         -0.4326150274       -2.0690945459        2.6702638242
 H         -4.3487239365       -0.9692528545       -2.1962129781
 P         -0.4600069816        2.1648866486        0.5506675827
 O          1.4184319473        0.2999464705        0.8404694560
 O          4.2205594851       -0.6747007212       -0.0667336002
 O          2.6442522402       -2.7948028892       -0.3001812645
 O          0.0836589424        1.7092209290       -0.8803293602
 O         -1.4942376359        3.2910598030        0.1336260477
 O          0.7637694260        2.9245423906        1.2167356337
 O         -1.1637711093        1.1752487960        1.3738875097
 C          3.0220714488       -0.4111949910       -0.7373406625
 C          2.2674784264        0.8040739678       -0.1823529212
 C          2.0174112182       -1.5738941071       -0.5232555398
 C          1.2032372463       -1.0933301137        0.7060709780
 C          1.4460294833        1.5762729681       -1.2441147790
 H          3.2912801667       -0.2952756731       -1.7879697908
 H          2.9528359743        1.5002068784        0.3106204571
 H          1.3518513889       -1.6863385206       -1.3827539520
 H          1.5802826071       -1.5851236439        1.6151579131
 H          1.4285843294        1.0446857624       -2.1982783755
 H          1.8816365001        2.5665735052       -1.3898060042
 H          4.1197225478       -0.5356704565        0.8872436151
 H          3.5909514859       -2.6249680237       -0.1224900915
 H         -1.1709281976        4.0270440339       -0.4012565330
 H          0.6969238604        2.9907462638        2.1750704263
  35
        -70.95321305
 N         -1.2323019583       -1.4081046957        0.8275392263
 N         -3.4367066420       -1.0224640493        0.7525673947
 N         -4.0545180115       -3.0751179339       -0.3829096894
 N         -2.2210049448       -4.5132020042       -0.8766876336
 C         -1.7870903870       -2.4934444965        0.2009929880
 C         -3.1890660768       -2.2264373828        0.1608980103
 C         -1.3377836561       -3.6825103717       -0.3450875876
 C         -2.2694677790       -0.5852357131        1.1311246351
 C         -3.5060128505       -4.1723182621       -0.8676306179
 H         -0.2981796711       -3.9796452662       -0.3706573230
 H         -2.1178490731        0.3422731871        1.6463582465
 H         -4.1856606125       -4.8842890297       -1.3139683748
 P          1.5882297603        3.7036532688       -0.5443288603
 O          0.4030699121        0.0381438628        1.6868507244
 O          3.1649766395       -0.3684316209        0.5217994218
 O          1.7970720040       -2.5269168589       -0.1755399784
 O          0.7488817425        2.4464531072       -1.0811252827
 O          1.6028664020        4.6641872668       -1.7833736380
 O          3.0498920758        3.0958272426       -0.4188548744
 O          1.0604410790        4.3132869903        0.6825925868
 C          1.9367170577       -0.0773037804       -0.0782810446
 C          1.0624803010        0.8744738285        0.7416073886
 C          1.0554396468       -1.3529055143       -0.1473611675
 C          0.1745103817       -1.2268435557        1.1326455067
 C          0.0710381143        1.6586381729       -0.1255188254
 H          2.1611574905        0.3203045245       -1.0686863450
 H          1.6543161593        1.5968371827        1.3104327363
 H          0.4101316943       -1.3289261205       -1.0327935335
 H          0.4589601549       -1.9926896111        1.8689714370
 H         -0.5264286131        2.3034928561        0.5257633621
 H         -0.5828297833        0.9931416907       -0.6931064835
 H          3.0677440242       -0.4182892080        1.4853666476
 H          2.7263605564       -2.3070436478        0.0350256382
 H          1.8953425323        4.2837843586       -2.6223072396
 H          3.7001673738        3.6532327085        0.0239149057
  35
        -70.95317561
 N         -0.1341051706       -1.3012257234        0.1154270296
 N         -1.4565648721       -0.7900375698       -1.6197555921
 N         -3.5734285400       -0.9971020735       -0.4574726219
 N         -3.3754990443       -1.5794564102        1.8401300500
 C         -1.4255326262       -1.3426080662        0.5848169786
 C         -2.2498485787       -1.0267256580       -0.5319593273
 C         -2.0528472358       -1.6120482838        1.7861614577
 C         -0.2359355849       -0.9590563968       -1.1945692222
 C         -4.0539951184       -1.2809556165        0.7385558244
 H         -1.5371434423       -1.8485994571        2.7063324909
 H          0.6138426206       -0.8683739306       -1.8400940673
 H         -5.1302431628       -1.2696899583        0.8337999300
 P         -0.4569849308        2.3152887615       -0.7736185028
 O          1.3665488814       -0.0596586302        1.4429768747
 O          4.3659642545       -0.6310923050       -0.2608919091
 O          3.1462710468       -2.5623004766        1.0899613483
 O          0.9102479132        1.4920605742       -0.9330499327
 O         -1.2540315273        1.5827779598        0.3995532536
 O         -1.1997734424        1.9991014219       -2.1085621950
 O         -0.2622453967        3.7457048329       -0.5004057093
 C          2.9748010417       -0.5544155079       -0.2681516020
 C          2.4308697482        0.5302350349        0.6968893059
 C          2.2979713571       -1.8566095266        0.2333973543
 C          1.0434889487       -1.3403870273        0.9559003552
 C          1.9790856419        1.7925610416       -0.0397945887
 H          2.6577272586       -0.3143490514       -1.2880279527
 H          3.2122006695        0.8246843242        1.4078026596
 H          2.0550255037       -2.5428570224       -0.5791546873
 H          0.7885186301       -1.9645544654        1.8205100305
 H          2.8153382484        2.1739709124       -0.6306704120
 H          1.6582534658        2.5588208885        0.6679962194
 H          4.6334977195       -1.4408913274        0.2145064463
 H          3.2581417370       -2.0866265499        1.9282083926
 H         -1.5893605570        2.2275741429        1.0318370285
 H         -1.4327513538        1.0662219473       -2.2792487036
  35
        -70.95312910
 N         -0.5633106165       -2.0734423111       -0.0924470762
 N         -1.7775192269       -2.3290539775       -1.9605768016
 N         -3.9481361650       -2.4798378386       -0.8847485650
 N         -3.8778740653       -2.2930934107        1.4877494365
 C         -1.8739009305       -2.1789892770        0.3060087625
 C         -2.6272274855       -2.3432938307       -0.8917029670
 C         -2.5620265560       -2.1523451473        1.5047271361
 C         -0.5924487145       -2.1622397010       -1.4523746270
 C         -4.4894290577       -2.4481941973        0.3175788783
 H         -2.0910210380       -2.0125328327        2.4673544475
 H          0.2879408439       -2.1183745855       -2.0608900533
 H         -5.5635777129       -2.5591566087        0.3580969645
 P          1.3369980539        3.3566134437       -0.3037453840
 O          0.3023270939       -0.6346397234        1.5497644979
 O          3.0327600033        0.5073448520       -0.3028830304
 O          2.9410042575       -1.8089628199        1.0408605937
 O          0.2626969284        2.2246799878       -0.7456215989
 O          0.7499507263        4.6808455416       -0.8954418389
 O          2.5849649511        3.0925385590       -1.2277052181
 O          1.5643522339        3.4093047087        1.1469153777
 C          1.7872725152       -0.1186784872       -0.2551732103
 C          0.8472795893        0.4676618884        0.8270769471
 C          1.8814341340       -1.6107214669        0.1519345727
 C          0.5256296171       -1.8262890174        0.8340926752
 C         -0.2587839685        1.3361879278        0.2183808487
 H          1.3260472310       -0.0076637608       -1.2414316313
 H          1.4129068808        1.0884113529        1.5287779472
 H          2.0660267456       -2.2779840229       -0.6892003408
 H          0.5435246018       -2.6415793834        1.5671677721
 H         -0.7603381576        1.8880146500        1.0169851066
 H         -0.9889923294        0.7196009260       -0.3134723426
 H          3.6613391133       -0.0139576174        0.2335548373
 H          2.7292919474       -1.4319008332        1.9095578520
 H          0.6642725727        4.7054021226       -1.8574443462
 H          3.0774470450        2.2829810957       -1.0132365952
  35
        -70.95308153
 N         -1.5075480047       -1.5105288753        0.1024180039
 N         -2.7649166135       -1.8248262370       -1.7275001348
 N         -4.1569654782       -3.5941019677       -0.8300657950
 N         -3.6677304870       -4.1837049140        1.4222741516
 C         -2.4021492750       -2.5011688389        0.4176633448
 C         -3.1861979373       -2.6916384267       -0.7608221877
 C         -2.6929420788       -3.2931355377        1.5132496104
 C         -1.7925236875       -1.1564777789       -1.1815955847
 C         -4.3345246426       -4.2879243104        0.2776262612
 H         -2.1776921782       -3.2377324392        2.4622883346
 H         -1.2551763929       -0.3809521779       -1.6898290749
 H         -5.1176548993       -5.0319960853        0.2534886721
 P          2.6155202472        3.3026127933       -0.4240562482
 O         -0.6680191819        0.4638710185        1.0084019122
 O          2.7159382803        0.3497914536       -0.1714190490
 O          1.8179348462       -1.4460293560        1.5379935916
 O          1.2315294336        2.7485658390       -1.0551931744
 O          2.6504248968        4.8217718273       -0.8278754601
 O          3.7133179447        2.6841911186       -1.3661285889
 O          2.7400211504        3.1165901105        1.0272620349
 C          1.3455100552        0.1127446022       -0.1932740513
 C          0.5217515887        1.1335752377        0.6139732325
 C          0.9406557350       -1.2234287572        0.4720962066
 C         -0.5014043654       -0.9343944783        0.9643336977
 C          0.1688628539        2.3780524941       -0.2016759041
 H          1.0398627875        0.1316629125       -1.2432036279
 H          1.0955170886        1.4260181749        1.5021746624
 H          0.9484729199       -2.0504673655       -0.2439926905
 H         -0.6572208836       -1.3475163616        1.9690825191
 H         -0.0875483212        3.1986509958        0.4712904925
 H         -0.6799428806        2.1608155828       -0.8552140875
 H          3.0591453240        0.0419639512        0.6868484514
 H          1.8644106052       -2.3834647019        1.7714112575
 H          2.6534683008        4.9994661110       -1.7770916088
 H          3.8211525590        1.7307767177       -1.2499109473
  35
        -70.95304027
 N         -0.8553434248       -2.2579565337       -0.1176187633
 N         -1.7356620424       -3.9429676049       -1.3021481722
 N         -4.0110181016       -3.7089140642       -0.4959675833
 N         -4.3171822268       -1.9583234744        1.0894856193
 C         -2.1843927476       -2.2994296532        0.2113096380
 C         -2.7268161433       -3.3735928826       -0.5569782773
 C         -3.0423113206       -1.6042240366        1.0430940950
 C         -0.6634000480       -3.2629641393       -1.0146960338
 C         -4.7257479392       -2.9710718090        0.3309472218
 H         -2.7295673428       -0.7772579303        1.6638268616
 H          0.3037199690       -3.4739777918       -1.4281420328
 H         -5.7750599634       -3.2198865580        0.4028769452
 P          2.0610003332        3.6022096027        0.0160806945
 O         -0.4538174571       -0.1278189531        0.6967210333
 O          2.8137381813        0.0747596776        0.7838010035
 O          2.2517872672       -2.0248483791       -0.6934690495
 O          0.5004823278        3.3233232085        0.1675773692
 O          2.1253285561        5.1524182428        0.2328555163
 O          2.3260193928        3.3985883355       -1.5226583061
 O          2.9376168878        2.8181163597        0.9135966796
 C          1.7595031765        0.3127381469       -0.1049343971
 C          0.5177996774        0.9121735743        0.5883815612
 C          1.2643622125       -1.0561323132       -0.6144785517
 C          0.1439851936       -1.3666567453        0.4073237145
 C         -0.1096075371        2.0898905337       -0.1580330188
 H          2.0874863344        0.9494042229       -0.9338043086
 H          0.7927790596        1.2455518677        1.5982848081
 H          0.8095704101       -0.9525573809       -1.6057455612
 H          0.5848817865       -1.8070245196        1.3193721053
 H         -1.1521429778        2.1861190925        0.1541908604
 H         -0.0647856989        1.9249569304       -1.2379103552
 H          3.1881103598        0.9390651500        1.0387945270
 H          2.9384809819       -1.8158435065       -0.0342312499
 H          2.1914552720        5.4461463050        1.1479451145
 H          3.1731205237        3.7220660025       -1.8514638971
  35
        -70.95303254
 N         -1.2971968711       -1.4122422538        0.8020763864
 N         -3.5045410631       -1.0796107822        0.6230109548
 N         -4.0390120024       -3.2098859032       -0.4068714448
 N         -2.1587996803       -4.6299258610       -0.7567032571
 C         -1.8064668083       -2.5444756287        0.2219260541
 C         -3.2113068612       -2.3117907173        0.1165113640
 C         -1.3127681855       -3.7503063232       -0.2433198739
 C         -2.3600981966       -0.5947981356        1.0149610637
 C         -3.4504660075       -4.3194226353       -0.8093920120
 H         -0.2658055274       -4.0202925507       -0.2227297399
 H         -2.2440960457        0.3659953699        1.4755549954
 H         -4.0985753590       -5.0708938895       -1.2375937105
 P          1.6756297410        3.7389257156       -0.5537370405
 O          0.2615337909        0.1152278028        1.6466811250
 O          3.0575920366       -0.4042956304        0.6311482268
 O          1.7208755854       -2.5006333231       -0.1553355945
 O          0.8422449819        2.4876620323       -1.1028940473
 O          1.9398815672        4.5755908243       -1.8566362801
 O          3.0871264791        3.1120860743       -0.2334280933
 O          1.0213998679        4.4442241355        0.5627768462
 C          1.8879303265       -0.0491987764       -0.0536041828
 C          1.0040630824        0.9226169365        0.7425707422
 C          1.0037594838       -1.3147625008       -0.1274542692
 C          0.0957545368       -1.1732072641        1.1322378217
 C          0.0859399087        1.7469437306       -0.1674761628
 H          2.1101139560        0.3482682841       -1.0480501785
 H          1.5988070292        1.6109773469        1.3507627370
 H          0.3764920867       -1.2908705708       -1.0248002127
 H          0.3935537974       -1.9038204946        1.8984373330
 H         -0.5026137866        2.4293839513        0.4525560412
 H         -0.5768610089        1.1049967349       -0.7515864003
 H          3.7275707163        0.2855094976        0.5353699544
 H          2.5652511440       -2.3589576006        0.3116838846
 H          1.2363676178        5.1798060678       -2.1179797712
 H          3.7496905257        3.7542176732        0.0489427424
  35
        -70.95301700
 N         -0.7499543790       -1.7548517084        0.0870028722
 N         -2.2771113661       -1.4647041090       -1.5316160733
 N         -4.1724551100       -2.3680041764       -0.3164130575
 N         -3.6648591147       -3.0854840980        1.8960439555
 C         -1.9430774203       -2.2089823457        0.5918480511
 C         -2.8967306060       -2.0252009700       -0.4512632879
 C         -2.3890173007       -2.7521534782        1.7827484483
 C         -1.0362107818       -1.3169804056       -1.1711037032
 C         -4.4730315087       -2.8828953640        0.8601033206
 H         -1.7580161299       -2.9189740711        2.6444329749
 H         -0.2950421371       -0.8992742602       -1.8228295948
 H         -5.5039221875       -3.1738314112        1.0024138402
 P          1.4550893186        3.2184966124       -0.9261745409
 O          0.4609857867       -0.5302290796        1.6816601625
 O          3.3249279552        0.2508711679        0.0429076904
 O          2.7935417783       -2.2012042311        0.6088561169
 O          0.5601367346        2.8627984067        0.3420078331
 O          1.3456379149        4.7768311718       -0.9716348082
 O          0.6068707465        2.6165342322       -2.1275516843
 O          2.8566398692        2.7659982202       -0.8983357310
 C          1.9627320563       -0.0094288409       -0.1092574340
 C          1.0938911445        0.5701067557        1.0361872198
 C          1.7373870140       -1.5414365411       -0.0216400004
 C          0.4776963626       -1.6608492044        0.8524960977
 C          0.0297842055        1.5730686416        0.5745203274
 H          1.6028898193        0.3716660436       -1.0724336135
 H          1.7342664871        1.0567924689        1.7804927973
 H          1.5791730308       -1.9885416325       -1.0111267293
 H          0.5396689722       -2.5408010090        1.5012881713
 H         -0.6967814769        1.6970271893        1.3818461520
 H         -0.4804869020        1.2135713568       -0.3234119383
 H          3.4982541818        1.1648776977       -0.2542808663
 H          3.5665864863       -1.6074490052        0.6029860523
 H          0.4647635945        5.1565887342       -0.8539516619
 H          0.9578550446        2.7868866160       -3.0093216276
  35
        -70.95298207
 N         -0.3737308248       -2.5441833451        0.0578682765
 N         -1.5123995692       -4.4437430218       -0.2894036999
 N         -3.7316432166       -3.4741395174       -0.2250472075
 N         -3.7710282300       -1.1256721085        0.1567961633
 C         -1.7008490942       -2.1981232416        0.0561471690
 C         -2.4066057641       -3.4208751366       -0.1646189772
 C         -2.4511231265       -1.0493436865        0.2232989247
 C         -0.3446105350       -3.8891702497       -0.1488050642
 C         -4.3311851135       -2.3110415880       -0.0622421178
 H         -2.0236469388       -0.0754740684        0.4163552597
 H          0.5770346666       -4.4350169524       -0.2008608831
 H         -5.4107093028       -2.3209533206       -0.1092905496
 P          1.1269514416        3.6740058638        0.0108488564
 O          0.5831282130       -0.8265609193        1.3000364579
 O          3.1838364526        0.0313068313       -0.3039843242
 O          1.6908826486       -1.4404926902       -2.0150610613
 O          0.9465728983        2.8029467604        1.3604525967
 O          2.6393018366        3.5888173822       -0.3833959311
 O          0.9887745233        5.1499454528        0.5392670824
 O          0.2077341255        3.2536103336       -1.0582294517
 C          1.8251165823        0.3651183984       -0.3555844379
 C          1.2567240495        0.4132408251        1.0699503257
 C          0.9970455033       -0.7598864046       -1.0157691846
 C          0.7617844085       -1.6823298862        0.1979957476
 C          0.2746667334        1.5660496259        1.2934546043
 H          1.6876731289        1.3229473254       -0.8713837633
 H          2.0851838345        0.5012543236        1.7832665651
 H          0.0351682278       -0.3648803128       -1.3602702850
 H          1.6486563436       -2.3220167567        0.3300592361
 H         -0.2328121936        1.4219987577        2.2494309267
 H         -0.4553624439        1.5968185540        0.4787727633
 H          3.4095527542       -0.4850400388       -1.0979510326
 H          1.5343523421       -1.0333581242       -2.8795820549
 H          3.2561385321        4.0091272918        0.2296120699
 H          0.0962464093        5.4566794561        0.7338315757
  35
        -70.95298199
 N         -0.8031294059       -1.4207873976        0.0204554735
 N         -2.5963476373       -0.8741020832       -1.2109359243
 N         -4.1931662752       -2.2899336039       -0.0573435744
 N         -3.2716503439       -3.5278425295        1.7554111906
 C         -1.8596451201       -2.1320198024        0.5336704847
 C         -2.9851836705       -1.7789246862       -0.2653754847
 C         -2.0597211962       -3.0299220689        1.5654883083
 C         -1.3249384372       -0.6879938113       -1.0060663140
 C         -4.2541047174       -3.1419743927        0.9481015700
 H         -1.2854150649       -3.3540077458        2.2466530001
 H         -0.7449470089       -0.0113634194       -1.6054042444
 H         -5.2232996899       -3.5783488408        1.1427888491
 P          1.1577184247        2.9852384852       -1.1153462051
 O          0.5953723550       -0.6031972089        1.7295914174
 O          3.5879370075       -0.1289441831        0.8338310480
 O          2.5149203551       -2.1400553227       -0.4822328279
 O          1.0174681593        2.8272065475        0.4881850379
 O          2.6873232907        3.2636957306       -1.3509894808
 O          0.3884263825        4.3164558027       -1.4515385619
 O          0.6658571826        1.8315860631       -1.8747322120
 C          2.3265636080        0.1774226049        0.3225034245
 C          1.3203371459        0.5806068458        1.4171814873
 C          1.6524107422       -1.0455418211       -0.3638861474
 C          0.5228516184       -1.4451016914        0.6045336710
 C          0.3466653933        1.6936823521        0.9953948297
 H          2.4847899161        0.9849953932       -0.3914685732
 H          1.8521396027        0.8800726736        2.3249859393
 H          1.2501795389       -0.7507128347       -1.3380200864
 H          0.6899931476       -2.4731365287        0.9527638645
 H         -0.2260401413        2.0210598307        1.8657765393
 H         -0.3377051599        1.3045382047        0.2385622347
 H          3.5485302058       -0.9625856783        1.3300723249
 H          3.2495028194       -1.9184274236       -1.0747215907
 H          3.1150486580        3.9563681806       -0.8306323581
 H          0.4064639564        5.0310773508       -0.8013970570
  35
        -70.95296949
 N         -0.2455197300       -2.2815510769        0.1574677110
 N         -1.7169063195       -3.9360087044       -0.1905184985
 N         -3.7182956860       -2.5696337704       -0.1135231653
 N         -3.3149142182       -0.2547588946        0.2714641749
 C         -1.4858120630       -1.6963382606        0.1644172254
 C         -2.4059435025       -2.7652027350       -0.0571188104
 C         -2.0029324220       -0.4258250067        0.3365202681
 C         -0.4658868183       -3.6075008701       -0.0538244793
 C         -4.0871750140       -1.3142784872        0.0521278296
 H         -1.3948015262        0.4459158529        0.5310630696
 H          0.3384747240       -4.3144335706       -0.1124757340
 H         -5.1497876710       -1.1222337823        0.0064449427
 P          0.4668228021        3.0654164968       -0.2089951401
 O          1.0128677581       -0.7985091774        1.4252826903
 O          3.7164664220       -0.2509202018       -0.3453585758
 O          1.9669204740       -1.4961916677       -1.9114240641
 O          0.2815330742        1.9644610415        0.9344699315
 O         -0.6513023360        4.1363841375        0.0692412205
 O         -0.0098608428        2.2479526842       -1.4863652055
 O          1.8081298223        3.6554317732       -0.2949874687
 C          2.4076092599        0.2327866841       -0.2290289884
 C          1.9789422895        0.2407725539        1.2510527162
 C          1.3967435148       -0.7307332256       -0.8936987750
 C          1.0246831109       -1.6371195933        0.2994559547
 C          1.3927197353        1.5687157528        1.7217275409
 H          2.3515020811        1.2438025308       -0.6507434689
 H          2.8593168834        0.0142530867        1.8666913556
 H          0.5095933646       -0.1797283917       -1.2179261524
 H          1.7886858482       -2.4257289214        0.3947289604
 H          2.1679711302        2.3371057114        1.6736290317
 H          1.0211071370        1.4548879471        2.7413898495
 H          3.7436838324       -0.8864889476       -1.0857838565
 H          1.8464510337       -1.0721329236       -2.7735043978
 H         -1.5383132681        3.8107970207        0.2680522449
 H         -0.0736866994        2.7713269047       -2.2943996900
  35
        -70.95294055
 N         -0.2908679847       -2.4166822048        0.4865484727
 N         -1.9875491482       -3.6667581802        1.2647447889
 N         -3.7677839171       -2.5362123511        0.0918342707
 N         -3.0666371032       -0.7306797284       -1.2799253611
 C         -1.4340174555       -1.9067508056       -0.0823570854
 C         -2.4978628406       -2.7219061869        0.4250406358
 C         -1.7915643867       -0.9038970299       -0.9680993261
 C         -0.7079110059       -3.4476730017        1.2755938912
 C         -3.9743403549       -1.5372559341       -0.7427098165
 H         -1.0947398235       -0.2306341780       -1.4489698764
 H         -0.0155648690       -4.0280934096        1.8531951910
 H         -5.0003800318       -1.3544285633       -1.0271688550
 P          0.7656918478        3.3025794422       -0.0885181069
 O          1.3148716856       -0.9975008138        1.4487814432
 O          2.9886186880        0.5289905712       -0.9488892173
 O          2.6842398677       -1.9568231501       -1.3590593013
 O          0.3266555101        2.5034296395        1.2377689738
 O          0.4152376392        4.7738544210        0.3142157900
 O         -0.2818337773        2.9315641229       -1.1996324228
 O          2.1629840642        3.0660062991       -0.4931874232
 C          1.6847241368        0.1624377772       -0.6093463154
 C          1.4040339367        0.3129061557        0.9050026967
 C          1.5133239072       -1.3535461593       -0.9042345350
 C          1.0844354616       -1.9578514726        0.4521089731
 C          0.1361235441        1.1041913694        1.2523249057
 H          0.9637838946        0.7535451626       -1.1865072479
 H          2.2567451865        0.8012486825        1.3907146113
 H          0.7370596465       -1.5324047460       -1.6559193060
 H          1.7098352971       -2.8289493568        0.6819731506
 H         -0.1444982202        0.8605489134        2.2806528447
 H         -0.6821815468        0.8316343277        0.5793349867
 H          3.0377485971        1.5039912707       -0.9331844804
 H          3.3958174066       -1.2893442766       -1.3471376775
 H          1.0817616587        5.2348448951        0.8344815418
 H         -1.0827160768        3.4724085704       -1.2101134404
  35
        -70.95293812
 N         -0.2245796923       -2.3697148308       -0.0608442089
 N         -1.6129300490       -4.1271523324        0.1007125700
 N         -3.6853492583       -2.8967824836       -0.0029016115
 N         -3.4364491078       -0.5459563484       -0.2233777649
 C         -1.4999647377       -1.8531131731       -0.0987806392
 C         -2.3624107525       -2.9918701096        0.0030707308
 C         -2.1138746250       -0.6178294212       -0.2296534061
 C         -0.3816851567       -3.7174659447        0.0705188298
 C         -4.1416555375       -1.6645222150       -0.1072333806
 H         -1.5978324055        0.3254073732       -0.3522679109
 H          0.4595351464       -4.3797730801        0.1330290104
 H         -5.2160459937       -1.5494634879       -0.1058415675
 P          0.5103127435        3.2212443358        0.0757897947
 O          1.2553976925       -1.1410814960        1.2651113879
 O          3.5414020479       -0.0055810969       -0.4765298573
 O          1.8419893612       -1.1396848759       -2.2027827902
 O          1.0758247460        2.5137097944        1.4138982173
 O          1.7733852725        3.7726394767       -0.6634088260
 O         -0.1797331925        4.5359888659        0.6042695860
 O         -0.3264240437        2.3203916756       -0.7327255803
 C          2.2014275974        0.3638935727       -0.3054053570
 C          1.7973918497        0.1754783320        1.1611451517
 C          1.2547589337       -0.5997560543       -1.0552265998
 C          1.0535734797       -1.7115466897       -0.0101382346
 C          0.7408851712        1.1677119096        1.6702924070
 H          2.0592088865        1.3977481104       -0.6371437368
 H          2.6952726229        0.2202591986        1.7860584250
 H          0.3125167730       -0.0926889670       -1.2695590591
 H          1.8101198483       -2.4921676862       -0.1855480195
 H          0.6444383258        1.0624361810        2.7523179945
 H         -0.2139227919        0.9253206129        1.1983193832
 H          3.6162084287       -0.5047572590       -1.3108256118
 H          1.6340738672       -0.5983962045       -2.9779578495
 H          2.2625978675        4.4641560480       -0.1983647608
 H         -1.0891101594        4.4587679191        0.9126642740
  35
        -70.95291094
 N         -0.9901604955       -1.1541806740        0.6301181946
 N         -3.0266940818       -0.4987345943       -0.0303845612
 N         -3.9610108685       -2.7163313000       -0.3396595604
 N         -2.4504440637       -4.4933583294        0.1463599958
 C         -1.7013309413       -2.3015145785        0.3973487565
 C         -2.9938155281       -1.8622986967       -0.0217935119
 C         -1.4682816975       -3.6632630436        0.4622470680
 C         -1.8392631428       -0.1292488922        0.3610692799
 C         -3.6208660482       -3.9858084936       -0.2278763348
 H         -0.5207505971       -4.0992892544        0.7480404784
 H         -1.5349803042        0.8935978137        0.4675961969
 H         -4.3883327041       -4.7054111708       -0.4755568467
 P          1.0747168667        3.7170879733       -0.5736006579
 O          0.7868888692        0.2484575038        1.2299356992
 O          3.4704595520       -0.9945137779        0.8137699436
 O          1.8230816307       -3.0021402816        0.5424013699
 O          0.2708365950        2.3358448055       -0.6717782345
 O          0.0068972533        4.6803212516        0.0396402255
 O          1.2438916313        4.1086300758       -2.1054172318
 O          2.3460652079        3.6720759052        0.1627737652
 C          2.4583741801       -0.7133605886       -0.1115102761
 C          1.7114839577        0.5925622083        0.2027938151
 C          1.3545912214       -1.7785418583        0.0902510551
 C          0.3844223495       -1.0794890281        1.0932339102
 C          1.0094705260        1.1794697501       -1.0273315636
 H          2.8419301804       -0.7263160601       -1.1367981924
 H          2.3533714681        1.3654608560        0.6321082246
 H          0.8258716755       -1.9632255301       -0.8509124383
 H          0.4360209588       -1.5683759029        2.0765377701
 H          0.2814224350        0.4776273756       -1.4410811373
 H          1.7545882467        1.4307431916       -1.7852213934
 H          4.2177675879       -0.3914031979        0.6987371606
 H          2.6256029798       -2.8490835469        1.0737513263
 H         -0.8342415824        4.7453496127       -0.4315854796
 H          1.9892410082        4.6886703144       -2.2957163476
