35
purine_ribose_phosphate  charge=0 mult=1  seed=1_b3lyp_pcm
N      2.20795100    -0.27225900    -0.10439600
N      3.18490500    -2.12138000    -0.94002400
N      5.44670300    -1.59144500    -0.24222300
N      5.67095900     0.47760900     0.94648200
C      3.55306100    -0.17487700     0.19853100
C      4.14177600    -1.33810100    -0.33766400
C      4.36562000     0.73619800     0.84918500
C      2.06636200    -1.45587400    -0.77788300
C      6.13931200    -0.65685100     0.40206800
H      4.00049000     1.65613800     1.28792300
H      1.10138700    -1.79200400    -1.11919100
H      7.20438500    -0.82546100     0.50151500
P     -4.70747200    -0.68016300    -0.06978600
O      0.15405500    -0.01942000     0.96653900
O     -0.69471600     2.99039700     0.26676800
O      1.11235000     2.34311900    -1.57778000
O     -3.42633700     0.12137400     0.40820300
O     -5.86097300     0.39194900     0.11038700
O     -4.86929500    -1.75793600     1.09538500
O     -4.68813100    -1.23044700    -1.43244600
C     -0.91161500     1.70572500    -0.30853800
C     -1.12375200     0.61962300     0.76097400
C      0.41898700     1.29408100    -0.95858100
C      1.15864200     0.66456200     0.23891000
C     -2.11112600    -0.47206100     0.37888500
H     -1.72901600     1.73919900    -1.02623100
H     -1.44360600     1.08565800     1.69391900
H      0.24053900     0.52562200    -1.71020900
H      1.62053000     1.44912400     0.84152600
H     -2.05932900    -1.28349100     1.10311500
H     -1.90818600    -0.86542800    -0.61691400
H     -1.53099900     3.45859400     0.34741400
H      0.89989800     3.15184100    -1.09033500
H     -5.97043100     0.74011500     1.00438500
H     -5.38643300    -2.53195900     0.83922400
