36
calc_d8291f964903a723; angstrom; atom order from source job; valid
P 3.414320 1.449627 -0.029081
O 0.275095 -0.452472 0.601419
O -1.053187 -3.382301 1.191846
O 0.859593 -3.745410 -0.623650
O 3.187616 -0.116602 0.089204
O -1.690798 -0.346131 -1.789935
O -4.913878 2.602046 -0.648530
O 4.897460 1.615461 0.523645
O 2.571370 2.155886 1.115654
O 3.115631 2.035179 -1.344467
N -2.052166 -0.067059 0.455541
N -3.187878 1.223932 -1.133334
C -1.025477 -1.011743 0.840984
C -1.051004 -2.399250 0.164563
C 0.273305 -2.451476 -0.629092
C 1.163230 -1.465208 0.135371
C 2.240744 -0.851855 -0.723924
C -2.546755 0.867039 1.479151
C -2.252884 0.216008 -0.862690
C -3.964496 1.313268 1.158730
C -4.086939 1.797519 -0.261985
H -1.152722 -1.171147 1.910879
H -1.919527 -2.523455 -0.478905
H 0.101572 -2.103467 -1.644694
H 1.625276 -1.987241 0.980884
H 1.809953 -0.194322 -1.476533
H 2.806489 -1.641514 -1.214693
H -1.881914 1.731748 1.548658
H -2.526810 0.355017 2.436764
H -4.283303 2.108740 1.827507
H -4.662669 0.480529 1.277070
H -0.510731 -4.117874 0.872648
H 0.632682 -4.202321 -1.439499
H -3.285412 1.451122 -2.113565
H 5.576546 1.203903 -0.025290
H 2.646525 1.756691 1.991405
