32
calc_952ceee5ea63c11f; angstrom; atom order from source job; valid
O 1.390231 -0.474608 1.321836
O 2.318173 -2.277363 -1.195734
O 3.568947 0.034932 -1.442481
O 3.743044 2.301964 0.929866
N -0.656239 -1.135397 0.390304
N -2.817432 -1.549843 0.856873
N -0.911664 1.048307 -0.689087
N -3.206959 1.749036 -0.781041
N -4.966133 0.491223 0.055067
C 1.479260 -1.157519 -0.964592
C 0.777826 -1.357899 0.391173
C 2.323615 0.124072 -0.762023
C 2.536543 0.172340 0.754579
C 2.609723 1.565224 1.372640
C -1.368049 -0.048423 -0.075498
C -1.589487 -1.987434 0.939770
C -2.699373 -0.328215 0.220507
C -3.647356 0.638488 -0.163668
C -1.895562 1.887169 -1.004746
H 0.759326 -1.049474 -1.776029
H 0.921031 -2.390367 0.708865
H 1.755748 0.990557 -1.093151
H 3.443626 -0.391869 1.000979
H 1.732424 2.137295 1.073277
H 2.600388 1.473548 2.461609
H 3.126800 -1.932685 -1.603537
H 3.510799 0.508055 -2.278180
H -1.287481 -2.922606 1.383455
H 4.540307 1.905662 1.295781
H -1.601081 2.801252 -1.506876
H -5.318623 -0.306723 0.552296
H -5.600272 1.227844 -0.200046
