30
DFT refinement start; not an optimized result
O -1.694355 -0.581308 1.222054
O -1.906251 2.552219 1.129355
O -3.074672 1.549685 -0.964471
O -2.058947 -1.622109 -2.287450
N 0.591165 -0.042927 1.279356
N 2.428202 -1.208561 1.842260
N 1.234741 0.535606 -1.005833
N 3.373225 -0.319929 -1.603901
C -1.114583 1.597095 0.488900
C -0.765960 0.443263 1.449742
C -1.877195 0.885158 -0.665808
C -2.193456 -0.517852 -0.109826
C -1.584786 -1.639297 -0.969128
C 1.404770 -0.029304 0.183223
C 1.268850 -0.775014 2.220662
C 2.566872 -0.761947 0.551369
C 3.554188 -0.877381 -0.415570
C 2.248733 0.342884 -1.834159
H -0.204614 2.086268 0.132376
H -0.872973 0.756534 2.494343
H -1.230008 0.791982 -1.541070
H -3.280442 -0.646315 -0.048381
H -0.502671 -1.498821 -1.037820
H -1.778339 -2.601169 -0.478642
H -2.817364 2.465875 0.785604
H -2.931287 2.203764 -1.662869
H 0.849221 -0.958739 3.189941
H -3.002992 -1.838437 -2.298652
H 4.481587 -1.407006 -0.255670
H 2.144284 0.781674 -2.815730
