30
DFT refinement start; not an optimized result
O -1.255035 0.220465 -1.166279
O -1.487496 -2.156286 1.521886
O -3.736806 -1.162950 0.361644
O -1.713382 3.001968 -1.124434
N 0.679374 -0.946941 -0.544285
N 2.730537 -1.637998 -1.183855
N 1.353856 0.954613 0.837520
N 3.733190 1.238198 0.915643
C -1.378317 -0.893128 0.917148
C -0.767950 -0.931650 -0.498963
C -2.730422 -0.198009 0.665054
C -2.417679 0.760912 -0.484902
C -2.106747 2.181173 -0.032240
C 1.579209 -0.085599 0.047578
C 1.444597 -1.838668 -1.267314
C 2.849890 -0.532701 -0.359714
C 3.934600 0.186221 0.117094
C 2.472734 1.565160 1.231842
H -0.759774 -0.267726 1.556873
H -1.088753 -1.839667 -1.016056
H -3.079052 0.324369 1.552991
H -3.237547 0.785719 -1.205198
H -3.007004 2.628178 0.387742
H -1.330450 2.167818 0.737627
H -2.330446 -2.537716 1.237338
H -3.741280 -1.366193 -0.580131
H 0.973874 -2.624595 -1.836668
H -0.919774 2.616444 -1.512157
H 4.956276 -0.072021 -0.134552
H 2.347503 2.422461 1.880976
