16
calc_a8a11457d80de557; angstrom; atom order from source job; valid
N 1.194605 -0.687876 -0.004113
N -1.192928 -0.690896 0.000155
N 2.397011 1.264021 -0.049377
N -2.399919 1.257715 0.057809
N 0.003209 -2.646483 -0.054451
C 1.181905 0.652630 -0.006548
C -1.183609 0.649782 0.005692
C -0.001791 1.384913 -0.002042
C 0.001487 -1.283454 -0.006641
H -0.003059 2.464585 -0.000280
H 3.198552 0.698342 0.168017
H 2.459029 2.237289 0.188976
H -2.465455 2.233208 -0.170052
H -3.201622 0.692100 -0.158839
H -0.850196 -3.113454 0.194589
H 0.860956 -3.110667 0.184673
