  14
        -28.55756148
 O          1.7796624739        1.8674915907        0.0000338273
 N         -1.2952894317        1.3517222827       -0.0000392962
 N          1.9067973278       -0.4123668141        0.0000754316
 N         -2.0752096890       -0.7338536396       -0.0000199313
 N          0.0690393275       -1.8831455332       -0.0001546435
 C         -0.2040836307        0.5303460195       -0.0000536838
 C         -0.7189257661       -0.7780111691       -0.0000400402
 C          1.1998207710        0.7836267222       -0.0001737367
 C         -2.3752298699        0.5402192665        0.0001546128
 C          1.3322824345       -1.6449799353        0.0001134396
 H         -1.2780327481        2.3605428813       -0.0000927480
 H          2.9181168367       -0.3283307284        0.0003655265
 H         -3.3820987470        0.9060321710        0.0005394553
 H          2.0028837454       -2.4905999188        0.0005675649
