14
hypoxanthine  charge=0 mult=1  seed=1_b3lyp_pcm
O      1.58359800     2.04023000     0.00000300
N     -1.42109600     1.21508900    -0.00000200
N      1.93275500    -0.23433900    -0.00000200
N     -1.99680300    -0.94068400     0.00000200
N      0.24639300    -1.88281100     0.00000100
C     -0.25103800     0.50016600    -0.00000100
C     -0.63198200    -0.83787700    -0.00000000
C      1.11462200     0.90550900    -0.00000100
C     -2.42731200     0.30699600     0.00000000
C      1.49258700    -1.52617900     0.00000000
H     -1.51838600     2.21817200    -0.00000400
H      2.92942200    -0.06407500    -0.00000200
H     -3.46141900     0.60801300    -0.00000000
H      2.27158900    -2.27642400    -0.00000000
