31
calc_0bb453e036a99e18; angstrom; atom order from source job; valid
O -1.727562 0.145501 -1.312524
O -2.103957 -2.577343 0.104349
O -3.709792 -0.945204 1.503795
O -2.779324 2.454210 0.058315
O 4.676899 1.463093 0.679811
N 0.383721 0.115628 -0.297029
N 1.613155 1.859932 0.385924
N 2.131230 -1.558686 -0.563835
N 4.241923 -0.677030 -0.019080
C -1.489049 -1.361030 0.506674
C -0.778824 -0.689596 -0.687086
C -2.625170 -0.374320 0.810411
C -2.978512 0.149279 -0.592247
C -3.601180 1.525375 -0.646276
C 1.682709 -0.318584 -0.251840
C 0.406887 1.434238 0.097721
C 2.429235 0.773333 0.174564
C 3.847300 0.634595 0.321192
C 3.419143 -1.677318 -0.430329
H -0.817474 -1.518153 1.348513
H -0.412641 -1.442947 -1.382764
H -2.248478 0.443601 1.420910
H -3.668674 -0.550217 -1.073118
H -3.717669 1.826453 -1.690414
H -4.596039 1.463002 -0.195817
H -1.494580 -3.310531 0.231876
H -3.817662 -1.847624 1.174082
H -0.496663 2.020888 0.132066
H -3.178574 3.327200 0.003379
H 3.900748 -2.619578 -0.651844
H 5.232160 -0.868879 0.054580
