31
calc_0bb453e036a99e18; angstrom; first printed source-job orientation; unoptimized start
O -1.776279 -0.067520 1.360180
O -2.210562 2.532297 -0.277283
O -3.831900 0.791674 -1.449530
O -2.645305 -2.501261 -0.043527
O 4.634169 -1.334170 -0.656733
N 0.295357 -0.060266 0.269124
N 1.544816 -1.769454 -0.431979
N 2.036530 1.606545 0.602483
N 4.159796 0.757783 0.082668
C -1.595663 1.309481 -0.567957
C -0.859650 0.722961 0.658994
C -2.717057 0.274939 -0.799282
C -2.998293 -0.216817 0.635578
C -3.498323 -1.657988 0.700597
C 1.582449 0.378618 0.259314
C 0.342063 -1.357702 -0.155954
C 2.359384 -0.697826 -0.183897
C 3.779968 -0.535703 -0.295985
C 3.317956 1.730747 0.496991
H -0.923255 1.386666 -1.428855
H -0.483962 1.517748 1.316754
H -2.348863 -0.559972 -1.402289
H -3.753033 0.432315 1.100924
H -3.521153 -1.964095 1.752646
H -4.512966 -1.672298 0.285733
H -1.567381 3.254328 -0.288296
H -3.984441 1.694677 -1.121226
H -0.538256 -1.964642 -0.229703
H -2.992208 -3.403735 -0.014668
H 3.752612 2.683462 0.757132
H 5.156468 0.944163 0.031019
