15
DFT refinement start; not an optimized result
O -0.454081 2.558679 0.000011
O -2.099279 -1.667804 0.000045
N 1.013074 0.829989 -0.000001
N -1.255963 0.430901 -0.000023
C 1.282411 -0.510996 -0.000036
C 0.260436 -1.399166 -0.000003
C -0.248684 1.356186 0.000034
C -1.104916 -0.951726 -0.000081
C 2.718698 -0.890338 0.000011
H 1.777983 1.495416 0.000004
H 0.430208 -2.460797 0.000273
H 3.212190 -0.483320 -0.879962
H 3.211981 -0.483861 0.880371
H 2.826630 -1.969076 -0.000325
H -2.204732 0.790179 -0.000024
