32
calc_1b1a89f0c87538f8; angstrom; atom order from source job; valid
O -1.062146 -0.404609 0.916439
O -1.656073 2.563051 -0.403297
O -3.568262 0.927028 -1.230954
O -3.067241 -2.356858 1.732366
O 0.357020 -0.950292 -1.653078
O 4.778845 -0.985136 -0.650321
N 1.030949 0.322070 0.136721
N 2.557791 -0.930996 -1.121226
C -1.168857 1.283657 -0.783251
C -0.354127 0.717438 0.403028
C -2.337140 0.278858 -0.938577
C -2.412666 -0.386317 0.438312
C -2.944035 -1.803647 0.425448
C 2.074841 0.723017 0.970025
C 1.252564 -0.551186 -0.929546
C 3.341925 0.308312 0.734846
C 1.778511 1.621459 2.132143
C 3.664118 -0.563796 -0.360562
H -0.574689 1.364611 -1.690543
H -0.316759 1.501033 1.150081
H -2.090413 -0.451693 -1.704142
H -3.031441 0.231293 1.099122
H -3.945007 -1.801760 -0.004412
H -2.299225 -2.426839 -0.201042
H -2.569771 2.615537 -0.720852
H -3.728121 0.897704 -2.179429
H 4.145341 0.625404 1.378358
H 1.048772 1.175665 2.808153
H 2.694753 1.796545 2.687216
H 1.389489 2.586264 1.806133
H 2.716413 -1.555617 -1.900218
H -2.188454 -2.407905 2.122681
