32
calc_1b1a89f0c87538f8; angstrom; first printed source-job orientation; unoptimized start
O 1.120149 0.175125 1.064649
O 1.696161 -2.484421 -0.888273
O 3.590728 -0.729397 -1.243368
O 2.808305 2.421701 1.825647
O -0.190594 1.299103 -1.115594
O -4.639069 1.057542 -0.397032
N -0.938793 -0.441116 0.160510
N -2.401858 1.143589 -0.725341
C 1.212930 -1.174830 -0.920036
C 0.443201 -0.852319 0.384184
C 2.360089 -0.128985 -0.953048
C 2.389295 0.434333 0.476258
C 2.658337 1.939260 0.515243
C -2.009687 -1.113749 0.710939
C -1.117047 0.706561 -0.588427
C -3.269713 -0.646158 0.536984
C -1.771280 -2.365628 1.482807
C -3.542500 0.551629 -0.201092
H 0.551439 -1.068550 -1.786332
H 0.437582 -1.753480 1.002689
H 2.107248 0.670544 -1.652328
H 3.163864 -0.093348 1.051615
H 3.599041 2.149754 0.003554
H 1.834831 2.448324 -0.002591
H 2.672667 -2.441243 -0.857499
H 3.763097 -0.704888 -2.195162
H -4.115379 -1.163193 0.954708
H -1.179115 -2.162811 2.373075
H -2.724893 -2.780640 1.791413
H -1.249883 -3.102159 0.874620
H -2.525109 1.992032 -1.269917
H 2.006537 2.210062 2.324633
