35
calc_fa4caa8829bcc007; angstrom; first printed source-job orientation; unoptimized start
O -2.075983 0.387462 1.260379
O -0.291197 -2.448612 -2.048749
O -2.858460 -4.048133 1.293508
N -2.421848 -1.825872 1.271836
N -1.510262 -3.239756 -0.336987
C -0.775918 -0.913596 -0.277305
C -1.815388 -0.701167 0.789982
C -0.831548 -2.242219 -0.986412
C -2.293990 -3.110112 0.783987
H -0.840631 -0.096105 -1.008191
H -3.069839 -1.709644 2.049157
H -1.486545 -4.166289 -0.758606
P -0.275729 2.938728 -0.560076
O 0.810047 0.613215 0.734182
O 3.535143 -0.826824 1.221350
O 2.062268 -2.545881 -0.222234
O 1.312216 3.114290 -0.349786
O -0.670123 4.385112 -1.039730
O -0.927992 2.859867 0.869114
O -0.635845 1.900698 -1.541166
C 2.923220 -0.273385 0.090185
C 2.156438 1.000474 0.463868
C 1.797711 -1.190948 -0.445144
C 0.606706 -0.746587 0.417553
C 2.162818 2.034130 -0.665084
H 3.680659 -0.064073 -0.675746
H 2.557765 1.445862 1.380011
H 1.596317 -0.974933 -1.497965
H 0.619640 -1.342139 1.344211
H 3.159398 2.456298 -0.797920
H 1.812125 1.567446 -1.590795
H 3.424545 -1.794924 1.185943
H 2.522726 -2.929080 -0.983011
H -0.525906 5.083532 -0.389554
H -1.294371 1.987365 1.109802
