43
calc_4988b19d69c57b7e; angstrom; atom order from source job; valid
N -3.090476 -0.590952 -0.607957
N -4.126537 -0.165476 1.490155
N -4.998211 -1.860139 0.056584
N -2.329121 1.074872 0.827631
N -3.982519 -2.216273 -1.971122
N -5.935724 -1.434614 2.107508
C -3.203630 0.066130 0.551188
C -4.028320 -1.542972 -0.806548
C -4.994270 -1.143720 1.190345
H -2.399449 1.451060 1.759932
H -3.202676 -2.081627 -2.596488
H -4.604228 -2.992799 -2.108434
H -6.002927 -0.888535 2.947054
H -6.638610 -2.121393 1.902919
P 3.822781 -1.327134 0.212422
O -0.069572 0.671461 0.302774
O 1.382419 3.826365 -0.579321
O -1.271801 3.710410 -0.864595
O 2.574877 -0.449777 -0.232444
O 5.047017 -0.498085 -0.337781
O 3.655765 -2.616581 -0.706310
O 3.885479 -1.704721 1.635190
C 0.766429 2.854383 0.232780
C 1.046467 1.401891 -0.200296
C -0.792002 2.928872 0.221512
C -1.232944 1.466063 0.014659
C 2.330214 0.846672 0.356255
H 1.127851 3.004843 1.250196
H 1.071358 1.353587 -1.295955
H -1.167688 3.323584 1.163563
H -1.503245 1.336402 -1.033959
H 3.153312 1.516080 0.104924
H 2.261037 0.745733 1.439645
H 0.752765 4.055065 -1.277862
H -1.503120 4.589886 -0.550751
H 5.927624 -0.687852 0.084509
H 3.698589 -2.447264 -1.655565
O 7.471962 -0.885347 0.676691
H 7.800423 -1.790432 0.635507
H 7.576279 -0.613927 1.595501
O -1.361751 -0.897844 -2.846342
H -1.788450 -0.683140 -1.989315
H -0.529270 -1.325145 -2.623618
