17
DFT refinement start; not an optimized result
N 2.169142 0.486424 -0.004898
N 1.668027 -1.692385 0.001302
N -0.747067 -1.463290 0.005273
N -1.521026 0.813699 0.002493
N -0.135558 2.659515 -0.047714
N -3.000010 -0.951357 0.060369
C 0.787116 0.403518 0.003225
C 0.498883 -0.964216 0.005594
C -0.282512 1.310736 -0.000545
C 2.627222 -0.788350 -0.005421
C -1.694576 -0.525537 0.006173
H 2.744443 1.312036 -0.018011
H 3.682734 -1.005220 -0.010947
H 0.744352 3.086723 0.181619
H -0.958303 3.216065 0.115516
H -3.166293 -1.906422 -0.209193
H -3.698295 -0.288327 -0.230913
