  37
        -74.31051809
 O         -0.1649986354       -1.1737633746        1.8408177330
 O          4.2427245890       -1.5737789749        1.0355918903
 N          0.4626552667       -1.3226420751       -0.3531963952
 N          2.0097523576       -1.4823694883        1.3830798400
 C          1.5074589161       -1.2626355974       -1.2567215343
 C          2.7878218427       -1.3784959724       -0.8331530413
 C          0.7165608066       -1.2896607553        1.0022349515
 C          3.1197033327       -1.4847727788        0.5550227202
 C          1.2115101637       -1.0679348954       -2.7039355831
 H          3.6074188262       -1.3410194470       -1.5288420844
 H          0.6249543375       -0.1611084299       -2.8376330828
 H          2.1458524593       -0.9663258519       -3.2453107331
 H          0.6650662189       -1.9147904082       -3.1143902797
 H          2.1790663639       -1.4572092806        2.3838086272
 P          0.4880137159        2.3510446993       -0.0831866198
 O         -1.2240159639        0.2720167520       -0.8154910422
 O         -4.1544055436       -0.7861461839        0.4750797591
 O         -2.8446310084       -2.5320432793       -0.9253289396
 O         -0.9724693341        2.5990985577        0.5482737627
 O          0.3786475520        2.2494104795       -1.6416946970
 O          1.1144279834        3.7990241167        0.0803798082
 O          1.2472429702        1.2661023456        0.5588720981
 C         -2.7776875664       -0.7219939298        0.7214867467
 C         -2.2298033788        0.5896965118        0.1325774322
 C         -2.0125609234       -1.8444241655       -0.0387275335
 C         -0.9053107408       -1.0988377264       -0.8191712111
 C         -1.6360109899        1.5250427033        1.1851346102
 H         -2.5466714599       -0.7753112418        1.7869096785
 H         -3.0275283489        1.1113144191       -0.4111930237
 H         -1.5815251634       -2.5756330892        0.6475885990
 H         -0.9466955263       -1.4494741467       -1.8538087938
 H         -0.9229850406        0.9661232201        1.7977180991
 H         -2.4172411864        1.9661750224        1.8041476238
 H         -4.5800977522       -1.3928167806        1.0982962462
 H         -3.6642163991       -2.0120980790       -1.0399565871
 H          0.0326043411        3.0414592942       -2.0728396072
 H          1.4180649861        4.0304253269        0.9632575368
