  37
        -74.31051809
 O         -0.1649986354       -1.1737633746        1.8408177330
 O          4.2427245890       -1.5737789749        1.0355918903
 N          0.4626552667       -1.3226420751       -0.3531963952
 N          2.0097523576       -1.4823694883        1.3830798400
 C          1.5074589161       -1.2626355974       -1.2567215343
 C          2.7878218427       -1.3784959724       -0.8331530413
 C          0.7165608066       -1.2896607553        1.0022349515
 C          3.1197033327       -1.4847727788        0.5550227202
 C          1.2115101637       -1.0679348954       -2.7039355831
 H          3.6074188262       -1.3410194470       -1.5288420844
 H          0.6249543375       -0.1611084299       -2.8376330828
 H          2.1458524593       -0.9663258519       -3.2453107331
 H          0.6650662189       -1.9147904082       -3.1143902797
 H          2.1790663639       -1.4572092806        2.3838086272
 P          0.4880137159        2.3510446993       -0.0831866198
 O         -1.2240159639        0.2720167520       -0.8154910422
 O         -4.1544055436       -0.7861461839        0.4750797591
 O         -2.8446310084       -2.5320432793       -0.9253289396
 O         -0.9724693341        2.5990985577        0.5482737627
 O          0.3786475520        2.2494104795       -1.6416946970
 O          1.1144279834        3.7990241167        0.0803798082
 O          1.2472429702        1.2661023456        0.5588720981
 C         -2.7776875664       -0.7219939298        0.7214867467
 C         -2.2298033788        0.5896965118        0.1325774322
 C         -2.0125609234       -1.8444241655       -0.0387275335
 C         -0.9053107408       -1.0988377264       -0.8191712111
 C         -1.6360109899        1.5250427033        1.1851346102
 H         -2.5466714599       -0.7753112418        1.7869096785
 H         -3.0275283489        1.1113144191       -0.4111930237
 H         -1.5815251634       -2.5756330892        0.6475885990
 H         -0.9466955263       -1.4494741467       -1.8538087938
 H         -0.9229850406        0.9661232201        1.7977180991
 H         -2.4172411864        1.9661750224        1.8041476238
 H         -4.5800977522       -1.3928167806        1.0982962462
 H         -3.6642163991       -2.0120980790       -1.0399565871
 H          0.0326043411        3.0414592942       -2.0728396072
 H          1.4180649861        4.0304253269        0.9632575368
  37
        -74.30982974
 O         -0.1628760541       -1.1589178349        1.8512502604
 O          4.2420327064       -1.5569612440        1.0265214474
 N          0.4549179617       -1.3252545906       -0.3445043489
 N          2.0105615358       -1.4715040284        1.3853056411
 C          1.4952556773       -1.2656661285       -1.2540605147
 C          2.7775966634       -1.3760081311       -0.8359405206
 C          0.7155594378       -1.2789693745        1.0103141180
 C          3.1164102833       -1.4740306605        0.5515084362
 C          1.1901183836       -1.0805772253       -2.7004663156
 H          3.5939342974       -1.3391586722       -1.5354499909
 H          2.1208258929       -0.9791283837       -3.2480382988
 H          0.6436313891       -1.9310825518       -3.1030211358
 H          0.5997883279       -0.1765223716       -2.8357246395
 H          2.1851938522       -1.4362252749        2.3848531732
 P          0.4964812184        2.3501887110       -0.0738316766
 O         -1.2273829477        0.2701324292       -0.8210199711
 O         -4.1864974006       -0.8277155374        0.5050970823
 O         -2.8052155471       -2.5125746233       -0.9541821500
 O         -0.9643909624        2.6018988764        0.5530552141
 O          0.3904670595        2.2490030469       -1.6328439777
 O          1.1277597725        3.7954442771        0.0924285209
 O          1.2499713904        1.2604759537        0.5668213712
 C         -2.8122075533       -0.7065403149        0.6981033356
 C         -2.2372164526        0.6054567724        0.1189285683
 C         -2.0105824933       -1.8348461496       -0.0167730116
 C         -0.9135227925       -1.1008817579       -0.8060956875
 C         -1.6385463516        1.5271275188        1.1796875912
 H         -2.6381868798       -0.7484294885        1.7741299555
 H         -3.0103363855        1.1543166398       -0.4330436142
 H         -1.5801415092       -2.5285972247        0.7070981707
 H         -0.9661662593       -1.4642217974       -1.8365110214
 H         -0.9332275615        0.9590998253        1.7923328590
 H         -2.4196586114        1.9675034255        1.7993302714
 H         -4.3556120981       -1.0255683037       -0.4335722559
 H         -3.3840893731       -3.1406062213       -0.4967212393
 H          0.0582813882        3.0462393797       -2.0653505820
 H          1.4291217188        4.0251244623        0.9766243124
  37
        -74.30843937
 O         -0.1589667020       -1.1620929642        1.8420149796
 O          4.2465541352       -1.5861719667        1.0329113931
 N          0.4652458624       -1.3284874584       -0.3510087231
 N          2.0146595355       -1.4793188492        1.3838435785
 C          1.5087248407       -1.2803556886       -1.2568515349
 C          2.7892605453       -1.3983539733       -0.8346177709
 C          0.7214797907       -1.2868385774        1.0032336340
 C          3.1232214915       -1.4941817834        0.5537701087
 C          1.2106492330       -1.0968803429       -2.7050569426
 H          3.6079061382       -1.3697451495       -1.5317914740
 H          2.1442907568       -0.9992046095       -3.2483605023
 H          0.6637722000       -1.9468481303       -3.1083907040
 H          0.6242878314       -0.1910977461       -2.8439007701
 H          2.1862200373       -1.4429313967        2.3838628463
 P          0.4875057256        2.3807042783       -0.0792858259
 O         -1.2298199544        0.2554632465       -0.8293618255
 O         -4.1503484991       -0.7929271287        0.4838130317
 O         -2.8430720811       -2.5479850856       -0.9083570104
 O         -0.9880899354        2.6051819151        0.5239507140
 O          0.3938921015        2.2632465899       -1.6476707171
 O          1.1274657432        3.8074296203        0.1751642636
 O          1.2604824093        1.2904978114        0.5249638015
 C         -2.7728135226       -0.7267266440        0.7255103796
 C         -2.2281414200        0.5805698789        0.1240389833
 C         -2.0088927246       -1.8538829504       -0.0287791742
 C         -0.9045611657       -1.1128009014       -0.8178827285
 C         -1.6322279810        1.5232713512        1.1683258805
 H         -2.5384557001       -0.7718734259        1.7906497092
 H         -3.0306117798        1.0966371781       -0.4180857785
 H         -1.5757539420       -2.5798337982        0.6615932076
 H         -0.9448828662       -1.4747824280       -1.8485902649
 H         -0.9064990739        0.9751973790        1.7751294010
 H         -2.4122387404        1.9553444770        1.7954728295
 H         -4.5721915541       -1.4029809454        1.1063183295
 H         -3.6607520791       -2.0264520118       -1.0292775902
 H         -0.0726927689        2.9708091491       -2.1103750302
 H          0.5222855257        4.5394902367        0.3485302244
  37
        -74.30776289
 O         -0.1573621179       -1.1467481151        1.8525075085
 O          4.2452428792       -1.5713937130        1.0241202266
 N          0.4571598410       -1.3297548117       -0.3421966185
 N          2.0149070815       -1.4678327488        1.3861728840
 C          1.4963426643       -1.2808070623       -1.2538164581
 C          2.7787469028       -1.3945905387       -0.8370607146
 C          0.7199979785       -1.2753573859        1.0113838183
 C          3.1194384490       -1.4834432898        0.5505046155
 C          1.1893935418       -1.1032509026       -2.7007510775
 H          3.5942725527       -1.3662069687       -1.5378934048
 H          0.6435923955       -1.9563053508       -3.0988064589
 H          0.5983226933       -0.2004538689       -2.8388554610
 H          2.1195332434       -1.0031892648       -3.2494954684
 H          2.1916617939       -1.4226853951        2.3849289006
 P          0.4962454853        2.3785512106       -0.0704665962
 O         -1.2342167933        0.2533441002       -0.8361992978
 O         -4.1819761155       -0.8345136168        0.5137856468
 O         -2.8033198191       -2.5307913773       -0.9354102747
 O         -0.9792015684        2.6084621928        0.5292725411
 O          0.4055236113        2.2619549249       -1.6393188337
 O          1.1424767861        3.8018920669        0.1854683162
 O          1.2625472142        1.2826346692        0.5321216038
 C         -2.8071324223       -0.7114232901        0.7021878600
 C         -2.2356956591        0.5963068968        0.1097909930
 C         -2.0063221092       -1.8444213413       -0.0061885019
 C         -0.9131151326       -1.1147271120       -0.8051435449
 C         -1.6349585956        1.5254723810        1.1624354564
 H         -2.6294758869       -0.7445347301        1.7778747079
 H         -3.0146491074        1.1388257056       -0.4401351081
 H         -1.5719622498       -2.5314514467        0.7216179697
 H         -0.9643833812       -1.4902191473       -1.8311974251
 H         -0.9174694868        0.9679693760        1.7699819518
 H         -2.4151918013        1.9571352250        1.7895291602
 H         -4.3530575083       -1.0394494548       -0.4230338996
 H         -3.3766890306       -3.1596113193       -0.4720673155
 H         -0.0390912459        2.9818955060       -2.1045024303
 H          0.5406799821        4.5337685442        0.3702816755
  37
        -74.30743312
 O         -0.1569443740       -1.1328048807        1.8211467632
 O          4.2586479358       -1.5325564192        1.0537815357
 N          0.4809118376       -1.3505886147       -0.3612542705
 N          2.0237874643       -1.4314883819        1.3890061936
 C          1.5283133439       -1.4168069259       -1.2624519417
 C          2.8055677357       -1.5103759419       -0.8260339111
 C          0.7316535434       -1.2688723639        0.9934637394
 C          3.1362345488       -1.4878663852        0.5673009183
 C          1.2426712333       -1.4117809418       -2.7261439175
 H          3.6263999598       -1.5650385556       -1.5191283199
 H          0.7361757593       -0.4941811288       -3.0138222382
 H          2.1809646173       -1.4716058238       -3.2672898944
 H          0.6288453959       -2.2652352796       -3.0076455501
 H          2.1885464931       -1.3473170896        2.3872047313
 P          0.4504202698        2.4272323039       -0.0676575191
 O         -1.1889760669        0.2800602382       -0.8057340312
 O         -4.1344059030       -0.7786917412        0.4423588962
 O         -2.8276597241       -2.5113113905       -0.9681524064
 O         -0.9806409920        2.6170406323        0.6441293338
 O          0.1957115134        2.5215078747       -1.6297511363
 O          1.1466910918        3.8030756645        0.2142261206
 O          1.2480844767        1.2936433479        0.4228586927
 C         -2.7603547125       -0.7275783234        0.7068463637
 C         -2.1952719112        0.5908847564        0.1499308137
 C         -1.9972871739       -1.8436640173       -0.0657614138
 C         -0.8797197298       -1.0977033487       -0.8308002709
 C         -1.6109437978        1.4970436514        1.2338918169
 H         -2.5413225340       -0.8020834593        1.7728910614
 H         -2.9869777056        1.1291830371       -0.3860232950
 H         -1.5728654784       -2.5839067698        0.6156730536
 H         -0.9252458198       -1.4253699482       -1.8719582383
 H         -0.8822263264        0.9337275743        1.8218941304
 H         -2.4002323535        1.8906258192        1.8746275440
 H         -4.5812560495       -1.3520304321        1.0815990425
 H         -3.6623937559       -2.0070046010       -1.0425827939
 H         -0.4174233573        1.8597955678       -1.9685572526
 H          0.6741660488        4.5837849338       -0.1019842324
  37
        -74.30666569
 O         -0.1563716685       -1.1224503328        1.8318229456
 O          4.2574688234       -1.5073311037        1.0439355859
 N          0.4717083909       -1.3552302019       -0.3520623861
 N          2.0238303349       -1.4187788661        1.3910171949
 C          1.5152032998       -1.4209258829       -1.2588219579
 C          2.7946647110       -1.5058616804       -0.8282306607
 C          0.7293350071       -1.2600563780        1.0015648594
 C          3.1322940270       -1.4722720781        0.5635917349
 C          1.2205999733       -1.4281932630       -2.7206566763
 H          3.6125097219       -1.5604037856       -1.5248807846
 H          0.7051891152       -0.5168694799       -3.0119042644
 H          2.1560442114       -1.4846543327       -3.2670073287
 H          0.6114667416       -2.2879388450       -2.9927942751
 H          2.1935992732       -1.3245036998        2.3874691002
 P          0.4599795801        2.4261456470       -0.0579545502
 O         -1.1918536501        0.2772037671       -0.8123103542
 O         -4.1691629252       -0.8104154944        0.4606949473
 O         -2.7876809652       -2.5015253169       -0.9892787168
 O         -0.9681320292        2.6181325156        0.6573803655
 O          0.2023177018        2.5277751140       -1.6194252910
 O          1.1622773028        3.7975325605        0.2284133570
 O          1.2536022342        1.2852514401        0.4221547695
 C         -2.7975345796       -0.7095940943        0.6800026708
 C         -2.2002487343        0.6077655920        0.1370218212
 C         -1.9966554791       -1.8346943458       -0.0417761044
 C         -0.8892363011       -1.1014944427       -0.8177779793
 C         -1.6102780996        1.4956388892        1.2317755086
 H         -2.6426701824       -0.7726468963        1.7577428827
 H         -2.9650917252        1.1779751388       -0.4042129341
 H         -1.5715343407       -2.5342280324        0.6798834113
 H         -0.9460717637       -1.4427819486       -1.8546656545
 H         -0.8904927212        0.9208626739        1.8189248260
 H         -2.4002355745        1.8866245549        1.8732135781
 H         -4.3250686289       -0.9912116673       -0.4836745291
 H         -3.3718418585       -3.1327879978       -0.5430675191
 H         -0.3995349252        1.8583298611       -1.9631531050
 H          0.6904488823        4.5815916564       -0.0804649194
  37
        -74.30589661
 O         -0.0239395243       -0.3647691546        1.5669423759
 O          4.3301829179       -1.0570560821        0.6945913859
 N          0.4620999089       -1.4256404551       -0.3983922165
 N          2.1205025883       -0.8522854081        1.1366545823
 C          1.4458709947       -1.7641514444       -1.3085471487
 C          2.7534670718       -1.6894935921       -0.9665061916
 C          0.8024521882       -0.8266001685        0.7949117976
 C          3.1765777327       -1.1921488961        0.3072423280
 C          1.0533499825       -2.2191164083       -2.6722805322
 H          3.5253798424       -1.9552969781       -1.6670943454
 H          0.4276609059       -1.4676069227       -3.1487470230
 H          1.9475386452       -2.3654344529       -3.2686226331
 H          0.5089593949       -3.1606075314       -2.6300565419
 H          2.3472220978       -0.3904597053        2.0118857638
 P          0.5101374624        2.2137659628        0.3408916023
 O         -1.2442646140       -0.1268801308       -1.3710579803
 O         -4.0898315603       -0.5183506194        0.5788603579
 O         -2.8750085113       -2.6812742134       -0.2345632315
 O         -1.0355135461        2.0243772374        0.6656293917
 O          0.5264888677        3.7326458818       -0.1556463990
 O          1.1488210726        2.2110253552        1.7718761505
 O          1.1954476761        1.3233803036       -0.6063865910
 C         -2.6989869597       -0.3647593478        0.5164988132
 C         -2.3407076005        0.4875178612       -0.7142140946
 C         -1.9861837149       -1.7173499269        0.2553040188
 C         -0.9359312758       -1.3900735541       -0.8275659840
 C         -2.0043158148        1.9386310225       -0.3697273186
 H         -2.2841657673        0.0985534666        1.4127427723
 H         -3.1981565191        0.4912034491       -1.4028348191
 H         -1.5103485495       -2.1087470958        1.1583142460
 H         -1.0460702856       -2.1462811315       -1.6107345132
 H         -2.8967563624        2.4400040459        0.0101022296
 H         -1.6382078881        2.4393097931       -1.2679387297
 H         -4.3699947861       -0.6860957384        1.4905698651
 H         -3.7593217515       -2.2685150973       -0.2986923596
 H          1.2548064370        3.9507141082       -0.7458237084
 H          0.6976086088        2.7589995024        2.4273366407
  37
        -74.30481943
 O         -0.0226554798       -0.3547880498        1.5713342148
 O          4.3293642880       -1.0503449784        0.6861417173
 N          0.4579195090       -1.4284286716       -0.3884354907
 N          2.1212738328       -0.8496122566        1.1388500506
 C          1.4384578095       -1.7623593955       -1.3047392585
 C          2.7469706569       -1.6859643754       -0.9679043527
 C          0.8022071722       -0.8205687292        0.8005492097
 C          3.1743403970       -1.1874165446        0.3043397853
 C          1.0391463834       -2.2147788991       -2.6672950117
 H          3.5167368089       -1.9484164466       -1.6721227128
 H          0.4092045868       -1.4628973144       -3.1374984668
 H          1.9302267197       -2.3568887437       -3.2692184346
 H          0.4972365371       -3.1575974432       -2.6255003098
 H          2.3515047752       -0.3831008874        2.0106824449
 P          0.5107324588        2.2139705462        0.3487746831
 O         -1.2367417315       -0.1277292319       -1.3727983513
 O         -4.1080602681       -0.5186043978        0.6205580178
 O         -2.8398795204       -2.6840135926       -0.2526494151
 O         -1.0358029267        2.0225868571        0.6621329268
 O          0.5300532910        3.7326012690       -0.1492369239
 O          1.1411294394        2.2130146591        1.7835145861
 O          1.2038850750        1.3248287712       -0.5946702929
 C         -2.7306050053       -0.3571371742        0.4890804511
 C         -2.3391377911        0.4988634050       -0.7355128655
 C         -1.9827230535       -1.6999633913        0.2691743339
 C         -0.9396900158       -1.3866023278       -0.8162414539
 C         -1.9975176535        1.9462164828       -0.3802194037
 H         -2.3703739634        0.1180771453        1.4024237129
 H         -3.1732520251        0.5210558862       -1.4522355142
 H         -1.5060883357       -2.0430111801        1.1888259983
 H         -1.0588903820       -2.1491382350       -1.5929285674
 H         -2.8920204675        2.4448144169       -0.0009515991
 H         -1.6236272992        2.4549020198       -1.2710849747
 H         -4.4268653443       -1.0817312854       -0.1067176464
 H         -3.3693758537       -3.0651397179        0.4637878194
 H          1.2627016087        3.9508625449       -0.7340248499
 H          0.6744208130        2.7455360852        2.4407473114
  37
        -74.30457166
 O         -0.0271132512       -0.3820229220        1.5865129563
 O          4.3310071107       -1.0275644592        0.6951266670
 N          0.4623052458       -1.4326761348       -0.3835572569
 N          2.1209266555       -0.8527214120        1.1494387320
 C          1.4473633359       -1.7448938238       -1.3040431383
 C          2.7547486692       -1.6619115216       -0.9651765281
 C          0.8016266817       -0.8314244204        0.8105083504
 C          3.1773665152       -1.1717720279        0.3119716439
 C          1.0545760957       -2.1839247230       -2.6731334729
 H          3.5271927644       -1.9093163943       -1.6719080484
 H          0.5276546690       -3.1356834437       -2.6466958385
 H          0.4144977219       -1.4342793040       -3.1331399973
 H          1.9479729636       -2.3037628451       -3.2764475144
 H          2.3463323781       -0.3910716695        2.0251097261
 P          0.5089222004        2.2070278042        0.3395139327
 O         -1.2338418711       -0.1330947712       -1.3739295453
 O         -4.0941363576       -0.4992509386        0.6533723800
 O         -2.9147106150       -2.6378562085       -0.2613941701
 O         -1.0378214996        2.0176413567        0.6503557378
 O          0.5340297006        3.7235964902       -0.1625932547
 O          1.1336767632        2.2068533464        1.7770813960
 O          1.2045167400        1.3121900954       -0.5966443240
 C         -2.7181289226       -0.3596891457        0.4960030735
 C         -2.3398407126        0.4892798928       -0.7387238122
 C         -1.9945963418       -1.7104096692        0.2594133976
 C         -0.9350128696       -1.3920138972       -0.8181942657
 C         -2.0019663369        1.9384296531       -0.3902060078
 H         -2.3230112969        0.1145733117        1.3963748717
 H         -3.1800700428        0.4981843939       -1.4476745704
 H         -1.5323988233       -2.0664459803        1.1779095603
 H         -1.0424610166       -2.1465734091       -1.6041844414
 H         -2.8967720160        2.4351755424       -0.0097757221
 H         -1.6305721813        2.4461332203       -1.2825752277
 H         -4.3814383181       -1.2617272691        0.1163498553
 H         -2.8619232872       -3.4819119367        0.2058964995
 H          1.2676014351        3.9378243618       -0.7478093372
 H          0.6677526327        2.7445376120        2.4306471711
  37
        -74.30413972
 O          0.1062507562       -0.7791685564        1.8578285126
 O          4.3913219468       -1.4860339322        0.6779741404
 N          0.4784195530       -1.4113244327       -0.3089600932
 N          2.2150298674       -1.2206601006        1.2417205005
 C          1.3923395166       -1.8617582972       -1.2438982895
 C          2.7098247964       -1.9282644541       -0.9416486700
 C          0.8867201178       -1.0898561273        0.9706021581
 C          3.2158550250       -1.5275518144        0.3378577614
 C          0.9115349679       -2.3366869549       -2.5748829204
 H          3.4288373897       -2.2739445942       -1.6634906315
 H          0.5246308555       -1.5178537458       -3.1765599618
 H          1.7437910073       -2.7841671751       -3.1079903639
 H          0.1329521801       -3.0866156787       -2.4504419916
 H          2.4988875880       -0.9226532335        2.1693273522
 P          0.3762360229        2.5027525466        0.1575107996
 O         -1.0301568462        0.3576573067       -0.7072197732
 O         -3.9416755004       -0.7178250322       -0.8785845611
 O         -2.5091916963       -2.8355849104       -0.3867591544
 O         -0.9171319241        2.5039608385        1.0880216208
 O         -0.1927954267        2.8555067728       -1.2841763519
 O          1.0217324490        3.8547577790        0.6615688028
 O          1.3616101003        1.4127920801        0.2225030338
 C         -3.0548970486       -0.5074918036        0.1871104892
 C         -2.2003674334        0.7572231361       -0.0071094835
 C         -2.0148448384       -1.6532770632        0.1528917785
 C         -0.8762488645       -1.0478670512       -0.7087629218
 C         -1.8107778205        1.4264812757        1.3090518546
 H         -3.5773799603       -0.4855216379        1.1468597840
 H         -2.6967576379        1.4894021946       -0.6541280409
 H         -1.6521028090       -1.8711311404        1.1581441303
 H         -1.0144737046       -1.3956487191       -1.7358139647
 H         -1.3340523263        0.6943704236        1.9644322110
 H         -2.6805889231        1.8726081575        1.7949005501
 H         -4.7525664647       -0.2049345263       -0.7573053917
 H         -3.2259946018       -2.6087168129       -1.0090433205
 H          0.3502845065        2.5522408621       -2.0167132985
 H          0.4275831170        4.6149459301        0.6896991640
  37
        -74.30371595
 O          0.0936559869       -0.3616653265        1.5397171927
 O          4.3682021000       -1.0622504932        0.3362464976
 N          0.4249715234       -1.5054051560       -0.4208390212
 N          2.1947165954       -0.8301160327        0.9313198808
 C          1.3420212035       -1.9184010887       -1.3750031233
 C          2.6719409862       -1.8029993629       -1.1527487512
 C          0.8528406285       -0.8575057228        0.7142522122
 C          3.1899877768       -1.2214838870        0.0492652257
 C          0.8449777192       -2.4968360859       -2.6544671706
 H          3.3872012769       -2.1212604011       -1.8907263376
 H          1.6773201559       -2.6115918990       -3.3404013703
 H          0.4033184243       -3.4777857530       -2.4871505934
 H          0.0939513953       -1.8501987809       -3.1008457023
 H          2.4847023234       -0.2798688950        1.7346879262
 P          0.4539445054        2.3060998477        0.8189491369
 O         -1.3571808594       -0.6523148003       -1.7300785279
 O         -3.9516762310        0.0028731731        0.2899693755
 O         -3.0642102895       -2.4426315969        0.1253863453
 O          0.0099311460        1.4621734520       -0.4461734966
 O          0.2495527883        3.7845732251        0.2883592747
 O         -0.6739886316        2.2269869369        1.9352854034
 O          1.8139211660        1.9724118924        1.2637142411
 C         -2.5521757571       -0.0562033014        0.2514946097
 C         -2.0774217984        0.4183309259       -1.1364234196
 C         -2.0387301700       -1.5181777060        0.3562872122
 C         -1.0000679399       -1.6199412667       -0.7783903615
 C         -1.2366489560        1.6994482593       -1.1045299819
 H         -2.0958724314        0.5533021632        1.0312190313
 H         -2.9541426937        0.6083450842       -1.7673661468
 H         -1.6020929663       -1.7401528508        1.3306556771
 H         -1.1215655188       -2.6034201141       -1.2431432693
 H         -1.7875974532        2.4960009608       -0.6038704423
 H         -0.9945529869        1.9967622913       -2.1269371982
 H         -4.2630017164        0.0066236053        1.2066205587
 H         -3.8430489198       -1.9581122526       -0.2092276534
 H          0.6625175784        4.4685190551        0.8253012879
 H         -0.4912242965        1.5429637357        2.5888506943
  37
        -74.30358439
 O         -0.0058536652       -0.8188280613        1.7545589778
 O          4.3545999145       -1.4693092050        0.8682435587
 N          0.5188241336       -1.4335353810       -0.3874221729
 N          2.1390196759       -1.2739907604        1.2835165736
 C          1.5207774986       -1.6550613564       -1.3135409128
 C          2.8165515396       -1.7029630708       -0.9265597091
 C          0.8338105512       -1.1184083382        0.9216852417
 C          3.2103177438       -1.4764033453        0.4316435023
 C          1.1614318555       -1.8722653772       -2.7447765236
 H          3.6032804734       -1.8768736194       -1.6394393613
 H          0.5880270235       -1.0331337192       -3.1298845349
 H          2.0715222393       -1.9736621815       -3.3262258769
 H          0.5757585877       -2.7826365745       -2.8601896733
 H          2.3532416169       -1.0233220912        2.2434128151
 P          0.4138067890        2.3450931457        0.1894571864
 O         -1.0812124672        0.1564903786       -1.0568241586
 O         -4.0199272153       -0.6127734199        0.7425236017
 O         -2.8497465185       -2.5322512167       -0.6373832308
 O         -1.0399579903        2.1552217504        0.8139184066
 O          0.1186111847        3.0804878957       -1.1861859346
 O          1.0103736206        3.4293355355        1.1722570783
 O          1.3486908057        1.2158409745        0.0951915334
 C         -2.6334158032       -0.4634460353        0.6256637345
 C         -2.3164928243        0.5481904368       -0.4861390913
 C         -1.9542471757       -1.7519356175        0.1054413809
 C         -0.8492684215       -1.2269112726       -0.8363578259
 C         -2.1954375209        1.9838850006        0.0081014955
 H         -2.1535350426       -0.1465496508        1.5537037608
 H         -3.1116525731        0.4924165724       -1.2445264088
 H         -1.5336813592       -2.3538996515        0.9165683384
 H         -0.9714959281       -1.7628684603       -1.7828114647
 H         -3.0469977692        2.2305630137        0.6440016144
 H         -2.1436513215        2.6592092517       -0.8467642786
 H         -4.2489906433       -0.9205875949        1.6310977954
 H         -3.7501746421       -2.1892017492       -0.4728803021
 H          0.8449600938        3.0387243826       -1.8166179146
 H          0.4671357848        4.2091531598        1.3448349963
  37
        -74.30349572
 O         -0.0114250695       -0.3615805013        1.5587666713
 O          4.3375153296       -1.0660767555        0.6707822532
 N          0.4650190660       -1.4373074107       -0.4007757954
 N          2.1304808955       -0.8558032174        1.1212103584
 C          1.4436224798       -1.7702912498       -1.3188015031
 C          2.7532050759       -1.6938291474       -0.9851399576
 C          0.8105986918       -0.8300992883        0.7860988038
 C          3.1824493646       -1.1980344880        0.2870394528
 C          1.0416023319       -2.2201327367       -2.6813510691
 H          3.5212477951       -1.9550354622       -1.6916463897
 H          0.3993266986       -1.4734343848       -3.1431369529
 H          1.9305420102       -2.3480844354       -3.2896262957
 H          0.5115221884       -3.1699063201       -2.6408731350
 H          2.3654089631       -0.3928114540        1.9936023574
 P          0.5034558002        2.2366802899        0.3657820559
 O         -1.2497168174       -0.1731226887       -1.4026551595
 O         -4.0803479752       -0.4987916675        0.5690022870
 O         -2.8775000294       -2.6873986792       -0.1898903716
 O         -1.0659325303        2.0511775718        0.6495060216
 O          0.6333574210        3.7367437097       -0.1460863727
 O          1.1074047068        2.1973734463        1.8140306554
 O          1.1622518612        1.3514562242       -0.5965540417
 C         -2.6886333576       -0.3540033652        0.5047755920
 C         -2.3272388802        0.4713457857       -0.7430716728
 C         -1.9824786977       -1.7153916656        0.2720072744
 C         -0.9361408946       -1.4175956857       -0.8232928363
 C         -1.9751903471        1.9275986587       -0.4344099466
 H         -2.2729475984        0.1246776061        1.3922674872
 H         -3.1901844608        0.4738563888       -1.4249889823
 H         -1.5048055770       -2.0888372964        1.1812949371
 H         -1.0463514315       -2.1973027360       -1.5832449157
 H         -2.8802091865        2.4584016365       -0.1312911999
 H         -1.5460874529        2.3754517125       -1.3338850559
 H         -4.3608280041       -0.6576850351        1.4822789732
 H         -3.7569547909       -2.2687078255       -0.2769665163
 H          0.3070896453        4.4457254001        0.4225169652
 H          0.5171152467        2.4536154939        2.5350251731
  37
        -74.30321665
 O          0.0627581574       -0.4411493431        1.5719177690
 O          4.3459975423       -0.9798823674        0.3123949003
 N          0.4099498694       -1.5337939131       -0.4156418261
 N          2.1726578569       -0.8327477658        0.9358037401
 C          1.3316703660       -1.9208383332       -1.3749259296
 C          2.6596319696       -1.7705645237       -1.1611654927
 C          0.8272744824       -0.8939758151        0.7319649336
 C          3.1696717048       -1.1795910873        0.0398273072
 C          0.8431449568       -2.5120691516       -2.6523260916
 H          3.3782234627       -2.0682894323       -1.9044403186
 H          0.0850758203       -1.8772239368       -3.1035747268
 H          1.6776778051       -2.6217416498       -3.3363933142
 H          0.4115924462       -3.4962889743       -2.4785261960
 H          2.4482379561       -0.2866869102        1.7470880727
 P          0.4623477564        2.3024239908        0.8302420956
 O         -1.3601311178       -0.6757393257       -1.7308229385
 O         -3.9133055714        0.0530328055        0.3346996003
 O         -3.1139752396       -2.4173582265        0.0642176912
 O          0.0494773477        1.4341018058       -0.4287302511
 O          0.3881924611        3.8132031584        0.3182323298
 O         -0.7782775891        2.2523913719        1.8001723147
 O          1.7776241591        1.9311323953        1.3680489486
 C         -2.5172247071       -0.0578876456        0.2663358358
 C         -2.0515455265        0.4089594565       -1.1273471389
 C         -2.0591844458       -1.5386460092        0.3431044282
 C         -1.0122153352       -1.6489310245       -0.7805006162
 C         -1.1837149148        1.6713919054       -1.1152024622
 H         -2.0190324999        0.5176658473        1.0457009498
 H         -2.9330896170        0.6156912499       -1.7464966463
 H         -1.6448672394       -1.7967002158        1.3189477058
 H         -1.1369329030       -2.6298633970       -1.2491567245
 H         -1.7264851897        2.4930823841       -0.6476076361
 H         -0.9203194051        1.9270437760       -2.1438748292
 H         -4.2016073602        0.0953051269        1.2575832767
 H         -3.8954319826       -1.8826125373       -0.1763807606
 H          1.2357421893        4.1950311672        0.0704184116
 H         -0.6005597833        2.5764017791        2.6901913154
  37
        -74.30298186
 O          0.0634633149       -0.3217993383        1.5655241482
 O          4.3757825500       -1.1508313387        0.6038841621
 N          0.4768094214       -1.4546023512       -0.3801733283
 N          2.1838698717       -0.8705683050        1.0855848165
 C          1.4292094181       -1.8133157081       -1.3200923021
 C          2.7472959230       -1.7529626223       -1.0202247914
 C          0.8593239189       -0.8278307004        0.7795369040
 C          3.2138268192       -1.2558744342        0.2379298047
 C          0.9849243029       -2.2691770236       -2.6662962148
 H          3.4936698742       -2.0345703641       -1.7418943392
 H          0.3187976850       -1.5304040142       -3.1063124768
 H          1.8534760390       -2.3897626574       -3.3047656946
 H          0.4667646732       -3.2245852025       -2.6076608998
 H          2.4587768376       -0.4159182720        1.9507612614
 P          0.4595027174        2.2840857870        0.4217352942
 O         -1.2262549780       -0.2474178789       -1.4548131482
 O         -4.0850085181       -0.4300419690        0.5706871950
 O         -2.8332418780       -2.6712449059       -0.0919331160
 O         -1.1342840537        2.1190086174        0.5211106180
 O          0.7138297825        3.7964462276        0.0592882977
 O          0.8692322566        2.2115236038        1.9408331465
 O          1.1531634210        1.4089120611       -0.5341048621
 C         -2.7064955176       -0.2865547544        0.4316137326
 C         -2.3041670734        0.4591448771       -0.8600284698
 C         -1.9671635190       -1.6496723926        0.3346523342
 C         -0.9312998517       -1.4462883737       -0.7823489161
 C         -1.9290080143        1.9277912016       -0.6388961693
 H         -2.3525515087        0.2655823110        1.3029611988
 H         -3.1413082878        0.4404410183       -1.5727878042
 H         -1.4918376199       -1.9127448049        1.2804988965
 H         -1.0622798775       -2.2819188533       -1.4788082355
 H         -2.8381532471        2.5107968789       -0.4779337496
 H         -1.3929132400        2.2825637743       -1.5224025867
 H         -4.4042575969       -1.0530098329       -0.1056445300
 H         -3.3615321453       -2.9828577288        0.6580859918
 H          0.4036311916        4.4390300629        0.7101390195
 H          0.5343052986        1.4026083940        2.3565763379
  37
        -74.30286439
 O         -0.0253316384       -1.2457178653        1.8719479574
 O          4.3539542347       -1.5700270181        0.9168137121
 N          0.5252627458       -1.3977423169       -0.3498136360
 N          2.1313031564       -1.5256904702        1.3338044153
 C          1.5422200930       -1.3169774442       -1.2852051102
 C          2.8373486000       -1.4070454753       -0.9049227108
 C          0.8218256887       -1.3443535011        0.9995452497
 C          3.2142412690       -1.5055360488        0.4727167600
 C          1.1914621733       -1.1298119852       -2.7212171131
 H          3.6329101429       -1.3536699484       -1.6270729592
 H          0.6740197183       -2.0021108452       -3.1160896669
 H          0.5512606427       -0.2571183410       -2.8316747228
 H          2.1008563929       -0.9810214243       -3.2931012189
 H          2.3318155391       -1.4880212860        2.3283874674
 P          0.3975099604        2.2269538165        0.0991726274
 O         -1.0693878419        0.2077413932       -0.9853495379
 O         -3.9615635638       -0.5580475878        0.9149276835
 O         -2.9072721454       -2.3734002089       -0.7400724407
 O         -1.0622583902        2.2479484442        0.7627247914
 O          0.2314672468        2.4188361053       -1.4516501495
 O          0.9642888711        3.6501669292        0.5371614041
 O          1.2611615189        1.1291998525        0.5657021168
 C         -2.5875668729       -0.4377205304        0.6883091777
 C         -2.3224516633        0.5713155868       -0.4376227381
 C         -1.9775028296       -1.7232414049        0.0859932846
 C         -0.8394178112       -1.1852201235       -0.8033682277
 C         -2.2413779779        2.0243219674        0.0139107270
 H         -2.0225467956       -0.1484955689        1.5783740365
 H         -3.1109740945        0.4664521275       -1.1968304235
 H         -1.6137444144       -2.4164190323        0.8491033427
 H         -0.9418224445       -1.6907408263       -1.7710007078
 H         -3.0748660477        2.2599228588        0.6770525409
 H         -2.2511125305        2.6741327824       -0.8628625238
 H         -4.1235812499       -0.9012058488        1.8054486444
 H         -3.7985757763       -2.0752918819       -0.4767326118
 H          0.5956803674        3.2498392316       -1.7836889988
 H          1.3816104166        3.6685484272        1.4027681516
  37
        -74.30269334
 O          0.0993054031       -0.3515563422        1.5409748056
 O          4.3696582706       -1.0461178121        0.3173096906
 N          0.4233588229       -1.5081425199       -0.4135131674
 N          2.1987602270       -0.8159318918        0.9235808532
 C          1.3370911436       -1.9316862719       -1.3671305276
 C          2.6675556910       -1.8129242078       -1.1513022128
 C          0.8560222289       -0.8482919352        0.7137597967
 C          3.1903932252       -1.2134230150        0.0400814587
 C          0.8358213939       -2.5270612556       -2.6371469820
 H          3.3801925940       -2.1401852722       -1.8878727594
 H          0.3878192694       -3.5024027018       -2.4551787900
 H          0.0894327458       -1.8821377254       -3.0937318201
 H          1.6672911747       -2.6574529014       -3.3213179574
 H          2.4899621681       -0.2526920133        1.7177224350
 P          0.4477618989        2.3090146717        0.8308578254
 O         -1.3440897840       -0.6479106175       -1.7340530346
 O         -3.9678128243        0.0099225192        0.3366263134
 O         -3.0327944493       -2.4463044767        0.0831017829
 O          0.0149209097        1.4667997818       -0.4394277754
 O          0.2478169021        3.7875944420        0.2995287700
 O         -0.6856380603        2.2298257524        1.9399836910
 O          1.8063219736        1.9758907042        1.2819247072
 C         -2.5793264355       -0.0483553102        0.2231821440
 C         -2.0703166713        0.4296509844       -1.1578741564
 C         -2.0311961647       -1.4977824974        0.3578015549
 C         -1.0010187445       -1.6107347960       -0.7739524037
 C         -1.2243476585        1.7076673380       -1.1098735117
 H         -2.1755479742        0.5816640242        1.0147838859
 H         -2.9221186833        0.6293076415       -1.8189647176
 H         -1.5858967518       -1.6742740501        1.3362399596
 H         -1.1347691849       -2.5948531904       -1.2348597871
 H         -1.7816959409        2.5005684223       -0.6102118223
 H         -0.9694037546        2.0122246678       -2.1273434763
 H         -4.3551246300       -0.6782574110       -0.2326289774
 H         -3.5839169811       -2.5711776785        0.8697090500
 H          0.6131052401        4.4763929348        0.8643736970
 H         -0.5252376191        1.5248462959        2.5766324134
  37
        -74.30263760
 O          0.0563590002       -0.3548602257        1.5821429834
 O          4.3783824989       -1.1301429875        0.6193842177
 N          0.4837140579       -1.4604186666       -0.3759518829
 N          2.1827059802       -0.8775566133        1.1001564276
 C          1.4424340817       -1.7893751736       -1.3215908641
 C          2.7590216355       -1.7218056226       -1.0175543724
 C          0.8584990114       -0.8425365888        0.7911276550
 C          3.2182682276       -1.2401862850        0.2493094122
 C          1.0064974639       -2.2232582656       -2.6779408666
 H          3.5096771654       -1.9821162210       -1.7427787718
 H          0.3264963381       -1.4873251527       -3.1012229662
 H          1.8773359843       -2.3114970390       -3.3185757711
 H          0.5083525593       -3.1903441700       -2.6430599544
 H          2.4508127278       -0.4310112682        1.9716725519
 P          0.4520691613        2.2739556616        0.4098706863
 O         -1.2236622777       -0.2593094208       -1.4582787590
 O         -4.0525294422       -0.3898760830        0.6390577923
 O         -2.9228806672       -2.6118240515       -0.1167061160
 O         -1.1439851959        2.1299190683        0.4931282779
 O          0.7328698572        3.7819258143        0.0513500608
 O          0.8443807498        2.1952710711        1.9337703842
 O          1.1448890294        1.3865357801       -0.5352139518
 C         -2.6780043718       -0.2882052145        0.4471856267
 C         -2.3040657756        0.4425505162       -0.8622107279
 C         -1.9789535030       -1.6665336037        0.3217372486
 C         -0.9239520274       -1.4575464753       -0.7861706646
 C         -1.9378624475        1.9163099659       -0.6639536640
 H         -2.2654793881        0.2577541122        1.2973088948
 H         -3.1533146592        0.4007101631       -1.5588335122
 H         -1.5229784439       -1.9573466599        1.2660723021
 H         -1.0391788084       -2.2857186392       -1.4939825570
 H         -2.8501132562        2.4958750890       -0.5099502990
 H         -1.4042270021        2.2612213962       -1.5526977646
 H         -4.3643386623       -1.1850305685        0.1680846423
 H         -2.8319491653       -3.4451548257        0.3637265027
 H          0.4201170012        4.4288130875        0.6966877432
 H          0.5075303010        1.3843684631        2.3443847264
  37
        -74.30260078
 O          0.0566118093       -0.2995032666        1.5487836764
 O          4.3689081807       -1.1813479499        0.6365102891
 N          0.4782949821       -1.4403249167       -0.3909736161
 N          2.1751941687       -0.8742124221        1.0928469784
 C          1.4359628492       -1.8078771832       -1.3205083208
 C          2.7518268551       -1.7601624136       -1.0074031030
 C          0.8543831778       -0.8180916084        0.7728556567
 C          3.2096617533       -1.2725175938        0.2573132063
 C          1.0017332792       -2.2554766570       -2.6728372444
 H          3.5026827912       -2.0482872237       -1.7218551659
 H          0.3414983875       -1.5130274764       -3.1155144456
 H          1.8752558988       -2.3774300020       -3.3043023243
 H          0.4795211017       -3.2092248421       -2.6221318675
 H          2.4447422636       -0.4251686242        1.9625096530
 P          0.4604796422        2.2695192706        0.4090830238
 O         -1.2351276464       -0.2248927619       -1.4427054932
 O         -4.0800030955       -0.4547904856        0.5109353152
 O         -2.8532986494       -2.6777931124       -0.0638224126
 O         -1.1126089270        2.0899028337        0.5417987996
 O          0.5996274494        3.7990993817        0.0282298393
 O          0.9151588968        2.2427216488        1.9160354655
 O          1.1930847780        1.3962477926       -0.5292727155
 C         -2.6894528517       -0.2974816343        0.4596907289
 C         -2.3153441081        0.4579678882       -0.8286651533
 C         -1.9685046293       -1.6653200887        0.3233246247
 C         -0.9291289477       -1.4361335414       -0.7944722763
 C         -1.9511366718        1.9265871300       -0.5941008689
 H         -2.2947866106        0.2388667921        1.3235752499
 H         -3.1720142098        0.4278159057       -1.5169859402
 H         -1.4872298940       -1.9670946971        1.2568928119
 H         -1.0516720956       -2.2601459489       -1.5050531945
 H         -2.8555962544        2.5008379283       -0.3847322008
 H         -1.4552219701        2.3070726567       -1.4887550790
 H         -4.3795040807       -0.5235255466        1.4286854878
 H         -3.7386599129       -2.2767358091       -0.1736468271
 H          1.4367363735        4.0319106822       -0.3866835826
 H          0.5700306974        1.4687035896        2.3823312374
  37
        -74.30237984
 O          0.0855160201       -0.3794734000        1.5556355180
 O          4.3657647481       -1.0233418831        0.3381663974
 N          0.4259067799       -1.5102297538       -0.4104369608
 N          2.1913023987       -0.8233769730        0.9421979505
 C          1.3462032215       -1.9090113841       -1.3689987768
 C          2.6747946824       -1.7809799696       -1.1478455475
 C          0.8494483136       -0.8594172198        0.7254829763
 C          3.1888195080       -1.1959953896        0.0545551704
 C          0.8545759602       -2.4913358062       -2.6490533884
 H          3.3924194836       -2.0890263628       -1.8878651689
 H          1.6882510453       -2.5960401811       -3.3349473378
 H          0.4241459340       -3.4775907046       -2.4843305919
 H          0.0977551133       -1.8514319379       -3.0954060786
 H          2.4767831894       -0.2694081915        1.7446795283
 P          0.4520854629        2.3045507347        0.8126978327
 O         -1.3472376058       -0.6563892922       -1.7328670689
 O         -3.9426812306        0.0377113241        0.3945761033
 O         -3.1018751351       -2.3995957350        0.0480000846
 O          0.0041064539        1.4532405129       -0.4455867004
 O          0.2577554269        3.7796272547        0.2720270912
 O         -0.6702958547        2.2390028693        1.9334809198
 O          1.8111957999        1.9625241440        1.2557273637
 C         -2.5617790120       -0.0596340935        0.2405870012
 C         -2.0786595932        0.4146360022       -1.1519908412
 C         -2.0454085105       -1.5199417139        0.3487041200
 C         -0.9979524970       -1.6211649429       -0.7769196750
 C         -1.2384387407        1.6958305704       -1.1110980030
 H         -2.1068779625        0.5538206226        1.0183517796
 H         -2.9433929721        0.6039633621       -1.7982612326
 H         -1.6193943153       -1.7165714239        1.3291495105
 H         -1.1146839802       -2.5999801736       -1.2529677569
 H         -1.7949173369        2.4863578136       -0.6070240411
 H         -0.9888838240        2.0021936977       -2.1292008710
 H         -4.3429701086       -0.7777080437        0.0386053702
 H         -3.1649479093       -3.1044984497        0.7054452244
 H          0.6280480696        4.4705468010        0.8310573047
 H         -0.5107819067        1.5394984516        2.5763816143
  37
        -74.30217494
 O          0.2229366423       -2.1957869701        1.7986839601
 O          4.3881869068       -1.0774015343        0.5107603714
 N          0.4697058372       -1.4265658204       -0.3431989473
 N          2.2857836240       -1.6799769856        1.0952231701
 C          1.3540861868       -1.1963395535       -1.3826383206
 C          2.6844342443       -1.1161921265       -1.1479208103
 C          0.9397928059       -1.7594852508        0.9098332252
 C          3.2245454690       -1.2507578389        0.1712733081
 C          0.8244265091       -1.0983727931       -2.7703739218
 H          3.3776331775       -0.9284927969       -1.9487986096
 H          0.3064671255       -0.1531621291       -2.9092070428
 H          1.6483887076       -1.1575784127       -3.4729402639
 H          0.1215727974       -1.9037754798       -2.9679762311
 H          2.6062608560       -1.8575509828        2.0420566119
 P          0.3127900273        2.0637200209        0.3624239851
 O         -0.9770330589        0.2190216353       -1.1010567811
 O         -4.0503517178       -0.7466563051       -0.3177096654
 O         -2.3895448113       -2.1854855310        1.1146562079
 O         -1.2375584630        2.4943707120        0.3536670449
 O          0.8628613620        2.0789948687       -1.1075000196
 O          0.9628046733        3.3837465462        0.9644897746
 O          0.6161810096        0.8774005054        1.1826320135
 C         -2.9563387203       -0.0398598888        0.1943079855
 C         -2.2875743457        0.7437659815       -0.9488588449
 C         -1.8384162955       -0.9763410195        0.6996883222
 C         -0.9288897670       -1.0799836718       -0.5480492109
 C         -2.1278851454        2.2410653234       -0.7167491856
 H         -3.2816568554        0.6290378576        1.0015168367
 H         -2.8690596856        0.5673303809       -1.8641192763
 H         -1.2849516558       -0.4710576672        1.4961186245
 H         -1.3849166279       -1.8030415090       -1.2463899284
 H         -3.0772721353        2.6963767981       -0.4339348704
 H         -1.7412291166        2.6965317737       -1.6307773723
 H         -4.1714519175       -1.5473612202        0.2203860203
 H         -1.7086764920       -2.6590775115        1.6232135681
 H          1.2930501385        2.9073404583       -1.3579620424
 H          0.9326446173        3.4518579519        1.9228199306
  37
        -74.30215611
 O         -0.0214943464       -1.3220486771        1.8794833078
 O          4.3638518166       -1.5145721805        0.9166800583
 N          0.5293305193       -1.4122318182       -0.3460540990
 N          2.1405473199       -1.5412276550        1.3344204748
 C          1.5460060008       -1.2895280715       -1.2798484290
 C          2.8423494666       -1.3603140807       -0.9012814900
 C          0.8266717763       -1.3783168147        1.0051916949
 C          3.2223847888       -1.4728112265        0.4747559959
 C          1.1936132225       -1.0845390563       -2.7134243767
 H          3.6365385157       -1.2765548478       -1.6220656438
 H          0.6920612340       -1.9577390657       -3.1259484852
 H          0.5420066273       -0.2186923994       -2.8103239261
 H          2.1016182732       -0.9111028548       -3.2804379731
 H          2.3394691895       -1.5162525022        2.3297016771
 P          0.3868478886        2.2129249255        0.1093030703
 O         -1.0520765878        0.2049319889       -0.9864540389
 O         -3.9394990090       -0.5273903154        1.0065188218
 O         -2.9701570896       -2.3209912001       -0.7149895042
 O         -1.0928777774        2.2831442542        0.7235631506
 O          0.2889638861        2.3821006189       -1.4501148104
 O          0.9693208866        3.6307739143        0.5436073619
 O          1.2106199371        1.1045639722        0.6210691950
 C         -2.5965918436       -0.4206611225        0.6694946975
 C         -2.3179023496        0.5742874696       -0.4727589474
 C         -1.9884619799       -1.7161853054        0.0909325547
 C         -0.8357324547       -1.1894926803       -0.7978226277
 C         -2.2557977637        2.0333730871       -0.0419541743
 H         -2.0390609080       -0.1211274021        1.5611246291
 H         -3.0846898600        0.4525917091       -1.2520058397
 H         -1.6397711968       -2.3819394261        0.8774022995
 H         -0.9335458335       -1.6835705375       -1.7726563636
 H         -3.1022195609        2.2631302837        0.6074961165
 H         -2.2595572530        2.6749929206       -0.9253288070
 H         -4.3700228829       -1.0977426506        0.3441347864
 H         -2.8605475089       -3.2815223570       -0.7325177000
 H          0.6107735329        3.2348853138       -1.7708236528
 H          1.3181541926        3.6661778672        1.4383001965
  37
        -74.30211491
 O         -0.1927344568       -1.1657021433        1.8425454933
 O          4.1937534101       -1.1689429981        0.8742646443
 N          0.3564842320       -1.2427141259       -0.3830904448
 N          1.9734736249       -1.3023498671        1.2919279651
 C          1.3681380406       -1.1428510610       -1.3244739634
 C          2.6662985582       -1.1196162963       -0.9446588569
 C          0.6535566811       -1.2037056024        0.9629848596
 C          3.0525256281       -1.1820336412        0.4332183038
 C          1.0045928569       -1.0757868251       -2.7678903422
 H          3.4553431325       -1.0288085298       -1.6701687464
 H          1.8889220659       -0.8347715691       -3.3470729279
 H          0.6247741968       -2.0369040780       -3.1106661681
 H          0.2404352322       -0.3207629056       -2.9312344241
 H          2.1726913049       -1.2501299863        2.2856839453
 P          0.7778513993        2.1162767015        0.2518683856
 O         -1.4380239416       -0.0007223665       -1.3186423895
 O         -4.1258925764       -0.5617363498        0.7604829937
 O         -3.0629356411       -2.4971848378       -0.6862135780
 O         -0.5961339456        1.5745520244        0.8241888370
 O          0.7229021060        1.8920455049       -1.3038293583
 O          0.7028123045        3.7045542051        0.3569509406
 O          1.9050000822        1.5064996636        0.9707955167
 C         -2.7339038094       -0.4743202331        0.6328422685
 C         -2.3871406124        0.5799921698       -0.4364343947
 C         -2.1235671362       -1.7790187691        0.0673407714
 C         -1.0264961208       -1.2728093796       -0.8840346021
 C         -1.8267737942        1.8687706321        0.1668283722
 H         -2.2372536008       -0.2258246244        1.5733030628
 H         -3.2880280938        0.8186186477       -1.0152490207
 H         -1.7256704649       -2.4273739900        0.8515110530
 H         -1.0235189856       -1.9363179069       -1.7551237620
 H         -2.5156560393        2.2598187102        0.9171410252
 H         -1.6608028197        2.6051176287       -0.6196494512
 H         -4.3596300098       -0.9354573984        1.6222162820
 H         -3.9281849874       -2.0545030308       -0.5892873405
 H          1.1964478305        2.5587045674       -1.8164274378
 H          1.0193213603        4.0710736704        1.1887050255
  37
        -74.30193071
 O          0.0704928824       -0.4254510916        1.5721746528
 O          4.3477227804       -0.9649100795        0.2917868704
 N          0.4084554116       -1.5328437506       -0.4094122395
 N          2.1775838731       -0.8175889557        0.9270360398
 C          1.3265481928       -1.9306081118       -1.3686723045
 C          2.6551701801       -1.7786935127       -1.1616903619
 C          0.8312291228       -0.8812481268        0.7305322141
 C          3.1704280996       -1.1712657857        0.0291094450
 C          0.8332606227       -2.5368944331       -2.6372315350
 H          3.3708170846       -2.0853417984       -1.9041755992
 H          1.6666962401       -2.6602517306       -3.3202791279
 H          0.3964404793       -3.5162562300       -2.4503081551
 H          0.0790807787       -1.9034475699       -3.0969450169
 H          2.4549762683       -0.2597900337        1.7298840268
 P          0.4565497796        2.3024069118        0.8453534180
 O         -1.3486001973       -0.6708833569       -1.7363844377
 O         -3.9357117518        0.0581569591        0.3618442458
 O         -3.0801348935       -2.4253118641        0.0445290023
 O          0.0565773968        1.4365104487       -0.4197553628
 O          0.3851124105        3.8138577670        0.3336203983
 O         -0.7907432463        2.2461281054        1.8041238676
 O          1.7704614098        1.9355467619        1.3907093296
 C         -2.5508234073       -0.0468997403        0.2338034360
 C         -2.0436547787        0.4225879599       -1.1509482560
 C         -2.0509827914       -1.5144825300        0.3475477590
 C         -1.0135177514       -1.6369518080       -0.7760781924
 C         -1.1675755186        1.6797529360       -1.1198553750
 H         -2.1118140233        0.5552921950        1.0283623376
 H         -2.8979681658        0.6417612190       -1.8028358032
 H         -1.6216448238       -1.7192362158        1.3270959455
 H         -1.1486656400       -2.6194214137       -1.2395762507
 H         -1.7156232857        2.4988066992       -0.6534901383
 H         -0.8889358704        1.9427361045       -2.1430178965
 H         -4.3491044426       -0.6212320070       -0.2003672076
 H         -3.6173868211       -2.5800395751        0.8350343670
 H          1.2364164771        4.1995048643        0.1047925969
 H         -0.6238558495        2.5607026070        2.6993822602
  37
        -74.30173842
 O          0.0580182460       -0.4656588552        1.5923037100
 O          4.3423056252       -0.9301864469        0.3041854826
 N          0.4104110253       -1.5396846375       -0.4039612154
 N          2.1708389666       -0.8224551824        0.9430963782
 C          1.3337386857       -1.9132478825       -1.3684811963
 C          2.6601807524       -1.7472468007       -1.1592383304
 C          0.8251192444       -0.8976232893        0.7442409414
 C          3.1676507857       -1.1484260880        0.0392846614
 C          0.8493565354       -2.5131362257       -2.6437552523
 H          3.3797881124       -2.0354237129       -1.9052949012
 H          1.6844496612       -2.6151345398       -3.3282858841
 H          0.4296344269       -3.5020401888       -2.4682102437
 H          0.0851448895       -1.8868826685       -3.0966783580
 H          2.4423865023       -0.2721924328        1.7529581409
 P          0.4599031364        2.3000602960        0.8305109837
 O         -1.3484656520       -0.6829559888       -1.7354432507
 O         -3.9084949895        0.0887224396        0.4102488752
 O         -3.1490476017       -2.3715693567        0.0096778926
 O          0.0510051897        1.4223051680       -0.4229929561
 O          0.3931510998        3.8070895303        0.3081201307
 O         -0.7813021060        2.2521717984        1.7969678153
 O          1.7731501212        1.9276655367        1.3739429793
 C         -2.5321939938       -0.0552164863        0.2466277232
 C         -2.0461642075        0.4077145616       -1.1486915209
 C         -2.0672020501       -1.5327893246        0.3386312533
 C         -1.0111345143       -1.6499868449       -0.7764318604
 C         -1.1729272913        1.6661626071       -1.1250235480
 H         -2.0469708307        0.5300668610        1.0278336713
 H         -2.9111439016        0.6184965652       -1.7882949564
 H         -1.6607393312       -1.7561890882        1.3214032815
 H         -1.1315449826       -2.6283263686       -1.2521112516
 H         -1.7211580481        2.4856558846       -0.6600551785
 H         -0.8943502690        1.9266181249       -2.1487054802
 H         -4.3367252451       -0.7091690643        0.0466428110
 H         -3.2398144821       -3.0872712928        0.6521025953
 H          1.2454743995        4.1882413813        0.0752737376
 H         -0.6142004197        2.5846830539        2.6856246700
  37
        -74.30154813
 O          0.0525589290       -0.2875855132        1.5503967684
 O          4.3655049643       -1.1638770538        0.6336484641
 N          0.4732432385       -1.4372699411       -0.3839024220
 N          2.1718767670       -0.8636146228        1.0961738970
 C          1.4301075710       -1.8081962170       -1.3135680235
 C          2.7459264135       -1.7582637799       -1.0017401759
 C          0.8507267486       -0.8064269283        0.7766846480
 C          3.2052537427       -1.2609658646        0.2591346455
 C          0.9942354112       -2.2649902432       -2.6624152970
 H          3.4964759262       -2.0497691047       -1.7151437625
 H          1.8678571736       -2.3992699813       -3.2911890510
 H          0.4643050121       -3.2139130019       -2.6046286966
 H          0.3414604279       -1.5207729192       -3.1131273413
 H          2.4412265585       -0.4045278173        1.9605925488
 P          0.4645468453        2.2637329244        0.4094843545
 O         -1.2287109094       -0.2044393332       -1.4325524830
 O         -4.1048551480       -0.4685891817        0.5563388233
 O         -2.8138274032       -2.6838298654       -0.1104937124
 O         -1.1045349515        2.0761323083        0.5636125433
 O          0.5901191584        3.7908769305        0.0087442335
 O          0.9422616450        2.2540044791        1.9095302374
 O          1.1972244075        1.3915001257       -0.5301672138
 C         -2.7269714567       -0.3020309654        0.4384393238
 C         -2.3199096917        0.4762421031       -0.8327374941
 C         -1.9655511175       -1.6517707358        0.3251537098
 C         -0.9325423990       -1.4196318031       -0.7892601742
 C         -1.9555282801        1.9388235800       -0.5662875221
 H         -2.3923927850        0.2385159762        1.3248162686
 H         -3.1511266292        0.4703946568       -1.5524419249
 H         -1.4844234186       -1.9154991008        1.2681401290
 H         -1.0638065149       -2.2382335254       -1.5054174473
 H         -2.8607315242        2.5018474545       -0.3302165834
 H         -1.4704265842        2.3472649053       -1.4549580545
 H         -4.4059504969       -1.0856747358       -0.1337705983
 H         -3.3441044714       -3.0044071116        0.6344340263
 H          1.4188443923        4.0217059752       -0.4238088304
 H          0.5459965317        1.5344987991        2.4182392712
  37
        -74.30113252
 O          0.2665753925       -1.9025887530        1.9489170627
 O          4.4561565440       -1.3434973539        0.4010139533
 N          0.4889214957       -1.4699826330       -0.2901484441
 N          2.3322562608       -1.6480417364        1.1241409273
 C          1.3497144964       -1.4457771905       -1.3729814720
 C          2.6903376704       -1.4449884929       -1.1872842501
 C          0.9773623994       -1.6519644585        0.9872157425
 C          3.2683271559       -1.4498601740        0.1235957088
 C          0.7739757882       -1.4806635346       -2.7454568603
 H          3.3668989672       -1.4245229686       -2.0235696562
 H          0.1362892742       -2.3550574912       -2.8596198402
 H          0.1709571282       -0.5965913382       -2.9324814728
 H          1.5765706871       -1.5301941747       -3.4727821246
 H          2.6724534437       -1.7104887056        2.0785885211
 P          0.2532832982        2.2482700267        0.4034966773
 O         -0.9324880240        0.1564019372       -1.1642181273
 O         -3.9376301457       -0.9067981413       -0.5140750021
 O         -2.3317770180       -2.0812944243        1.2480742722
 O         -1.3313137969        2.4202245426        0.3860162366
 O          0.6750186481        2.6194603482       -1.0797966150
 O          0.6791722118        3.4656641041        1.3175815117
 O          0.8245196288        1.0112189940        0.9558906626
 C         -2.9590339630       -0.0883052732        0.0629942932
 C         -2.2452861332        0.6968303339       -1.0496944567
 C         -1.8216671022       -0.9084354215        0.6992238834
 C         -0.8992897606       -1.1077446427       -0.5232221417
 C         -2.1088773903        2.1885360064       -0.7789913209
 H         -3.4092660652        0.5821789020        0.8055216477
 H         -2.7910087118        0.5373762773       -1.9891735916
 H         -1.3020995232       -0.2863424417        1.4354001472
 H         -1.3611528402       -1.8687875003       -1.1752239672
 H         -3.0840552579        2.6351657944       -0.5838701068
 H         -1.6277641380        2.6629783159       -1.6351946752
 H         -4.1123763597       -1.6449395875        0.0929907023
 H         -1.6437716004       -2.4592989469        1.8222209524
 H          1.6146526296        2.5265710774       -1.2633664900
 H          0.3193667660        4.3342691816        1.0944179675
  37
        -74.30101451
 O         -0.2003257665       -1.2278076857        1.8480055097
 O          4.1883482896       -1.1143199521        0.8900918513
 N          0.3552496010       -1.2596863636       -0.3769249492
 N          1.9703027919       -1.2995496144        1.3015595558
 C          1.3681371552       -1.1309780645       -1.3153580930
 C          2.6643366300       -1.0882767170       -0.9319085625
 C          0.6487665239       -1.2277420813        0.9707316494
 C          3.0486668395       -1.1488145888        0.4469021993
 C          1.0098196425       -1.0627793761       -2.7604620142
 H          3.4535777007       -0.9785365454       -1.6545744687
 H          0.6483985530       -2.0277279614       -3.1118364338
 H          0.2366222185       -0.3171564424       -2.9246952400
 H          1.8934471767       -0.8047128547       -3.3331650166
 H          2.1652159906       -1.2503324376        2.2962837060
 P          0.7811195625        2.1187037686        0.2524538342
 O         -1.4286543067       -0.0146588716       -1.3303984297
 O         -4.1099774894       -0.5523473445        0.8631492850
 O         -3.1302609606       -2.4280647991       -0.6967203903
 O         -0.5927618818        1.5609201372        0.8072539983
 O          0.7417458688        1.9022549353       -1.3053201668
 O          0.6954856017        3.7055593997        0.3654708712
 O          1.9069549159        1.5109459099        0.9755075310
 C         -2.7429545394       -0.4704252537        0.6160785435
 C         -2.3828623000        0.5796169541       -0.4620418767
 C         -2.1385152112       -1.7805874824        0.0612155520
 C         -1.0270150558       -1.2856331939       -0.8843782676
 C         -1.8193917040        1.8644857303        0.1452812817
 H         -2.2473468920       -0.2183870113        1.5565973225
 H         -3.2705165014        0.8256054345       -1.0570336550
 H         -1.7607179152       -2.4114510391        0.8634879293
 H         -1.0124912241       -1.9408331226       -1.7620029313
 H         -2.5125502539        2.2502762754        0.8945358280
 H         -1.6453932092        2.6063583431       -0.6344114314
 H         -4.5013867324       -1.1396300589        0.1908031220
 H         -3.0161892911       -3.3874734694       -0.6700128822
 H          1.2171461321        2.5735479434       -1.8101916422
 H          0.9957941817        4.0681461432        1.2049481075
