37
6_methyluracil_ribose_phosphate  charge=0 mult=1  seed=1_b3lyp_pcm
O      3.49364800     1.34929100     1.34711800
O      5.55765800    -2.48983800     0.09303900
N      2.26624600    -0.14560000     0.11377800
N      4.47202500    -0.60575500     0.75067900
C      2.27281000    -1.27395300    -0.70531900
C      3.36447400    -2.07850800    -0.73124000
C      3.42163600     0.26576700     0.77542900
C      4.54316200    -1.80398700     0.03997500
C      1.10013900    -1.59241500    -1.58227700
H      3.37379600    -2.94979600    -1.36464300
H      0.79331400    -0.72947000    -2.16977400
H      1.38467400    -2.39074300    -2.26128200
H      0.24024000    -1.91167200    -1.00012300
H      5.30051800    -0.30802700     1.24809900
P     -4.27418000    -1.06294600     0.22690600
O     -0.10133900     0.12835500     0.19427800
O     -0.88425500     3.51328200    -0.71147300
O      1.55582200     3.18399900     0.14950300
O     -2.98384600    -0.19759700     0.53343000
O     -4.58389000    -1.71612100     1.63817800
O     -5.37284700     0.06629500    -0.03009200
O     -4.17349500    -2.08198700    -0.82793200
C     -0.40106800     2.20241800    -0.87896400
C     -1.07292300     1.17249700     0.05641900
C      1.10857000     2.03783600    -0.55198800
C      1.13688100     0.77553800     0.34721000
C     -2.35815000     0.61192300    -0.48866400
H     -0.58087900     1.92092000    -1.91619400
H     -1.25602800     1.63953900     1.03038900
H      1.69811900     1.88991300    -1.45750100
H      1.24904100     1.11205000     1.37862300
H     -2.16632300     0.00150300    -1.37052500
H     -3.02515100     1.43290700    -0.75078400
H     -0.31827400     3.94931800    -0.05918900
H      2.33996900     2.92856100     0.65899800
H     -4.71798100    -1.09405000     2.36454700
H     -6.12306300    -0.23540300    -0.55731500
