  15
        -27.09864715
 N         -0.7574544344       -1.1422011221        0.0053415396
 N         -0.6106410928        1.2271456606       -0.0164177232
 N          1.3678101762       -0.0847742084        0.0063441503
 N         -2.6380986768        0.1637479151        0.0197723864
 N          1.1774661150       -2.3666926050       -0.0230698437
 N          1.4610223102        2.2026274145        0.0190410165
 C         -1.2988252156        0.0805471634       -0.0043713660
 C          0.5795837718       -1.1649254605        0.0060653135
 C          0.7189616061        1.0846246259       -0.0041750798
 H         -3.0633736332        1.0672432138       -0.0770556012
 H         -3.1725929353       -0.6809068925       -0.0665788582
 H          0.6074601666       -3.1859608059        0.0802274592
 H          2.1744097024       -2.4067975978        0.0832957476
 H          0.9988701892        3.0877939723       -0.0777456247
 H          2.4571103452        2.1177348308       -0.0655977524
