15
melamine  charge=0 mult=1  seed=1_b3lyp_pcm
N     -1.11297900     0.81111600    -0.00103400
N     -0.14601600    -1.36943800    -0.00061600
N      1.25889400     0.55818300     0.00022700
N     -2.42399900    -1.07473100     0.03569300
N      0.28118600     2.63677900    -0.03167200
N      2.14300500    -1.56194300    -0.03223100
C     -1.18903600    -0.52729200     0.00280200
C      0.13780800     1.29332200    -0.00298300
C      1.05107700    -0.76615800    -0.00298000
H     -2.52364900    -2.06479600    -0.09945600
H     -3.22438500    -0.48358600    -0.09987900
H      1.19362100     3.03368000     0.10393900
H     -0.52596600     3.21774500     0.10792200
H      2.03123900    -2.54998100     0.10853900
H      3.04941500    -1.15205600     0.10534100
