35
calc_04f63a231dca7906; angstrom; atom order from source job; valid
O -1.454093 1.100538 -2.256756
O -0.859415 2.984472 2.030982
O 2.576797 2.542827 -0.851897
N 0.553161 1.781086 -1.519521
N 0.830429 2.787497 0.565648
C -1.356456 1.797016 0.023810
C -0.780844 1.534142 -1.346354
C -0.460534 2.575301 0.961658
C 1.402575 2.369398 -0.612779
H -2.258077 2.396144 -0.108808
H 0.965920 1.530188 -2.409186
H 1.449652 3.255956 1.215012
P 2.456943 -1.379948 0.201291
O -0.665505 -0.412437 0.722063
O -3.093380 -2.632632 -0.566632
O -3.772020 -0.729250 1.177063
O 1.295517 -2.452993 0.107974
O 3.610311 -2.143734 0.944011
O 1.969403 -0.286926 1.225671
O 2.912890 -0.861219 -1.098353
C -2.295425 -1.471356 -0.595719
C -1.015236 -1.695903 0.203291
C -2.953229 -0.275517 0.116988
C -1.775062 0.485416 0.722761
C 0.105287 -2.215116 -0.661909
H -2.056105 -1.195295 -1.621707
H -1.206738 -2.380735 1.032750
H -3.529717 0.340368 -0.572341
H -2.027277 0.743214 1.750613
H -0.183970 -3.173797 -1.086774
H 0.316105 -1.515685 -1.472168
H -3.666722 -2.632747 -1.336787
H -4.140943 -1.577023 0.901414
H 3.409279 -2.415303 1.846986
H 0.998824 -0.145603 1.175244
