35
calc_04f63a231dca7906; angstrom; first printed source-job orientation; unoptimized start
O -1.922197 -0.886631 -2.009374
O -2.397851 0.561710 2.503341
O -2.774352 3.434019 -0.974132
N -2.354773 1.253135 -1.459085
N -2.599109 1.965408 0.752030
C -2.195630 -0.438219 0.331557
C -2.132647 -0.066691 -1.141811
C -2.394877 0.721768 1.302456
C -2.590308 2.301215 -0.588849
H -3.093126 -1.053749 0.446970
H -2.342212 1.496537 -2.441182
H -2.761276 2.731507 1.392792
P 2.720102 1.544671 0.057359
O 0.218532 -0.615548 0.433679
O 1.101636 -3.882861 -0.678927
O -0.719489 -3.633750 1.256726
O 3.073923 0.004629 -0.169683
O 4.030700 2.119900 0.734891
O 1.646879 1.574552 1.228067
O 2.365817 2.284684 -1.163939
C 0.386933 -2.659541 -0.684946
C 1.207338 -1.565961 -0.000270
C -0.892936 -2.719609 0.184023
C -1.005461 -1.304762 0.778983
C 2.208443 -0.887493 -0.906579
H 0.125287 -2.360072 -1.698269
H 1.721708 -1.988398 0.867953
H -1.764830 -2.991735 -0.408684
H -1.068723 -1.402057 1.861602
H 2.860000 -1.640581 -1.343185
H 1.706545 -0.341962 -1.705408
H 0.892237 -4.382268 -1.474340
H -0.154014 -4.347582 0.928960
H 4.241256 1.749272 1.601237
H 0.978877 0.861347 1.127963
