32
calc_c7d087597e139747; angstrom; atom order from source job; valid
O -1.510222 0.374609 -1.006731
O -1.512488 -2.250049 1.466232
O -3.915830 -1.485788 0.395648
O -2.805068 2.933674 -1.118917
N 0.468084 -0.800042 -0.569108
N 2.506336 -1.429597 -1.280740
N 1.142783 1.017385 0.942880
N 3.528201 1.302122 1.002946
N 5.002614 -0.004269 -0.219454
C -1.575480 -0.951753 0.916273
C -0.973384 -0.835726 -0.491224
C -3.007947 -0.426336 0.692287
C -2.841553 0.576201 -0.463207
C -2.984538 2.023468 -0.033919
C 1.373701 0.024663 0.073720
C 1.219014 -1.635765 -1.363173
C 2.623393 -0.384153 -0.380333
C 3.741080 0.302943 0.125059
C 2.270686 1.593166 1.351482
H -1.046265 -0.281575 1.588571
H -1.286346 -1.691001 -1.096699
H -3.396367 0.046907 1.590316
H -3.566824 0.353341 -1.249105
H -3.996626 2.178322 0.337776
H -2.280384 2.246142 0.771792
H -2.269374 -2.748155 1.125669
H -3.779694 -1.793655 -0.509690
H 0.742513 -2.382149 -1.977459
H -1.885046 2.886450 -1.403417
H 2.159738 2.405717 2.058210
H 5.185854 -0.687479 -0.933966
H 5.761723 0.568114 0.110690
