32
calc_fd81a34f6634214c; angstrom; first printed source-job orientation; unoptimized start
O -1.298069 0.119116 -1.271476
O -1.295513 -1.867813 1.727621
O -3.270067 -2.034290 -0.032223
O -2.638684 2.273640 0.296866
O 0.116524 1.859069 0.655838
O 4.556065 1.016777 0.334890
N 0.742577 -0.213672 -0.145804
N 2.318680 1.370593 0.469672
C -1.523703 -0.740353 0.918294
C -2.924288 -0.685539 0.287677
C -0.628917 -0.695927 -0.337786
C -2.719510 0.169774 -0.974415
C -3.149446 1.622619 -0.855068
C 1.791432 -1.047241 -0.492089
C 0.988128 1.056389 0.344533
C 3.094367 -0.730935 -0.365398
C 3.425847 0.580863 0.160166
C 4.202848 -1.663069 -0.746225
H -1.359524 0.145498 1.523064
H -3.659803 -0.251418 0.961804
H -0.520154 -1.713791 -0.718372
H -3.253823 -0.286596 -1.810002
H -2.852322 2.146566 -1.769524
H -4.237297 1.661551 -0.788038
H -1.833352 -2.587666 1.368622
H -4.226057 -2.119345 -0.089343
H 1.485878 -2.006305 -0.882503
H 2.508607 2.296429 0.829759
H -1.670183 2.187374 0.306730
H 4.840928 -1.880746 0.111253
H 3.806512 -2.601741 -1.127613
H 4.839189 -1.219741 -1.513163
