37
calc_d60a0ed0d549e22c; angstrom; first printed source-job orientation; unoptimized start
P 2.742980 -0.428600 -1.131340
O -0.176730 2.695590 -1.860570
O -1.615170 3.666140 -5.057610
O -2.542500 1.574240 -3.709440
O 1.322120 0.291330 -1.254360
O -1.747540 6.239600 -3.026550
O 2.281100 8.281600 -3.028720
O 2.969890 -0.519110 0.444810
O 3.794140 0.696740 -1.549030
O 2.904260 -1.722230 -1.845890
N 0.127210 4.918870 -2.688630
N 0.270410 7.232390 -2.961710
C -0.708410 3.066400 -4.140710
C -1.107450 1.640410 -3.802970
C -0.439390 1.394750 -2.448200
C -0.686250 3.708690 -2.748850
C 0.873640 0.620170 -2.563050
C 1.502650 4.853660 -2.570700
C -0.529360 6.125180 -2.902170
C 2.283380 5.938830 -2.657560
C 1.632840 7.248050 -2.893230
C 3.772820 5.922790 -2.551510
H 0.292930 3.081280 -4.586050
H -0.813160 0.929420 -4.580520
H -1.705370 3.943120 -2.416410
H -1.110950 0.870990 -1.757870
H 1.639880 1.221810 -3.062120
H 0.722260 -0.310790 -3.119400
H -2.489610 3.260080 -4.889540
H -2.821650 1.792550 -2.800390
H 1.934540 3.870530 -2.404860
H -0.190110 8.112270 -3.135630
H 4.226750 6.256530 -3.490450
H 4.109290 6.586330 -1.748020
H 4.154350 4.919340 -2.335010
H 2.451280 -1.243700 0.838270
H 4.704950 0.360370 -1.475810
