38
calc_e9f16a6afa2658b4; angstrom; atom order from source job; valid
N 2.826138 -2.085958 -0.206210
N 4.477099 -0.383473 -0.044318
N 0.595210 -1.658297 -0.015809
N 3.942909 1.798656 0.357713
N 5.052644 -2.559923 -0.483339
C 1.867248 -1.181618 0.038807
C 3.511344 0.512490 0.192795
C 2.158171 0.168150 0.292417
C 4.079608 -1.641540 -0.219308
H 0.509229 -2.659672 -0.037336
H -0.129273 -1.151666 0.464723
H 3.318655 2.561709 0.166156
H 4.901511 1.961179 0.100982
H 5.996439 -2.303152 -0.255800
H 4.807746 -3.527798 -0.375594
P -3.636331 -1.108487 -0.058973
O 0.040499 0.725853 1.340733
O -1.783482 2.506686 -1.165406
O 0.710227 3.312285 -0.545689
O -2.381964 -0.643618 0.771571
O -3.638413 -0.060014 -1.252029
O -3.105413 -2.433106 -0.728677
O -4.903347 -1.221843 0.667744
C -0.959047 1.542549 -0.565758
C -1.134024 1.408413 0.946741
C 0.518035 1.918413 -0.671856
C 1.138052 1.233594 0.568662
C -2.347236 0.645225 1.408493
H -1.097617 0.564676 -1.029600
H -1.179193 2.408344 1.395876
H 0.965422 1.555950 -1.598514
H 1.605058 2.027802 1.157705
H -2.310563 0.476726 2.482363
H -3.244828 1.218774 1.175126
H -2.571334 2.070008 -1.494820
H 0.125828 3.749115 -1.171229
H -4.485966 0.008438 -1.701529
H -3.421914 -3.234164 -0.302106
