35
calc_5025a3e61a678561; angstrom; atom order from source job; valid
N 1.480463 -0.110310 0.270661
N 1.941163 -2.298211 0.017055
N 4.352803 -2.071503 -0.108526
N 5.159752 0.177540 0.083972
C 2.854430 -0.210927 0.176873
C 3.116560 -1.587749 0.016160
C 3.923442 0.666247 0.203998
C 1.002632 -1.389371 0.167349
C 5.309044 -1.148251 -0.065696
H 3.813983 1.737376 0.316746
H -0.053921 -1.602601 0.234074
H 6.328075 -1.501929 -0.162875
P -3.179731 -1.389162 -0.171970
O -0.355694 0.845619 1.321573
O -0.570716 3.765465 -0.019778
O 0.869907 2.314044 -1.726852
O -2.844890 0.158990 -0.182548
O -3.344569 -1.581334 -1.739879
O -4.619406 -1.551988 0.489439
O -2.220063 -2.276308 0.503803
C -1.118127 2.473043 -0.265552
C -1.461965 1.734431 1.045250
C 0.018497 1.622675 -0.852889
C 0.704265 1.105651 0.428790
C -2.750699 0.941565 1.031440
H -1.969877 2.539285 -0.938704
H -1.533121 2.463103 1.855281
H -0.400971 0.772534 -1.388977
H 1.385003 1.866603 0.819944
H -3.601945 1.619812 1.048403
H -2.792340 0.297371 1.908293
H -1.270319 4.424956 -0.035266
H 0.889315 3.236886 -1.436042
H -3.215751 -2.492166 -2.032404
H -5.326469 -1.046201 0.068555
