  32
        -58.88780632
 O         -1.3920938932       -0.8447039857        1.2468985832
 O         -2.2880984839        2.1323822714       -0.2808033692
 O         -4.0470873723        0.2698823843        0.3179539055
 O         -0.7690741140       -1.6860462542       -1.5273873190
 O          0.4562526849        2.5446069326       -0.0800942286
 O          4.3916872313        0.3573742714       -0.5120708365
 N          0.5045712053        0.3407033075        0.4878172862
 N          2.4039791070        1.4059063311       -0.2781900682
 C         -1.7786660297        0.8395258120       -0.3922147100
 C         -2.9342040811       -0.1797101565       -0.4030832845
 C         -0.9283739519        0.3936994329        0.8291589316
 C         -2.3170866649       -1.3912353306        0.3040629565
 C         -1.6542628931       -2.3739718568       -0.6661663720
 C          1.2336008496       -0.8014338074        0.6436491812
 C          1.0787804045        1.4951463220        0.0355343222
 C          2.5438981782       -0.8905579636        0.3350692122
 C          3.2169257172        0.2844732981       -0.1812622768
 C          3.3428889333       -2.1412286302        0.5071798673
 H         -1.1802325541        0.7182163076       -1.3041541488
 H         -3.2266962775       -0.4224834973       -1.4324070154
 H         -1.0394270307        1.1187450742        1.6488955758
 H         -3.0750199356       -1.9161273068        0.8904564327
 H         -1.1132560678       -3.1271157519       -0.0807559225
 H         -2.4506519162       -2.8646723538       -1.2360085186
 H         -1.5386727315        2.7532287966       -0.2678304553
 H         -4.0972217692        1.2356766627        0.2224911123
 H          0.6753918564       -1.6313569477        1.0479610277
 H          2.8394896519        2.2572825859       -0.6218332902
 H         -0.4598002030       -2.2988941525       -2.2091938596
 H          3.7529074371       -2.4497050837       -0.4524002177
 H          4.1860972520       -1.9489976582        1.1677068362
 H          2.7307098801       -2.9362273668        0.9180145733
