32
thymine_ribose  charge=0 mult=1  seed=1_b3lyp_pcm
O     -1.28591200     0.55333200    -0.78448100
O     -1.24174200    -2.19965200     1.52333000
O     -3.64206600    -1.59217900     0.48328500
O     -2.98209500     2.79243000    -1.26099200
O      1.24665600    -2.17646800    -1.58826700
O      4.74096800     0.28640100    -0.06020000
N      0.77305900    -0.38623000    -0.21569600
N      2.95647500    -0.91064500    -0.78705500
C     -1.36400000    -0.88134300     1.05571300
C     -2.82407300    -0.45807900     0.75247000
C     -0.66009700    -0.61958200    -0.28752500
C     -2.68501000     0.51405900    -0.43754300
C     -3.14150700     1.93128100    -0.14170700
C      1.26075600     0.68928200     0.50060700
C      1.62417200    -1.23023200    -0.91744300
C      2.56745500     0.99581300     0.61084400
C      3.52518900     0.14153300    -0.07169200
C      3.07114700     2.16938600     1.39298500
H     -0.95007400    -0.21634300     1.81393400
H     -3.27137200     0.02346900     1.61904900
H     -0.79418600    -1.46678500    -0.95922800
H     -3.24441400     0.12797500    -1.29616100
H     -4.20479900     1.91992000     0.09455500
H     -2.59927500     2.31711900     0.72722200
H     -2.03211400    -2.67814000     1.23225800
H     -3.62042100    -1.81556500    -0.45390600
H      0.50236000     1.29849300     0.96780900
H      3.59536600    -1.51884300    -1.28111300
H     -2.04366700     2.84411200    -1.47194400
H      3.74683300     1.84840900     2.18689000
H      3.63199200     2.85320800     0.75444100
H      2.24636700     2.71748200     1.84378900
