32
DFT refinement start; not an optimized result
O 1.165127 0.325134 1.042969
O 1.224613 -2.225582 -1.447352
O 3.398448 -1.643657 -0.135883
O 2.668418 2.860504 1.228918
O -0.281342 1.558883 -0.950471
O -4.685510 0.925698 -0.216867
N -0.880668 -0.364206 0.133165
N -2.463941 1.208552 -0.542583
C 1.308241 -0.916980 -0.984419
C 0.522229 -0.702296 0.331721
C 2.732414 -0.487177 -0.575593
C 2.497872 0.527819 0.557552
C 2.678810 1.988740 0.124678
C -1.899245 -1.198192 0.545696
C -1.150373 0.844269 -0.479741
C -3.191369 -0.804277 0.436033
C -1.570423 -2.549007 1.082354
C -3.554647 0.471591 -0.104846
H 0.917808 -0.252911 -1.759114
H 0.568116 -1.625853 0.916924
H 3.256346 -0.024016 -1.416158
H 3.173723 0.324698 1.398493
H 3.656100 2.117736 -0.343577
H 1.888321 2.247937 -0.588258
H 1.974623 -2.721865 -1.069162
H 4.349877 -1.485638 -0.073174
H -3.994875 -1.446643 0.750124
H -2.491611 -3.091682 1.265932
H -0.972037 -3.105632 0.363856
H -1.023450 -2.476305 2.020342
H -2.651657 2.107686 -0.975974
H 1.813913 2.780643 1.674581
