32
DFT refinement start; not an optimized result
O 1.211522 -0.011267 1.360238
O 1.090945 -1.011065 -2.091130
O 3.178490 -1.645802 -0.551435
O 2.631142 2.400161 0.204897
O -1.283244 -2.464369 -0.260908
O -4.797755 0.351531 -0.479709
N -0.869072 -0.262909 0.216688
N -3.004075 -1.023020 -0.345561
C 1.340962 -0.210428 -0.984694
C 0.541762 -0.605245 0.282916
C 2.775946 -0.304074 -0.432189
C 2.599266 0.137789 1.034916
C 3.057617 1.580201 1.272329
C -1.377913 1.005483 0.390085
C -1.690832 -1.319936 -0.139941
C -2.695349 1.249150 0.170612
C -0.498411 2.098176 0.878526
C -3.603223 0.224509 -0.240086
H 1.109747 0.817422 -1.274122
H 0.570641 -1.703782 0.374826
H 3.450229 0.366334 -0.970138
H 3.162192 -0.526845 1.700894
H 2.629516 1.919832 2.221588
H 4.151211 1.582996 1.344063
H 1.566109 -1.851320 -1.973927
H 4.137135 -1.720598 -0.452876
H -3.102703 2.235169 0.308671
H -1.042898 3.035994 0.860815
H -0.192650 1.876232 1.899139
H 0.406718 2.192979 0.285542
H -3.593384 -1.803738 -0.618294
H 2.970202 3.296421 0.340765
