32
DFT refinement start; not an optimized result
O 1.102615 0.306172 1.250243
O 1.290825 -2.022979 -1.448135
O 3.410417 -1.626418 0.003990
O 2.469828 2.410020 -0.573874
O -0.285780 1.757827 -0.514911
O -4.699632 0.914330 -0.167016
N -0.884661 -0.333992 0.193405
N -2.472877 1.295548 -0.302578
C 1.367510 -0.769360 -0.850264
C 0.510548 -0.672638 0.435811
C 2.772713 -0.415826 -0.318047
C 2.488404 0.455673 0.922204
C 2.825024 1.939387 0.701058
C -1.896566 -1.256512 0.363383
C -1.156078 0.952507 -0.221715
C -3.192101 -0.878650 0.240745
C -1.548272 -2.677466 0.643102
C -3.564076 0.468904 -0.072726
H 1.030839 -0.018948 -1.570774
H 0.541520 -1.639325 0.949903
H 3.337546 0.153778 -1.060661
H 3.063499 0.084914 1.780305
H 2.327970 2.517889 1.488221
H 3.905332 2.078284 0.779017
H 2.038993 -2.553382 -1.113250
H 4.368376 -1.506995 0.042563
H -3.990293 -1.588128 0.369022
H -2.451069 -3.278052 0.612133
H -0.850981 -3.046187 -0.106520
H -1.099902 -2.786091 1.628894
H -2.663825 2.253790 -0.580163
H 1.501486 2.371682 -0.657887
