  17
        -31.36808348
 N          2.1389031947        0.6011057839       -0.0107618052
 N          1.7238529315       -1.5928587732        0.0058107701
 N         -0.6936481583       -1.4604322286        0.0119099092
 N         -1.5515252333        0.7797560828        0.0022026354
 N         -0.2524496906        2.6768874062        0.0396492747
 N         -2.9419351496       -1.0303833200       -0.0402029614
 C          0.7679575599        0.4671087534       -0.0084101258
 C          0.5292475255       -0.9249661415        0.0014446931
 C         -0.3394193347        1.3262154596       -0.0088415343
 C          2.6337581394       -0.6561547983        0.0005864397
 C         -1.6762473769       -0.5598313849        0.0079648174
 H          2.6725230143        1.4545819364        0.0062033932
 H          3.6855873701       -0.8633478675        0.0028274003
 H          0.6015209356        3.1261955986       -0.2380028768
 H         -1.1150855669        3.1777444313       -0.0908304445
 H         -3.0715923222       -2.0106429542        0.1341276721
 H         -3.6840401931       -0.3818915739        0.1525173466
