17
2_6_diaminopurine  charge=0 mult=1  seed=1_b3lyp_pcm
N      2.16914200     0.48642400    -0.00489800
N      1.66802700    -1.69238500     0.00130200
N     -0.74706700    -1.46329000     0.00527300
N     -1.52102600     0.81369900     0.00249300
N     -0.13555800     2.65951500    -0.04771400
N     -3.00001000    -0.95135700     0.06036900
C      0.78711600     0.40351800     0.00322500
C      0.49888300    -0.96421600     0.00559400
C     -0.28251200     1.31073600    -0.00054500
C      2.62722200    -0.78835000    -0.00542100
C     -1.69457600    -0.52553700     0.00617300
H      2.74444300     1.31203600    -0.01801100
H      3.68273400    -1.00522000    -0.01094700
H      0.74435200     3.08672300     0.18161900
H     -0.95830300     3.21606500     0.11551600
H     -3.16629300    -1.90642200    -0.20919300
H     -3.69829500    -0.28832700    -0.23091300
