37
calc_e219389dfd48a0ea; angstrom; atom order from source job; valid
P -3.420524 -1.139590 0.131618
O -0.211349 1.149699 0.926472
O 1.833634 2.943292 -1.398368
O -0.175141 4.193958 -0.040204
O -2.810176 0.237946 0.592476
O 3.588601 1.021656 1.432693
O 3.858922 -3.224744 -0.100368
O -3.860546 -1.777929 1.505195
O -2.121329 -1.960252 -0.249435
O -4.452113 -1.078829 -0.908469
N 1.802120 0.198592 0.254609
N 3.671118 -1.099435 0.641842
C 0.776652 2.156559 -0.946281
C -0.498493 2.941397 -0.607023
C -1.216709 1.988479 0.350055
C 1.054515 1.435238 0.379806
C -2.250751 1.141551 -0.361813
C 1.240550 -0.871131 -0.406509
C 3.055934 0.114459 0.824537
C 1.848831 -2.052556 -0.578708
C 3.182433 -2.214342 -0.023018
C 1.223156 -3.202515 -1.298969
H 0.555581 1.422850 -1.723359
H -1.087000 3.155274 -1.496229
H 1.641673 2.072205 1.041206
H -1.704236 2.541013 1.154970
H -1.794678 0.587790 -1.185779
H -3.041215 1.776482 -0.761085
H 1.767922 3.796536 -0.955548
H 0.009946 4.109903 0.897659
H 0.236393 -0.702908 -0.767675
H 4.593136 -1.179786 1.044968
H 1.855110 -3.530600 -2.124467
H 1.092544 -4.055661 -0.632487
H 0.251421 -2.922721 -1.699594
H -4.785475 -1.629715 1.720767
H -2.296659 -2.702111 -0.835170
