30
calc_9fa1ea43e6160877; angstrom; atom order from source job; valid
O -1.157785 0.618342 -0.795331
O -0.963461 -2.275876 1.354433
O -3.274767 -1.831576 -0.089953
O -2.863985 2.937336 -0.672188
O 1.653204 -1.786590 -1.574794
N 0.945161 -0.164999 -0.114788
N 3.245277 -0.488751 -0.611116
N 4.835204 0.837965 0.366448
C -1.223695 -0.952316 0.938861
C -2.682459 -0.687288 0.521722
C -0.451959 -0.522176 -0.316582
C -2.558498 0.521954 -0.419465
C -2.991383 1.828628 0.218371
C 1.263782 0.871614 0.714369
C 1.960750 -0.858529 -0.809343
C 2.542736 1.248711 0.910057
C 3.545702 0.516055 0.208514
H -0.968754 -0.297618 1.770762
H -3.304722 -0.467218 1.385326
H -0.458311 -1.324171 -1.051370
H -3.140608 0.346426 -1.326286
H -4.047345 1.759246 0.476388
H -2.420893 2.006658 1.134009
H -1.475595 -2.868544 0.786494
H -2.896192 -1.979331 -0.966259
H 0.437274 1.375614 1.190916
H -1.927701 3.070272 -0.860016
H 2.793990 2.069210 1.563058
H 5.106105 1.596738 0.968699
H 5.547759 0.330204 -0.131880
