39
calc_21a856a6d79c22c2; angstrom; atom order from source job; valid
N -1.202426 -1.492746 -0.024520
N -2.892464 -1.816424 -1.470945
N -4.206819 0.130339 -0.891769
N -3.222688 1.517128 0.805431
N -1.180454 1.110165 1.807258
N -5.295919 1.996925 -0.074489
C -2.095007 -0.431538 0.143864
C -3.135235 -0.663997 -0.758599
C -2.144760 0.738353 0.923000
C -1.750857 -2.268453 -1.002392
C -4.194927 1.177837 -0.066608
H -1.282691 -3.175112 -1.344095
H -0.233435 0.802131 1.638546
H -1.269711 2.046500 2.169052
H -5.173215 2.917821 0.311244
H -5.892536 1.935290 -0.882300
P 2.355347 2.456194 -0.280245
O 0.901584 -0.655137 0.638505
O 2.937618 -3.323521 -0.683065
O 1.482904 -3.458866 1.589365
O 3.144072 1.083229 -0.407833
O 3.534640 3.524163 -0.286440
O 1.833419 2.577515 1.214490
O 1.263232 2.646723 -1.245282
C 1.816388 -2.488985 -0.544654
C 2.131785 -1.096368 0.031055
C 0.766070 -3.008710 0.449536
C -0.018851 -1.734440 0.797162
C 2.595732 -0.109781 -1.013294
H 1.366399 -2.393144 -1.533103
H 2.894375 -1.189553 0.808068
H 0.152568 -3.807820 0.044711
H -0.337005 -1.754450 1.838005
H 1.783803 0.160019 -1.686044
H 3.410580 -0.550047 -1.584632
H 3.148981 -3.673246 0.193223
H 0.961089 -4.109256 2.069331
H 4.043620 3.554135 -1.106338
H 2.500585 2.439756 1.898900
