34
calc_0c1c835dc0af3a7d; angstrom; first printed source-job orientation; unoptimized start
P 1.092090 3.877282 -0.054919
O -0.007569 -0.424812 1.377166
O 2.304545 1.000451 -0.925640
O 2.046232 -1.549082 -1.117732
O 1.180442 3.010055 1.307696
O 0.214713 -3.756605 -0.902374
O 2.506855 3.735740 -0.732181
O 1.106576 5.361143 0.446243
O -0.089003 3.548201 -0.867039
O -4.211251 -4.557435 -0.371958
N -0.989091 -2.267245 0.319042
N -2.002662 -4.132625 -0.607419
C 1.056262 0.544963 -0.501137
C 0.824063 -0.956054 -0.800940
C 0.877370 0.628221 1.031660
C 0.236337 -1.508933 0.529839
C 0.277099 1.946737 1.514196
C -0.859439 -3.416685 -0.429748
C -2.190837 -1.875815 0.825315
C -3.313907 -2.592699 0.631648
C -3.272009 -3.817417 -0.128690
H 0.290954 1.156455 -0.989833
H 0.100989 -1.084890 -1.614863
H 1.855984 0.477526 1.510876
H 0.979495 -2.194913 0.972709
H 0.086181 1.892224 2.587692
H -0.654887 2.141050 0.975961
H 2.873719 0.220143 -1.070128
H 1.897381 -2.486260 -1.327382
H -2.162061 -0.958837 1.392442
H -1.919079 -4.985161 -1.154766
H -4.260883 -2.280949 1.033532
H 2.690892 2.835815 -1.049374
H 1.898013 5.624100 0.933526
