15
calc_72bf1dd411b42985; angstrom; first printed source-job orientation; unoptimized start
O 1.933316 1.168301 0.023110
N -0.561043 -1.487938 0.069179
N -2.157548 0.044951 0.029706
N -0.836577 2.016763 -0.184592
N 2.343535 -1.050627 0.014439
C 0.083496 -0.260039 -0.010009
C -0.953983 0.680159 -0.037009
C -1.877080 -1.235686 0.093794
C 1.495747 0.005947 -0.004032
H -0.128906 -2.393955 0.136848
H -2.624220 -2.000645 0.158358
H -1.634007 2.578674 0.056483
H 0.090804 2.383439 -0.030116
H 2.033914 -1.987157 -0.168776
H 3.328287 -0.851224 -0.038611
