30
DFT refinement start; not an optimized result
O -1.068475 1.142482 -0.707086
O -1.410303 -2.391965 -0.305207
O -3.511138 -0.928461 -0.867738
O -1.919545 1.334321 2.293853
O 0.663654 0.679004 1.456112
N 0.864721 -0.176179 -0.655479
N 2.740271 0.257649 0.714532
N 4.852178 -0.179434 -0.005269
C -1.354712 -1.066451 0.112133
C -2.724673 -0.360788 0.150564
C -0.564604 -0.158587 -0.861130
C -2.374519 1.114001 -0.119279
C -2.415306 1.981428 1.150511
C 1.679779 -0.626929 -1.638289
C 1.418707 0.282007 0.568149
C 3.021692 -0.662681 -1.484516
C 3.544524 -0.189798 -0.242276
H -0.881580 -1.038551 1.096813
H -3.192116 -0.471149 1.132615
H -0.749076 -0.509434 -1.890585
H -3.061703 1.539860 -0.861242
H -1.856951 2.902191 0.944041
H -3.454001 2.231140 1.378664
H -2.187382 -2.488093 -0.887081
H -4.446076 -0.731730 -0.720318
H 1.193605 -0.959383 -2.543767
H -0.968904 1.158584 2.166184
H 3.667304 -1.026023 -2.262866
H 5.501725 -0.516202 -0.694624
H 5.175306 0.162956 0.883910
