30
DFT refinement start; not an optimized result
O -1.060055 0.725838 -1.182582
O -2.104485 -2.067955 -0.104455
O -3.107555 -0.266470 1.604310
O -3.715134 2.623586 0.469489
O 1.327365 -2.445302 -0.628785
N 0.982050 -0.207677 -0.476934
N 3.103567 -1.157532 -0.073667
N 4.868261 0.153126 0.506116
C -1.174232 -1.117188 0.329752
C -1.958707 0.078535 0.901267
C -0.402542 -0.463354 -0.842886
C -2.218635 0.906050 -0.372661
C -2.453530 2.393627 -0.099331
C 1.454615 1.029800 -0.220775
C 1.829389 -1.344601 -0.398974
C 2.750563 1.216369 0.120679
C 3.581706 0.056665 0.184241
H -0.477105 -1.549178 1.055731
H -1.318414 0.645614 1.586869
H -0.381550 -1.147387 -1.704805
H -3.095226 0.496222 -0.895539
H -1.654354 2.778679 0.549445
H -2.434357 2.939780 -1.044665
H -1.647425 -2.879330 -0.364335
H -3.510044 -1.039766 1.174680
H 0.739893 1.832483 -0.324736
H -3.815453 2.075175 1.262928
H 3.141780 2.195877 0.325493
H 5.281634 1.046884 0.707530
H 5.420116 -0.687465 0.532772
