15
calc_579b225d5746d6f9; angstrom; first printed source-job orientation; unoptimized start
N -1.595220 1.069600 0.066300
N -1.507740 -1.145050 -0.078770
N 0.897100 -1.345880 -0.066010
N 2.055930 0.774230 0.074170
N 0.972750 2.850900 0.174350
C -0.267000 0.750960 0.044260
C -0.239570 -0.629220 -0.035900
C 0.908630 1.470450 0.099850
C -2.301680 -0.099460 -0.010870
C 1.988680 -0.573000 -0.002450
H -1.984350 1.997890 0.144640
H -3.383660 -0.125440 -0.011740
H 2.941310 -1.094020 -0.016480
H 0.251170 3.353190 -0.320680
H 1.920880 3.160110 -0.019820
