32
calc_1bbcfea89d162128; angstrom; atom order from source job; valid
N 1.092265 0.501236 0.118919
N 2.450343 -1.370963 -0.428542
N 3.463006 0.653058 0.323393
N 0.184282 -1.523529 -0.608294
N 2.108350 2.427189 0.859479
N 4.727586 -1.184001 -0.218171
C 1.265508 -0.761185 -0.291349
C 2.231648 1.159253 0.418244
C 3.510740 -0.617285 -0.108753
H 0.419021 -2.429794 -0.976403
H 2.936857 2.981145 0.983661
H 1.214403 2.887521 0.823400
H 4.816117 -2.106592 -0.603735
H 5.550932 -0.633420 -0.054783
O -1.507693 -0.091109 -1.426899
O -4.126941 -0.792565 0.155420
O -2.126163 -1.961825 1.533015
O -1.063433 2.286548 0.236765
C -3.011762 0.053513 0.418352
C -2.577479 0.724039 -0.888673
C -1.785283 -0.788493 0.808233
C -1.209765 -1.182695 -0.561225
C -2.077642 2.152764 -0.746447
H -3.265537 0.787249 1.185543
H -3.410901 0.709203 -1.594234
H -1.072798 -0.182626 1.361186
H -1.734227 -2.080893 -0.896970
H -2.908372 2.794983 -0.450210
H -1.723781 2.493721 -1.725380
H -4.081505 -1.521072 0.789809
H -2.031845 -1.793136 2.475448
H -0.371152 1.604921 0.078484
