  29
        -55.69609275
 O         -4.1298338645        0.6114811491        0.1140760900
 O         -2.2859192552        1.7778076149       -0.3546677856
 N         -0.7834663952       -0.6961280805       -0.2351647307
 N         -2.6320980765       -1.6710670384        0.5117808747
 C         -2.1156658973       -0.5425805902        0.0539744937
 C         -0.4659662548       -1.9748656193        0.0646669467
 C         -1.6252814405       -2.5598388287        0.5229059951
 C         -2.8324802201        0.7151087566       -0.0871605218
 H          0.5287817023       -2.3498203459       -0.0590489042
 H         -1.7825611756       -3.5636747235        0.8592617857
 H         -4.5906569449        1.4714445496        0.0333464053
 O          1.2384552817       -0.2593876661       -1.3249445594
 O          2.8368370539        1.6666408330        1.2441090269
 O          0.7159343440        2.5908939081       -0.0763349585
 O          2.7890363949       -2.0391348935        0.3211366094
 C          1.9671700374        0.7202326682        0.7137994893
 C          2.4250247183        0.1345755050       -0.6374509147
 C          0.5701763697        1.2750203804        0.3725008325
 C          0.1036986378        0.3232394457       -0.7538597969
 C          3.3784642831       -1.0490241076       -0.4926707421
 H          1.8821943875       -0.0913211064        1.4434390505
 H          2.9250392246        0.9183847889       -1.2232717024
 H         -0.1130602482        1.2245212940        1.2282607135
 H         -0.4432118412        0.8822192624       -1.5256877454
 H          4.3017118893       -0.6678416910       -0.0418303441
 H          3.5880262893       -1.4480984147       -1.4921095093
 H          2.6644035145        2.5184607360        0.8081399041
 H         -0.1606636853        2.9694859416       -0.2398767400
 H          3.4354018976       -2.7410749322        0.4808474134
