  29
        -55.69609275
 O         -4.1298338645        0.6114811491        0.1140760900
 O         -2.2859192552        1.7778076149       -0.3546677856
 N         -0.7834663952       -0.6961280805       -0.2351647307
 N         -2.6320980765       -1.6710670384        0.5117808747
 C         -2.1156658973       -0.5425805902        0.0539744937
 C         -0.4659662548       -1.9748656193        0.0646669467
 C         -1.6252814405       -2.5598388287        0.5229059951
 C         -2.8324802201        0.7151087566       -0.0871605218
 H          0.5287817023       -2.3498203459       -0.0590489042
 H         -1.7825611756       -3.5636747235        0.8592617857
 H         -4.5906569449        1.4714445496        0.0333464053
 O          1.2384552817       -0.2593876661       -1.3249445594
 O          2.8368370539        1.6666408330        1.2441090269
 O          0.7159343440        2.5908939081       -0.0763349585
 O          2.7890363949       -2.0391348935        0.3211366094
 C          1.9671700374        0.7202326682        0.7137994893
 C          2.4250247183        0.1345755050       -0.6374509147
 C          0.5701763697        1.2750203804        0.3725008325
 C          0.1036986378        0.3232394457       -0.7538597969
 C          3.3784642831       -1.0490241076       -0.4926707421
 H          1.8821943875       -0.0913211064        1.4434390505
 H          2.9250392246        0.9183847889       -1.2232717024
 H         -0.1130602482        1.2245212940        1.2282607135
 H         -0.4432118412        0.8822192624       -1.5256877454
 H          4.3017118893       -0.6678416910       -0.0418303441
 H          3.5880262893       -1.4480984147       -1.4921095093
 H          2.6644035145        2.5184607360        0.8081399041
 H         -0.1606636853        2.9694859416       -0.2398767400
 H          3.4354018976       -2.7410749322        0.4808474134
  29
        -55.69580924
 O         -4.1545290549        0.8232215842       -0.1062297244
 O         -2.1885022605        1.7779711296       -0.5537440282
 N         -0.9263212739       -0.7908052647       -0.0692358046
 N         -2.9121808732       -1.5256622557        0.5969054563
 C         -2.2554146042       -0.4935680320        0.0961383022
 C         -0.7621432785       -2.0647213901        0.3542445110
 C         -2.0029516627       -2.5003302256        0.7596605123
 C         -2.8448747650        0.7998308474       -0.2207196287
 H          0.1888711942       -2.5512441167        0.3198709439
 H         -2.2826672494       -3.4534507241        1.1581501769
 H         -4.5339198301        1.7035336882       -0.3048028861
 O          1.2412606535       -0.6480621715       -0.8941769938
 O          2.7169448142        1.7259139985        1.3699140634
 O          0.6228217950        2.4382012453       -0.1146210216
 O          4.0871238978       -1.5237012366       -1.2580780399
 C          1.8943171550        0.7059240247        0.9142061432
 C          2.3982180050       -0.0099756935       -0.3536009623
 C          0.4940564216        1.1733720476        0.4631901677
 C          0.0938520170        0.0940551269       -0.5791265767
 C          3.4856280638       -1.0464315677       -0.0834399745
 H          1.8033846796       -0.0209671172        1.7283686284
 H          2.7724971450        0.7342597917       -1.0709800704
 H         -0.2216885483        1.1901323994        1.2936987763
 H         -0.2997113157        0.5865469093       -1.4813833645
 H          3.0578575469       -1.8714312222        0.5006604567
 H          4.2778175433       -0.5693152690        0.4972035157
 H          2.5542395733        2.5176926471        0.8295122833
 H         -0.2575441282        2.7599540941       -0.3656247149
 H          3.4083466248       -1.9284329413       -1.8168957898
  29
        -55.69544426
 O         -4.1695485503        0.9031140922        0.0643421136
 O         -2.1901866105        1.8252801170       -0.3922214966
 N         -1.0086084776       -0.8183630431       -0.2097233969
 N         -2.9908370523       -1.5476832719        0.4722848495
 C         -2.3165297720       -0.4931656904        0.0473805991
 C         -0.8765211508       -2.1345300734        0.0722216218
 C         -2.1148325613       -2.5652750312        0.4910637823
 C         -2.8685320021        0.8440081758       -0.1170307509
 H          0.0522551198       -2.6462463402       -0.0642701655
 H         -2.4146337875       -3.5441071954        0.8032569976
 H         -4.5233443204        1.8099659336       -0.0412785229
 O          1.1304618631       -0.6827548043       -1.1027663055
 O          2.7872205173        1.4488183776        1.2712401336
 O          0.6526481716        2.3540877954       -0.0436434693
 O          4.6471602071       -0.6574075474       -0.1113096821
 C          1.8996914458        0.4997322555        0.7765940330
 C          2.3242442514       -0.1285369994       -0.5661221012
 C          0.5015827594        1.0489061817        0.4289563386
 C          0.0233078209        0.0731727989       -0.6820316939
 C          3.3956716128       -1.2102230806       -0.4225978719
 H          1.8101224334       -0.2867540735        1.5348720082
 H          2.6999492920        0.6629191925       -1.2318296674
 H         -0.1801132137        1.0171550356        1.2874272510
 H         -0.3830978827        0.6523375084       -1.5250195627
 H          3.5126105985       -1.7316996392       -1.3747656877
 H          3.0833591519       -1.9350543031        0.3418981851
 H          2.6027941920        2.2990619187        0.8379325034
 H         -0.2241297574        2.7219980067       -0.2370897783
 H          4.5601003805       -0.0910894792        0.6713253101
  29
        -55.69464754
 O         -4.1335699516        0.5910571357        0.1477527354
 O         -2.3149420854        1.7723008377       -0.3800210962
 N         -0.7783232629       -0.6787328965       -0.2514025588
 N         -2.6035878963       -1.6713939782        0.5296472164
 C         -2.1072831404       -0.5394134865        0.0588533238
 C         -0.4421203215       -1.9541060594        0.0465804805
 C         -1.5872824671       -2.5493956837        0.5264848866
 C         -2.8424269124        0.7078170821       -0.0839935373
 H          0.5503018880       -2.3293370659       -0.0996989983
 H         -1.7270675812       -3.5538644287        0.8686310608
 H         -4.6072083150        1.4435043654        0.0626195757
 O          1.2315159357       -0.2213803727       -1.3534823187
 O          2.7984938978        1.6020695025        1.3148846836
 O          0.7706298241        2.6083383161       -0.1346397317
 O          2.8585315216       -2.0859651621        0.3551328136
 C          1.9208111418        0.7028581961        0.7208652314
 C          2.4104747434        0.1312763563       -0.6246906092
 C          0.5571340232        1.3094320951        0.3343057469
 C          0.0916762387        0.3500964126       -0.7851847732
 C          3.3378828739       -1.0879249770       -0.5156511061
 H          1.7598726725       -0.1128917665        1.4330539876
 H          2.9364640722        0.9177896453       -1.1830194730
 H         -0.1502818716        1.3027735786        1.1715218684
 H         -0.4653080066        0.8949094730       -1.5588627749
 H          4.3301510196       -0.7411584162       -0.2177825308
 H          3.3963450866       -1.5436837040       -1.5072124136
 H          2.7012446228        2.4633989673        0.8757252987
 H         -0.0828376653        3.0258750758       -0.3205833359
 H          3.1832572065       -1.9249495184        1.2507248947
  29
        -55.69422750
 O         -3.8034716693        0.4794220694        0.7848567804
 O         -2.1684496968        1.7635924182       -0.0110989786
 N         -0.6471985149       -0.7116594256       -0.5276572427
 N         -2.4685579865       -1.7812169485        0.1668100458
 C         -1.9093787082       -0.5924287312       -0.0007040025
 C         -0.4345191464       -2.0348365644       -0.6983602865
 C         -1.5687204322       -2.6783104937       -0.2598858120
 C         -2.6115738935        0.6523646033        0.2549216407
 H          0.4684384871       -2.4081134283       -1.1302064628
 H         -1.7788337902       -3.7275352232       -0.2341566871
 H         -4.2755287096        1.3254365978        0.9259740722
 O          1.4618527804       -0.2312722170       -1.3997181401
 O          2.9069829757        2.1781654238       -0.1505343534
 O          0.4062569929        2.5141728922        0.3247795132
 O          1.6787405448       -1.5498259431        1.2991588455
 C          2.2868534337        1.0506858904        0.3997915927
 C          2.5527980307       -0.1752645570       -0.4815883602
 C          0.7446300609        1.1635935914        0.3960993490
 C          0.3126465094        0.3365340448       -0.8497825523
 C          2.7192523468       -1.4529961411        0.3482412443
 H          2.6560749822        0.8901072167        1.4203526939
 H          3.4485550632       -0.0205414890       -1.0880688310
 H          0.3335249350        0.6900612653        1.2978061440
 H         -0.1472930835        0.9971710687       -1.5988859289
 H          3.6943970888       -1.3949136728        0.8439272460
 H          2.7123030450       -2.3172295354       -0.3272331328
 H          2.2935395027        2.9286270782       -0.0642765711
 H         -0.5605371408        2.5954306237        0.2314881912
 H          1.8750916387       -2.2769889933        1.9064036348
  29
        -55.69413107
 O         -4.1721353523        0.6009040127       -0.2695010339
 O         -2.3432082787        1.7976850181       -0.6964445683
 N         -0.7753083904       -0.6187160389       -0.0366870869
 N         -2.7291552938       -1.6069284086        0.3151091173
 C         -2.1376682602       -0.4759163517       -0.0326333678
 C         -0.5211911373       -1.8987609549        0.3270567166
 C         -1.7422154477       -2.4922010990        0.5365410944
 C         -2.8634702703        0.7441935979       -0.3621163420
 H          0.4798702396       -2.2692807976        0.4029149521
 H         -1.9623905952       -3.4970706109        0.8324718315
 H         -4.6489251502        1.4264483915       -0.4903779849
 O          1.1225395029       -0.1615024802       -1.2982771242
 O          2.4800875283        2.3586688542       -0.0820661905
 O          0.5731340984        1.7601252740        1.6666176308
 O          2.7521578850       -1.8149362881        0.5826003319
 C          2.4651104191        1.0027813751        0.2848168386
 C          2.4857514054        0.0555832328       -0.9256601021
 C          1.0876916199        0.7153852679        0.9121901251
 C          0.2379177570        0.3586063234       -0.3360244277
 C          3.2024466631       -1.2694780855       -0.6395935812
 H          3.2694029936        0.7697408669        0.9879394640
 H          2.9699667782        0.5306605085       -1.7860902870
 H          1.1503510672       -0.1608903216        1.5641303695
 H         -0.2630924227        1.2558534626       -0.7233466938
 H          4.2795569102       -1.0721206595       -0.6008223992
 H          2.9862567487       -1.9523161934       -1.4699705761
 H          3.3816239111        2.6466170049       -0.2802000496
 H          0.8214716450        2.5967150191        1.2361187378
 H          3.2995088995       -2.5818231668        0.8043507461
  29
        -55.69406340
 O         -2.5639132775       -1.4169869484        1.9410030708
 O         -0.6643300730       -0.2621866709        1.8419442582
 N         -1.0846636644       -0.2125166169       -1.1183162202
 N         -3.1697183394       -0.7800904998       -0.6126954436
 C         -1.9551313502       -0.5889549310       -0.1287523714
 C         -1.8100688306       -0.1738643181       -2.2646351940
 C         -3.0953620002       -0.5177372646       -1.9292115826
 C         -1.6446275538       -0.7357160848        1.2902356971
 H         -1.3728895823        0.0903400065       -3.2044655402
 H         -3.9602644853       -0.5915188128       -2.5552673895
 H         -2.3787020058       -1.4787366089        2.9004264757
 O          0.9851744231       -0.9298567560       -0.3123147926
 O          2.9805041856        1.6682727070       -1.0102441746
 O          0.5192186706        2.5028029460       -1.2076054092
 O          2.0960721320       -0.2190737477        2.5233272033
 C          2.1707182296        1.1337870637        0.0072675577
 C          2.2613253593       -0.4095373491        0.0727441802
 C          0.6974874954        1.4017768977       -0.3816293872
 C          0.3212083896        0.0568664200       -1.0565803513
 C          2.6396859703       -0.9533486330        1.4579415157
 H          2.4015622084        1.5703360119        0.9816485486
 H          2.9999794526       -0.7526165352       -0.6656035738
 H          0.0788343044        1.5340245232        0.5100559529
 H          0.6938303280        0.0734594608       -2.0951161065
 H          3.7225390739       -0.8980563760        1.5850819208
 H          2.3246408956       -2.0029698994        1.4984240845
 H          3.8538270380        1.8974477931       -0.6663521834
 H          1.3540135327        2.6503280919       -1.6915200491
 H          1.1263902345       -0.2411425413        2.4633218953
  29
        -55.69405953
 O         -4.1484182770        0.8200585482       -0.0225001383
 O         -2.2002048212        1.7812601171       -0.5284445608
 N         -0.9168993594       -0.7878742615       -0.1015331652
 N         -2.8882562567       -1.5454597528        0.5819568626
 C         -2.2429108898       -0.4976619705        0.0980549507
 C         -0.7427180219       -2.0737844531        0.2780009797
 C         -1.9749303139       -2.5229408248        0.6961454687
 C         -2.8431030973        0.7985151358       -0.1820825035
 H          0.2076869341       -2.5575140104        0.2002360253
 H         -2.2452613930       -3.4882118123        1.0712759116
 H         -4.5344966008        1.7012669056       -0.2036175094
 O          1.2474085845       -0.6205646423       -0.9264932352
 O          2.7049679687        1.7720364407        1.3208764146
 O          0.6035669772        2.4580289567       -0.1424556851
 O          4.0213306851       -1.6797878838       -1.1402005162
 C          1.8826446135        0.7368679386        0.8957728173
 C          2.3984429403       -0.0090795325       -0.3522054047
 C          0.4823591105        1.1920858789        0.4348187972
 C          0.0945641339        0.1102321285       -0.6088776362
 C          3.4585039703       -1.0579329358       -0.0164142623
 H          1.7928128352        0.0313032534        1.7284866686
 H          2.8055712866        0.7240349056       -1.0646410429
 H         -0.2372204545        1.2033637061        1.2617921824
 H         -0.3051897004        0.5989497724       -1.5107406385
 H          3.0011115279       -1.8603147006        0.5661788958
 H          4.2267635683       -0.5651881710        0.5938796457
 H          2.4978886470        2.5635235734        0.7943473218
 H         -0.2798649003        2.7755438385       -0.3881406528
 H          4.4606083016       -1.0190373528       -1.6942455799
  29
        -55.69400787
 O         -4.0523257347        0.5859702546        0.1962265818
 O         -2.2384392451        1.8167086930       -0.1985339609
 N         -0.6964326896       -0.6863269190       -0.2516312327
 N         -2.5947584460       -1.6939949032        0.3191226810
 C         -2.0319850007       -0.5310001317        0.0332911142
 C         -0.4383144367       -2.0107675338       -0.1462144649
 C         -1.6234230470       -2.6123556301        0.2123888231
 C         -2.7599128529        0.7248232609       -0.0006969730
 H          0.5263106837       -2.4285592530       -0.3475584473
 H         -1.8191182507       -3.6484110456        0.3963359511
 H         -4.5293049790        1.4407124589        0.1721656882
 O          1.4088822080       -0.2423478152       -1.1643363415
 O          2.7975412310        2.2890794933       -0.0910106698
 O          0.3019391703        2.5610736636        0.4783611360
 O          2.7520795875       -2.5238818252       -0.1264568592
 C          2.2413671783        1.1703625097        0.5371681236
 C          2.5274772146       -0.0879029974       -0.2903482815
 C          0.6935244669        1.2274481914        0.5730906517
 C          0.2618389452        0.3430031424       -0.6327992980
 C          2.7566071889       -1.3222616707        0.5992697340
 H          2.6494048354        1.0796632426        1.5528853080
 H          3.3902046860        0.0767116588       -0.9424301974
 H          0.3182073484        0.7735846617        1.5025163903
 H         -0.2097081895        0.9645740599       -1.4072518873
 H          1.9491098297       -1.4137072107        1.3302798460
 H          3.7030045501       -1.1873662429        1.1364549172
 H          2.1712206110        3.0286865951        0.0015635165
 H         -0.6529828812        2.6076467836        0.2857109198
 H          3.4575236887       -2.5093126396       -0.7888015099
  29
        -55.69400122
 O         -4.0524277921        0.6201350884        0.1022591450
 O         -2.1764768714        1.8188195346        0.0199586282
 N         -0.7202620837       -0.7105831916       -0.3030152637
 N         -2.6430993448       -1.7084693487        0.1929044987
 C         -2.0547849227       -0.5441759992       -0.0276308860
 C         -0.4867885651       -2.0409343386       -0.2518821689
 C         -1.6858152492       -2.6389202418        0.0597601971
 C         -2.7454929717        0.7324220398        0.0304455935
 H          0.4804077215       -2.4488219672       -0.4452352607
 H         -1.9044999489       -3.6780222600        0.1938746373
 H         -4.5012127396        1.4881075396        0.1669364235
 O          1.3064962111       -0.2664776196       -1.3586358181
 O          2.7102103613        2.2704193489       -0.2900137083
 O          0.4024301716        2.2451975007        0.9233032919
 O          2.3315782056       -1.6664117101        1.0917856568
 C          2.3770664423        1.0446355828        0.2982574434
 C          2.5699058407       -0.0864197844       -0.7156633832
 C          0.8731279006        0.9617153559        0.6386429192
 C          0.2625804551        0.3073453495       -0.6267737530
 C          3.0846733575       -1.3756780036       -0.0669478736
 H          2.9860017119        0.8810579290        1.1961195606
 H          3.2718923632        0.2254892205       -1.4944802969
 H          0.7261666162        0.2851029736        1.4929837068
 H         -0.2375518492        1.0703646930       -1.2419726377
 H          4.1399317642       -1.2213451382        0.1817048816
 H          3.0021279441       -2.1875698650       -0.8006232673
 H          2.1361573456        2.9504980392        0.1048355572
 H         -0.5519359218        2.3022821429        0.7292955819
 H          2.7585202541       -2.3873188171        1.5760558187
  29
        -55.69393446
 O         -4.1713937576        0.5806355644       -0.2536177276
 O         -2.3518622080        1.7778249620       -0.7178504729
 N         -0.7670541283       -0.6220808263       -0.0336172123
 N         -2.7156120400       -1.6248244428        0.3075748317
 C         -2.1313146662       -0.4890423663       -0.0352630620
 C         -0.5053014060       -1.9008448144        0.3288970873
 C         -1.7232785317       -2.5035281842        0.5305835602
 C         -2.8652636001        0.7260365317       -0.3657191146
 H          0.4976265227       -2.2643499717        0.4128095696
 H         -1.9373353748       -3.5109114714        0.8223660621
 H         -4.6546254274        1.4019036384       -0.4766922879
 O          1.1143232895       -0.1043580655       -1.3155789261
 O          2.6030533484        2.3543033112       -0.0600399167
 O          0.5894855261        1.8070919059        1.6436985966
 O          2.6979581894       -1.8159387501        0.6082460601
 C          2.4706940956        1.0013044719        0.2838954952
 C          2.4812739836        0.0528620559       -0.9192050927
 C          1.0881172233        0.7319496482        0.9166516089
 C          0.2304316962        0.3735494529       -0.3269546974
 C          3.1540838993       -1.2929382935       -0.6214252044
 H          3.2789843390        0.7889001743        0.9842496025
 H          3.0031497188        0.5025741057       -1.7711087485
 H          1.1381560356       -0.1381707565        1.5787593980
 H         -0.3033776942        1.2601906562       -0.6943260341
 H          4.2355681079       -1.1233590915       -0.5921305623
 H          2.9137243347       -1.9776849416       -1.4441803043
 H          2.0642341745        2.5569056006       -0.8389179721
 H          1.0514902920        2.6146001222        1.3499137804
 H          3.2559209846       -2.5663148916        0.8574534707
  29
        -55.69377755
 O         -4.1741553230        0.5727502435       -0.0972210924
 O         -2.3201979148        1.7576233671       -0.4729419458
 N         -0.7901636720       -0.6800907821       -0.1330789476
 N         -2.6622174139       -1.6306601127        0.5876730393
 C         -2.1404050225       -0.5359808597        0.0618796899
 C         -0.4668109880       -1.9174023587        0.3091344656
 C         -1.6406046948       -2.4889321843        0.7442232624
 C         -2.8683740118        0.6972555663       -0.2020408163
 H          0.5388598281       -2.2828224728        0.2939248497
 H         -1.7981654871       -3.4612352132        1.1629006686
 H         -4.6449711375        1.4186846278       -0.2423931232
 O          1.2388467085       -0.2864554557       -1.2331670089
 O          2.8373708617        1.6109691271        1.3708680222
 O          0.7566463034        2.5868956517       -0.0271221228
 O          2.8882167543       -2.1833540194       -0.1912196364
 C          1.9679658018        0.7019906619        0.7820007554
 C          2.4269668425        0.1840545751       -0.5950118132
 C          0.5806654535        1.2809920968        0.4393976776
 C          0.1048933798        0.3183806107       -0.6746375382
 C          3.4661051772       -0.9448424069       -0.5209669127
 H          1.8668411042       -0.1415766352        1.4728356221
 H          2.8390418580        1.0248111337       -1.1698471503
 H         -0.1065430411        1.2547045090        1.2931806557
 H         -0.4367500876        0.8686031037       -1.4552730192
 H          4.1744329385       -0.7015680678        0.2740078943
 H          4.0030188275       -1.0118342528       -1.4721351485
 H          2.7160996505        2.4750361556        0.9426093262
 H         -0.1077690873        2.9813259726       -0.2144891955
 H          2.4143054313       -2.5070691571       -0.9709706873
  29
        -55.69371280
 O         -2.5793867950       -0.7175551156        2.1625400246
 O         -0.7710967180        0.4951468395        1.6894694231
 N         -1.0819812620       -0.4972104469       -1.1108476646
 N         -3.1235391756       -1.0713851363       -0.4592675422
 C         -1.9560797409       -0.6013655861       -0.0597070162
 C         -1.7539064983       -0.9332723713       -2.2067113593
 C         -3.0141028669       -1.2736619001       -1.7848653864
 C         -1.6887963243       -0.2201596306        1.3265873169
 H         -1.3002938135       -0.9637856682       -3.1749477670
 H         -3.8395719041       -1.6489049971       -2.3534780194
 H         -2.4286721414       -0.4283679469        3.0854857409
 O          1.0016339878       -0.7918900691       -0.1355859594
 O          2.7100676495        2.2647728856       -0.2277362901
 O          0.8206008382        2.1232718412       -2.0077910226
 O          3.0100595222       -1.7308054141        1.7525579961
 C          1.6451242270        1.4684504352        0.2087655771
 C          2.0987553903        0.0009659916        0.2990460830
 C          0.4951296000        1.4377388220       -0.8396259817
 C          0.2910931411       -0.0783648995       -1.1140560812
 C          2.4869811892       -0.4286823909        1.7124731879
 H          1.2525129269        1.7863625616        1.1759721617
 H          2.9503685140       -0.1460520742       -0.3822105186
 H         -0.4246865241        1.8653874257       -0.4294717821
 H          0.6924636197       -0.2966704707       -2.1175552457
 H          1.6004410499       -0.3371752574        2.3526520310
 H          3.2764214018        0.2276844413        2.0822439942
 H          2.6281163934        3.1631056321        0.1236853500
 H          1.7776266591        2.3264158249       -1.9737839583
 H          2.3500246397       -2.3417204631        1.3954319159
  29
        -55.69368340
 O         -3.9685811379        0.6378142079        0.6702873868
 O         -2.2341800682        1.8384117509       -0.0429628079
 N         -0.8137301913       -0.7010509233       -0.4929143593
 N         -2.6954263658       -1.6889104115        0.1606698776
 C         -2.0895703000       -0.5259793753       -0.0147300033
 C         -0.6438267123       -2.0375460572       -0.6280135931
 C         -1.8151506062       -2.6283916164       -0.2147213498
 C         -2.7467615677        0.7531885253        0.2009938176
 H          0.2576817235       -2.4541294079       -1.0218564318
 H         -2.0635528117       -3.6685133529       -0.1720959802
 H         -4.4087029465        1.5041301100        0.7917925968
 O          1.3077236748       -0.2944956973       -1.3789494425
 O          2.8510470106        2.0629137202       -0.0864825495
 O          0.3649720181        2.4766356932        0.3750855555
 O          3.6064436693       -1.5354635038        1.2364935372
 C          2.1904567154        0.9436729873        0.4344935854
 C          2.4132461876       -0.2671355007       -0.4779785819
 C          0.6512198467        1.1150147862        0.4346646101
 C          0.1840884306        0.3126046977       -0.8166670002
 C          2.5400799782       -1.5742768122        0.3265968634
 H          2.5632234588        0.7354702351        1.4464877855
 H          3.3050676182       -0.1099390977       -1.0918196230
 H          0.2169442754        0.6590367193        1.3363227059
 H         -0.2573766078        0.9941496655       -1.5574479933
 H          2.6437545038       -2.4139553355       -0.3714184688
 H          1.6420932305       -1.7249332006        0.9316308989
 H          2.2713544447        2.8355463772        0.0295365311
 H         -0.5951316395        2.6002157004        0.2610029871
 H          4.4463985436       -1.4833660706        0.7582340145
  29
        -55.69367343
 O         -4.1308285208        0.7281168977        0.1978414726
 O         -2.2350420127        1.8719200631       -0.0440847507
 N         -0.8574255694       -0.7092868088       -0.3294813028
 N         -2.8079444052       -1.6378183972        0.1943907174
 C         -2.1789950608       -0.4953256307       -0.0231600949
 C         -0.6783574127       -2.0511408559       -0.3053263585
 C         -1.8938643465       -2.6046419280        0.0237536654
 C         -2.8295887008        0.8036493309        0.0409905602
 H          0.2607225510       -2.5001224948       -0.5457764126
 H         -2.1511376765       -3.6363698772        0.1451064100
 H         -4.5560384760        1.6086098366        0.2535866885
 O          1.2246527554       -0.3497413130       -1.3119251542
 O          2.7423964428        2.1036464654       -0.1997197785
 O          0.3481244478        2.3122895523        0.7607087145
 O          3.9856555461       -1.4725645779        0.8683797010
 C          2.2608720151        0.9298978487        0.3924563880
 C          2.4403743334       -0.2452198137       -0.5714101492
 C          0.7299030261        0.9803237610        0.6109705679
 C          0.1622487980        0.2764650372       -0.6532511326
 C          2.7745952354       -1.5545934298        0.1663563714
 H          2.7899527121        0.7427261675        1.3366911809
 H          3.2260053278       -0.0093157084       -1.2963194777
 H          0.4544283242        0.3925798043        1.5001535206
 H         -0.2928731028        1.0188097049       -1.3248323173
 H          2.7896640184       -2.3756235999       -0.5611109413
 H          2.0109811006       -1.7602299055        0.9210208881
 H          2.1935969567        2.8429036960        0.1149277631
 H         -0.6053265186        2.4088172712        0.5776513162
 H          4.7207974079       -1.3627292823        0.2480242311
  29
        -55.69349579
 O         -4.1467739077        0.8276364011        0.2294897850
 O         -2.2328882069        1.8326671505       -0.3198514528
 N         -0.9503413903       -0.7701926584       -0.2872411212
 N         -2.8740188589       -1.5993850991        0.4475144350
 C         -2.2544073853       -0.5030024791        0.0446479328
 C         -0.7633520001       -2.0926116143       -0.0775191969
 C         -1.9659379434       -2.5857501292        0.3757840722
 C         -2.8586844297        0.8194847014       -0.0363535808
 H          0.1728325395       -2.5668799991       -0.2816849924
 H         -2.2186006933       -3.5883076336        0.6524737962
 H         -4.5350447399        1.7248525514        0.1764428307
 O          1.1478896417       -0.4842276631       -1.2649263943
 O          2.7724106738        1.5573863034        1.1867884004
 O          0.6428618384        2.4442457683       -0.0676017468
 O          4.3864897799       -1.0867699658        0.3382877792
 C          1.8965122276        0.5778495149        0.7329992643
 C          2.3389936385       -0.0996322405       -0.5816907420
 C          0.4978312738        1.1273029055        0.3750902671
 C          0.0276087866        0.1862000952       -0.7607697016
 C          3.2101953106       -1.3460857718       -0.3763473556
 H          1.8199593202       -0.1745306767        1.5248731146
 H          2.8757740078        0.6381981150       -1.1956404023
 H         -0.1878757109        1.0731690687        1.2286214172
 H         -0.4401645991        0.7747732889       -1.5632649328
 H          3.4232458556       -1.7852862681       -1.3594418303
 H          2.6568992323       -2.0771307871        0.2186142083
 H          2.5531223594        2.3937415970        0.7404439775
 H         -0.2368855849        2.8216401244       -0.2231990008
 H          4.9327260843       -0.4496098103       -0.1431005654
  29
        -55.69348932
 O         -4.1751298457        0.8770742280       -0.0614093611
 O         -2.2843380910        1.8490146883       -0.7252816026
 N         -0.9204606741       -0.6934096320       -0.1235886877
 N         -2.9367236480       -1.5014891665        0.3240784733
 C         -2.2592045894       -0.4215747502       -0.0260973958
 C         -0.7715667856       -2.0038604034        0.1897456569
 C         -2.0304300456       -2.4853478226        0.4548921238
 C         -2.8787357478        0.8707741702       -0.3014298163
 H          0.1847280857       -2.4822662698        0.1733564295
 H         -2.3291787191       -3.4755383111        0.7304325413
 H         -4.5833156699        1.7439995468       -0.2611930328
 O          1.1172502710       -0.4152944383       -1.2079346832
 O          2.3799549432        2.2106824993       -0.1079064242
 O          0.3181932914        1.7717588014        1.5144926981
 O          4.4159058167       -1.2925087849        0.1609279995
 C          2.3206004135        0.8943172471        0.3793056886
 C          2.4395024361       -0.1659203413       -0.7258280355
 C          0.8850703053        0.6687443583        0.8958282058
 C          0.1567041923        0.2198527361       -0.4017102542
 C          3.0728850125       -1.4694134950       -0.2039970587
 H          3.0636384868        0.7231272589        1.1641205172
 H          3.0195556071        0.2173800513       -1.5731568731
 H          0.8591729925       -0.1521451210        1.6201782004
 H         -0.2650912311        1.0948022219       -0.9147639785
 H          2.9549183473       -2.2449491562       -0.9684723059
 H          2.5545363196       -1.7898293500        0.7032085607
 H          3.2988295474        2.4968803391       -0.1994016201
 H          0.6156882510        2.5706389391        1.0445822941
 H          4.9628465398       -1.1967226668       -0.6319154182
  29
        -55.69321716
 O         -2.6432431350       -0.8905974006        2.1149880991
 O         -0.7280643488        0.1803245702        1.7342696893
 N         -1.2017242324       -0.4105605225       -1.1569231042
 N         -3.2696338110       -0.8846101128       -0.5083957466
 C         -2.0557300188       -0.5676488081       -0.0961156182
 C         -1.9358656943       -0.6495271917       -2.2731230027
 C         -3.2107087670       -0.9308590622       -1.8517528568
 C         -1.7217388867       -0.3873912563        1.3158362146
 H         -1.5098992669       -0.5972866693       -3.2528833108
 H         -4.0788254720       -1.1626623972       -2.4332508548
 H         -2.4410946344       -0.7375887449        3.0604048534
 O          0.8685173125       -0.9935246880       -0.2853379335
 O          2.7953727685        1.9609750736       -0.1385324576
 O          0.8740619073        2.1061832955       -1.8510474344
 O          3.5947825340       -0.2159581128        1.9495515331
 C          1.7211936679        1.1572259548        0.2577423158
 C          2.0409926908       -0.3505318535        0.1794715631
 C          0.5480747518        1.3399907534       -0.7317256420
 C          0.2017441079       -0.1140876067       -1.1580418743
 C          2.4519503730       -0.9246097296        1.5302391851
 H          1.3861983453        1.4101818014        1.2689614881
 H          2.8553234186       -0.4926654396       -0.5485136014
 H         -0.3150359845        1.7891393102       -0.2256380844
 H          0.5623847481       -0.2499720232       -2.1909768599
 H          2.6589118623       -1.9947193775        1.4177734010
 H          1.6145047521       -0.7892831142        2.2249538612
 H          3.5265708868        1.8285557462        0.4826914420
 H          1.7679332770        2.4711898951       -1.7136624332
 H          3.8853988948       -0.5537086489        2.8084587479
  29
        -55.69310098
 O         -2.6627186223       -1.1954983437        1.9866102551
 O         -0.8836232446        0.1341540584        1.8364601834
 N         -1.1304051286       -0.2918757296       -1.1368090802
 N         -3.2344453427       -0.7821090147       -0.6321494420
 C         -2.0345570946       -0.5383009235       -0.1377114585
 C         -1.8186573769       -0.3969552670       -2.3032617035
 C         -3.1160883893       -0.6877708663       -1.9697344927
 C         -1.7790616677       -0.4968590433        1.3024121928
 H         -1.3481760985       -0.2578907362       -3.2536996254
 H         -3.9629590836       -0.8335446268       -2.6077356988
 H         -2.5300011537       -1.1220186342        2.9538515506
 O          0.8943989209       -0.9875680508       -0.2138444580
 O          2.9692106212        1.3839370929       -1.0747157474
 O          0.5685874324        2.3626173099       -1.4484450230
 O          3.3863875126       -0.2081694005        2.3019124619
 C          2.1012291586        1.0775215034       -0.0120891610
 C          2.0906142796       -0.4271660051        0.3273134503
 C          0.6657751345        1.3475864313       -0.5063653940
 C          0.2808834401       -0.0472618624       -1.0607398542
 C          2.1500079371       -0.6922453340        1.8313508088
 H          2.3389794525        1.6709734397        0.8740246443
 H          2.9505863846       -0.9119498808       -0.1549720276
 H          0.0078019174        1.5908458006        0.3317045665
 H          0.6780278502       -0.1384127846       -2.0854712542
 H          2.0541923265       -1.7723665824        1.9926459046
 H          1.3065634762       -0.1828868662        2.3104474269
 H          3.8756955346        1.4639753658       -0.7487984246
 H          1.4161948284        2.4083675098       -1.9287107958
 H          3.4495626356       -0.3683997825        3.2539780918
  29
        -55.69300836
 O         -4.1316429962        0.9247242274        0.0596246846
 O         -2.2594145715        1.8575051699       -0.7064928317
 N         -0.9197128999       -0.7118062549       -0.1762448485
 N         -2.9369327398       -1.4989262383        0.3021810366
 C         -2.2500428845       -0.4205942400       -0.0340947275
 C         -0.7849848313       -2.0329132968        0.0952377213
 C         -2.0446461206       -2.5013393008        0.3792184254
 C         -2.8523057414        0.8900900787       -0.2574384930
 H          0.1628487571       -2.5244983036        0.0374846241
 H         -2.3536043749       -3.4943193413        0.6325287001
 H         -4.5284047962        1.8039623190       -0.1059504088
 O          1.1448453386       -0.4523001493       -1.2139445269
 O          2.3524751546        2.1974672630       -0.1535497802
 O          0.2736279230        1.7732130563        1.4590875908
 O          4.4052294099       -1.1698075698        0.2279207379
 C          2.3023238014        0.8955544366        0.3702174724
 C          2.4521930793       -0.1940872925       -0.7009475960
 C          0.8605185593        0.6680360721        0.8638782444
 C          0.1642005525        0.1969330486       -0.4439137039
 C          3.0802109117       -1.4735528677       -0.1345143982
 H          3.0365995891        0.7615352053        1.1703966467
 H          3.0703598978        0.1568886476       -1.5337621977
 H          0.8249310435       -0.1445183506        1.5974024816
 H         -0.2438247157        1.0639178689       -0.9812963008
 H          3.0414983889       -2.2459000994       -0.9112997999
 H          2.5041225683       -1.8104405786        0.7377235419
 H          3.2675074356        2.4475717181       -0.3409024220
 H          0.5692012210        2.5686147719        0.9829979458
 H          4.8544252885       -1.9754565692        0.5206636399
  29
        -55.69291999
 O         -4.1546711763        0.8490056077       -0.1090029875
 O         -2.1778622207        1.7794900829       -0.5580515524
 N         -0.9472841327       -0.8071408731       -0.0675715686
 N         -2.9470165271       -1.5169039344        0.5842753594
 C         -2.2725100550       -0.4909769052        0.0938650851
 C         -0.8046507111       -2.0871967885        0.3444317998
 C         -2.0536349451       -2.5067538584        0.7420613603
 C         -2.8451606192        0.8093469303       -0.2231571146
 H          0.1394286810       -2.5866236837        0.3018794914
 H         -2.3497880816       -3.4586150833        1.1316285230
 H         -4.5227423621        1.7334570776       -0.3105882039
 O          1.2340194906       -0.7049101808       -0.8485690603
 O          2.7225414268        1.7204906091        1.3470687662
 O          0.6067591090        2.4126600185       -0.1081219924
 O          4.1333676992       -1.3633534721       -1.3017468573
 C          1.8974528936        0.6925319311        0.9136394919
 C          2.3892904077       -0.0382082857       -0.3519837346
 C          0.4912231562        1.1476561484        0.4719158112
 C          0.0925479854        0.0607213037       -0.5656527414
 C          3.5121675976       -1.0303068711       -0.0832913484
 H          1.8187427174       -0.0259217681        1.7365307356
 H          2.7363649107        0.6947966961       -1.0940180557
 H         -0.2199346531        1.1607483185        1.3068126779
 H         -0.2769943261        0.5514327978       -1.4796646553
 H          3.0899029441       -1.9195766849        0.3998174584
 H          4.2217798459       -0.5424524690        0.5978138079
 H          2.5457610251        2.5061341908        0.8022058624
 H         -0.2764263204        2.7191534003       -0.3699552846
 H          4.8368340283       -2.0071270271       -1.1372583342
  29
        -55.69291797
 O         -4.1896873937        0.5590238466       -0.3378920707
 O         -2.3650956587        1.7874642431       -0.6881079674
 N         -0.7831354308       -0.6136267572       -0.0216517755
 N         -2.7293904001       -1.6221769862        0.3141965302
 C         -2.1474155186       -0.4876309246       -0.0372664407
 C         -0.5180174192       -1.8873811925        0.3563322034
 C         -1.7346505519       -2.4933447065        0.5560669701
 C         -2.8814806241        0.7227510855       -0.3833470819
 H          0.4871399548       -2.2441050672        0.4463598984
 H         -1.9465085386       -3.4976966398        0.8596657412
 H         -4.6718053762        1.3793989179       -0.5662746342
 O          1.1135278360       -0.1514960711       -1.2810715790
 O          2.6678782408        2.3057190168       -0.0555820845
 O          0.5564138346        1.8656498585        1.6015815567
 O          2.7458039324       -1.8414360339        0.5436879962
 C          2.4711678878        0.9693022273        0.3330173558
 C          2.4738790226        0.0659874703       -0.9060903429
 C          1.0540884147        0.7609679575        0.9198917273
 C          0.2225295590        0.3713894315       -0.3286417736
 C          3.1918057108       -1.2662266279       -0.6668836578
 H          3.2365967517        0.6460919029        1.0422607505
 H          2.9586264882        0.5861439978       -1.7397668729
 H          1.0632124757       -0.0721446865        1.6276006497
 H         -0.2906726929        1.2536610744       -0.7357568179
 H          4.2691378728       -1.0714430685       -0.6299355620
 H          2.9670532835       -1.9247827153       -1.5140088854
 H          3.0060521193        2.8177108183        0.6929412858
 H          0.6483642979        2.6503297181        1.0350414343
 H          3.2855937132       -2.6213163476        0.7370724233
  29
        -55.69289083
 O         -2.6319287996       -1.2454952706        1.9837353476
 O         -0.8647852837        0.1011783857        1.8389403114
 N         -1.1394062244       -0.2646500227       -1.1361209025
 N         -3.2347570612       -0.7825181747       -0.6227775020
 C         -2.0322283296       -0.5403651717       -0.1343844948
 C         -1.8380911480       -0.3495356591       -2.2982412677
 C         -3.1298954090       -0.6577608434       -1.9591640002
 C         -1.7617376347       -0.5264891217        1.3037931860
 H         -1.3780263680       -0.1860523036       -3.2499134629
 H         -3.9818859432       -0.7959270995       -2.5920003812
 H         -2.4865338149       -1.1917157792        2.9504414011
 O          0.9019863952       -0.9769580290       -0.2624556771
 O          2.9589889255        1.4259331540       -1.0715397553
 O          0.5483030135        2.4064113672       -1.3892042646
 O          3.3461791317       -0.2798730426        2.3787772523
 C          2.1017625619        1.0877242249       -0.0076042936
 C          2.1006021045       -0.4267010897        0.2872693112
 C          0.6575605980        1.3653178192       -0.4773110160
 C          0.2713180512       -0.0133911747       -1.0692806164
 C          2.1558171901       -0.7351322657        1.7908710874
 H          2.3424936804        1.6515933514        0.8961460107
 H          2.9524530137       -0.8941188749       -0.2273865942
 H          0.0092742934        1.5829974458        0.3747463194
 H          0.6548830401       -0.0698624284       -2.1019536788
 H          2.0146504526       -1.8116965045        1.9310670168
 H          1.3345999139       -0.2115412021        2.2845529551
 H          3.8349741991        1.6629117644       -0.7393180726
 H          1.3871849982        2.4580947792       -1.8850391009
 H          4.0752808240       -0.8715602068        2.1429097829
  29
        -55.69275986
 O         -2.5658531665       -0.7404871475        2.1729661657
 O         -0.7762560482        0.4991039799        1.6939238022
 N         -1.0910910299       -0.4762333968       -1.1062798494
 N         -3.1285200520       -1.0640477845       -0.4557271492
 C         -1.9618346075       -0.5962970240       -0.0538223937
 C         -1.7644679227       -0.9027529234       -2.2058136559
 C         -3.0222149533       -1.2510937192       -1.7844353269
 C         -1.6881531940       -0.2249187675        1.3347183816
 H         -1.3126301503       -0.9210195611       -3.1751870051
 H         -3.8486648966       -1.6218106093       -2.3545509419
 H         -2.4127225079       -0.4562090918        3.0970013715
 O          0.9899848462       -0.7903527467       -0.1324673277
 O          2.6937974372        2.3332660355       -0.1521715821
 O          0.8357567715        2.0565079240       -2.0383270003
 O          3.0353313427       -1.7415150980        1.7428968512
 C          1.6672353117        1.4618426447        0.2017020109
 C          2.1057495256       -0.0146936530        0.2914289441
 C          0.5004616817        1.4385065044       -0.8285133503
 C          0.2844312384       -0.0654158910       -1.1055157467
 C          2.5044438497       -0.4421036975        1.7019778590
 H          1.2953871270        1.7945686585        1.1723020077
 H          2.9463669487       -0.1937435870       -0.3967207731
 H         -0.4054389739        1.8740560044       -0.3937467083
 H          0.6866551108       -0.2750881899       -2.1110601095
 H          1.6233808691       -0.3509815020        2.3489358590
 H          3.2909188007        0.2232906649        2.0626199773
 H          2.9933745553        2.1321758325       -1.0545982770
 H          0.9180355295        3.0126089748       -1.8996958629
 H          2.3687843184       -2.3601567685        1.4119196833
  29
        -55.69267153
 O         -4.1796308666        0.8318526039       -0.0359623796
 O         -2.3148685968        1.8308759377       -0.7320593294
 N         -0.8998565415       -0.6856466425       -0.1300073325
 N         -2.9012812942       -1.5297075824        0.3200713169
 C         -2.2433635589       -0.4364892970       -0.0243634036
 C         -0.7289931510       -1.9965348055        0.1705067772
 C         -1.9787872285       -2.4999836711        0.4380207332
 C         -2.8876280611        0.8454281716       -0.2939662906
 H          0.2324961253       -2.4633118200        0.1445670991
 H         -2.2599105657       -3.4972130490        0.7065401374
 H         -4.6068197086        1.6895176634       -0.2364820703
 O          1.1155305785       -0.3152437966       -1.2568835851
 O          2.5178447960        2.2170437104       -0.0830474604
 O          0.3497156829        1.8421123965        1.4772128481
 O          4.3028098881       -1.3902974669        0.2569498522
 C          2.3343257537        0.9036198714        0.3706821396
 C          2.4346321910       -0.1608778461       -0.7236282979
 C          0.8905703730        0.7073135645        0.8877746930
 C          0.1513543021        0.2599496784       -0.4067788748
 C          2.9748523568       -1.4972126787       -0.1789241876
 H          3.0794590819        0.7470680165        1.1530010940
 H          3.0734446162        0.1770302786       -1.5472145115
 H          0.8444535821       -0.1049361278        1.6217951997
 H         -0.3200318905        1.1250301020       -0.8925724389
 H          2.8611064587       -2.2621263498       -0.9561391391
 H          2.4005138628       -1.7984056321        0.7002823622
 H          2.0529042845        2.3521797499       -0.9221856876
 H          0.8542047714        2.6181771111        1.1682481921
 H          4.8904670051       -1.2514767431       -0.4995367772
  29
        -55.69266942
 O         -2.5928520453       -0.9414968725        2.1174820903
 O         -0.7001436433        0.1666158840        1.7273234555
 N         -1.1967489919       -0.3864023481       -1.1636294267
 N         -3.2445638425       -0.9246501500       -0.5006427064
 C         -2.0347277164       -0.5825306664       -0.0962841008
 C         -1.9363567811       -0.6292044877       -2.2752921972
 C         -3.1988212017       -0.9500965537       -1.8449847524
 C         -1.6889801639       -0.4140723831        1.3143045133
 H         -1.5235009931       -0.5529459441       -3.2591170390
 H         -4.0665543458       -1.1963048998       -2.4211214756
 H         -2.3821497580       -0.7972520856        3.0624353239
 O          0.9014011948       -0.9624932777       -0.3603544446
 O          2.8544138868        1.9098953033       -0.2525409283
 O          0.7667772646        2.2437560790       -1.7409543499
 O          3.5087056565       -0.3747515471        2.1245181862
 C          1.7597203595        1.1846431025        0.2392874738
 C          2.0560839388       -0.3255879075        0.1606651018
 C          0.5170157242        1.3808501607       -0.6769583339
 C          0.2001853762       -0.0556611750       -1.1747240713
 C          2.3795004866       -0.9471568595        1.5237167090
 H          1.5130266814        1.4516651832        1.2672120373
 H          2.8978303606       -0.4653408276       -0.5366306924
 H         -0.3320512315        1.7687439647       -0.1074459870
 H          0.5405027504       -0.1357430172       -2.2204693978
 H          2.4895803158       -2.0302951280        1.3970945999
 H          1.5368343412       -0.7568663761        2.1920280101
 H          2.9873866065        2.7155489599        0.2652865440
 H          1.7369581349        2.3698512742       -1.7929586185
 H          4.3007124253       -0.6045846102        1.6171021411
  29
        -55.69262857
 O         -2.6629161089       -0.9238484054        2.0616505422
 O         -0.8368082510        0.3248023764        1.8117309226
 N         -1.0156482102       -0.3849414368       -1.1036342317
 N         -3.0902739618       -0.9837476667       -0.5922723882
 C         -1.9327906062       -0.5774623355       -0.1023801788
 C         -1.6520632691       -0.6939390601       -2.2624434409
 C         -2.9328298064       -1.0511802061       -1.9261406582
 C         -1.7332321492       -0.3446407364        1.3272768732
 H         -1.1626243871       -0.6355306668       -3.2117903727
 H         -3.7407945583       -1.3500486487       -2.5612374786
 H         -2.5586374895       -0.7309253802        3.0156461501
 O          1.0465580236       -0.7905912936       -0.0995598299
 O          2.9041889310        1.7529301090       -1.0823547580
 O          0.4341028464        2.3861810040       -1.6303907560
 O          2.6472175630       -1.6194837209        2.2094839215
 C          2.0338871842        1.3979355858       -0.0378003897
 C          2.1950399927       -0.0796910616        0.3791138041
 C          0.5959983160        1.4728189048       -0.5976192227
 C          0.3633424584        0.0041342611       -1.0321882765
 C          2.3099809846       -0.2922793851        1.8914579817
 H          2.1479527558        2.0633343136        0.8213807546
 H          3.0802855687       -0.5043278788       -0.1152202840
 H         -0.1095740003        1.7246793010        0.1977327750
 H          0.7877726651       -0.1346088650       -2.0407322328
 H          1.3602719989       -0.0014510334        2.3554264586
 H          3.1174447454        0.3221306411        2.2926570469
 H          3.7697073875        2.0078703705       -0.7358458948
 H          1.2935504503        2.4868468399       -2.0809191543
 H          1.9707167109       -2.2070504360        1.8456998319
  29
        -55.69247897
 O         -4.1830724209        0.5642567306       -0.2760662344
 O         -2.3722095626        1.7601903824       -0.7757221569
 N         -0.7722332537       -0.6103098570       -0.0136582229
 N         -2.7167568326       -1.6264092038        0.3058360496
 C         -2.1371191058       -0.4889530978       -0.0375162041
 C         -0.5051769943       -1.8854269051        0.3604814882
 C         -1.7205466603       -2.4962371126        0.5493498216
 C         -2.8780283335        0.7152874269       -0.3957509252
 H          0.5002213808       -2.2397463134        0.4568323600
 H         -1.9313657232       -3.5032678473        0.8446084589
 H         -4.6724049976        1.3741051332       -0.5261147053
 O          1.0994278543       -0.0920414536       -1.3004311601
 O          2.7501087578        2.3149667862        0.0500865914
 O          0.5265679046        1.8801312807        1.5371739058
 O          2.7088308999       -1.8431277447        0.5437939285
 C          2.4836497173        0.9709612432        0.3302449759
 C          2.4676481807        0.0687395784       -0.9178797795
 C          1.0748635585        0.7491245544        0.9288451125
 C          0.2259884213        0.3866388996       -0.3079218926
 C          3.1455288594       -1.2855022007       -0.6786509663
 H          3.2670350090        0.6549095652        1.0217126986
 H          2.9773118855        0.5614573175       -1.7527539660
 H          1.1017026013       -0.1092931598        1.6135047258
 H         -0.3061356723        1.2789831734       -0.6646851723
 H          4.2278659664       -1.1195623396       -0.6624769391
 H          2.8881234051       -1.9442108202       -1.5167935137
 H          1.9848901731        2.7305596600       -0.3737281639
 H          1.0875961126        2.1584927579        2.2766676145
 H          3.2512647089       -2.6191375257        0.7450733770
  29
        -55.69235293
 O         -4.1758791426        0.5799344636       -0.3000978950
 O         -2.3502701015        1.7909884758       -0.7022651629
 N         -0.7736573894       -0.6154427964       -0.0212386525
 N         -2.7250328455       -1.6189155330        0.2953024862
 C         -2.1374272357       -0.4828302753       -0.0389024254
 C         -0.5155752440       -1.8972034216        0.3373338657
 C         -1.7351758624       -2.4996137955        0.5256535646
 C         -2.8677121832        0.7338014212       -0.3767933985
 H          0.4875480007       -2.2608405124        0.4226048918
 H         -1.9531617660       -3.5073785305        0.8130425809
 H         -4.6574549248        1.3999669978       -0.5308397490
 O          1.1160870939       -0.1399432394       -1.2873319910
 O          2.6382437281        2.3296285408       -0.0407777725
 O          0.5416486769        1.8554445058        1.5484191551
 O          2.7390954576       -1.8313781902        0.5512738138
 C          2.4742070059        0.9842554798        0.3179276676
 C          2.4808882423        0.0681689096       -0.9156705621
 C          1.0800100546        0.7254869730        0.9275022445
 C          0.2372670797        0.3678752180       -0.3160966671
 C          3.1908538666       -1.2654975402       -0.6621464924
 H          3.2760981089        0.7036249186        1.0103168998
 H          2.9706979300        0.5760915837       -1.7531216116
 H          1.1227131440       -0.1415306077        1.5946762136
 H         -0.2718674969        1.2676591264       -0.6877067128
 H          4.2679539469       -1.0718062374       -0.6222877445
 H          2.9682603913       -1.9310602466       -1.5044247323
 H          1.8725710371        2.8306857776        0.2931135715
 H          0.8683567924        1.9252487903        2.4579866760
 H          3.2861066299       -2.6026592882        0.7588315718
  29
        -55.69233339
 O         -4.2948124319        0.3536264685       -0.3677486285
 O         -2.5667755527        1.6438094214       -0.9275179596
 N         -0.8088313929       -0.5323324446        0.0100332941
 N         -2.6724971245       -1.6359868556        0.4858698389
 C         -2.1790227282       -0.5069915967        0.0057640725
 C         -0.4467292313       -1.7358944830        0.5178353571
 C         -1.6141095706       -2.4029157379        0.8006797103
 C         -3.0021895232        0.5977313502       -0.4708772810
 H          0.5819313264       -2.0183232211        0.6131854076
 H         -1.7491127943       -3.3817844867        1.2120938352
 H         -4.8377828930        1.0994046636       -0.6944191475
 O          1.0815340890       -0.0635737315       -1.2503154065
 O          3.2078770677        1.7728801913        0.7578501150
 O          0.6954215213        2.5019713807        0.9012703407
 O          2.7536837007       -2.0806565110        0.1304503934
 C          2.3295829812        0.6874305880        0.6566165639
 C          2.4082525124        0.1271576649       -0.7720135242
 C          0.8462731151        1.1190731379        0.8298188691
 C          0.1206386759        0.4976008179       -0.3964604029
 C          3.1959091696       -1.1815707357       -0.8635088567
 H          2.5773397011       -0.1016114245        1.3738165368
 H          2.9034700739        0.8713508111       -1.4112583272
 H          0.4124588912        0.7141258170        1.7492326744
 H         -0.4528049042        1.2694885122       -0.9255068089
 H          4.2577956567       -0.9464138789       -0.7257391107
 H          3.0350083360       -1.5971615405       -1.8639233905
 H          3.3191624797        2.0233043874        1.6868003904
 H          1.3984293009        2.9272836868        0.3791710424
 H          3.2479560491       -2.9082589758        0.0473074221
  29
        -55.69232091
 O         -4.3015777529        0.3759849143       -0.2264588961
 O         -2.6000159614        1.6313278901       -0.9295858412
 N         -0.8067007532       -0.5357331425       -0.0396788013
 N         -2.6506993754       -1.6282433339        0.5313744004
 C         -2.1754443560       -0.5028507692        0.0252423189
 C         -0.4265461826       -1.7396833246        0.4537250747
 C         -1.5821283596       -2.3999831666        0.7952744552
 C         -3.0158248562        0.6019462854       -0.4204420935
 H          0.6028350210       -2.0312880307        0.4984170207
 H         -1.7014773895       -3.3773987028        1.2148292567
 H         -4.8566824122        1.1189705274       -0.5386546844
 O          1.1091026755       -0.0730912788       -1.2705656379
 O          3.1704478381        1.6047708672        1.0162341429
 O          0.7778557994        2.5935891294        0.5739176174
 O          2.7846441329       -2.0925764983        0.0842215873
 C          2.2132832106        0.6262020176        0.7269902917
 C          2.4033409504        0.1456251918       -0.7202504121
 C          0.7758076320        1.2066980568        0.7261853457
 C          0.1024923822        0.5001438837       -0.4790948542
 C          3.2484082050       -1.1238193386       -0.8312677367
 H          2.2761162567       -0.2288571778        1.4059295101
 H          2.8991111590        0.9427255893       -1.2921664474
 H          0.2282169666        0.9636049528        1.6454451759
 H         -0.4726982572        1.2285617119       -1.0638515079
 H          4.2888402268       -0.8547430682       -0.6140409821
 H          3.1662844974       -1.4889306496       -1.8603320758
 H          3.2870905614        1.6898343474        1.9739199825
 H          1.7048188804        2.8859289892        0.4690146788
 H          3.3034063471       -2.9021129336       -0.0239242966
  29
        -55.69217485
 O         -4.1692562602        0.8797161567        0.1100948028
 O         -2.2182942717        1.8271837224       -0.4128868118
 N         -0.9869525959       -0.7918066875       -0.2202362031
 N         -2.9442346054       -1.5514584362        0.4995065637
 C         -2.2954541661       -0.4879822207        0.0569241274
 C         -0.8266531218       -2.1030604763        0.0684470216
 C         -2.0499472498       -2.5531440659        0.5104734673
 C         -2.8725996239        0.8388493487       -0.1076666904
 H          0.1091881261       -2.5985494805       -0.0788308353
 H         -2.3273599848       -3.5349682131        0.8338180588
 H         -4.5386939961        1.7803286202        0.0055486292
 O          1.1384879612       -0.6060393151       -1.1475474024
 O          2.7337643775        1.4535346582        1.3396347789
 O          0.6850368733        2.3907176939       -0.0976704040
 O          4.5904303160       -0.7526971768       -0.1497914555
 C          1.8660165278        0.5176631776        0.7974386724
 C          2.3275317498       -0.1274416941       -0.5254073192
 C          0.4919311869        1.0985926759        0.3956757631
 C          0.0216837574        0.1202299839       -0.7099978388
 C          3.3107261013       -1.2866340290       -0.3777698981
 H          1.7309072560       -0.2607631829        1.5562354334
 H          2.7936827210        0.6431673460       -1.1559060105
 H         -0.2110907039        1.0996404082        1.2370156399
 H         -0.4094831179        0.6860037007       -1.5489182952
 H          3.2824419112       -1.8640533774       -1.3114740216
 H          2.9938131313       -1.9308696825        0.4522434776
 H          2.6727379497        2.2727632974        0.8211409400
 H         -0.1794314624        2.7835610066       -0.2953178803
 H          5.2182446440       -1.4734796137        0.0005717120
  29
        -55.69209648
 O         -4.1540469391        0.7258264841       -0.6305716561
 O         -2.1727972191        1.5367255546       -1.2477852619
 N         -0.9450614439       -0.7052248974        0.2164732615
 N         -3.0128950054       -1.4251692085        0.5616211996
 C         -2.2806671457       -0.4605353474        0.0335830329
 C         -0.8578698122       -1.8752760678        0.8968827182
 C         -2.1470228606       -2.3064527664        1.0921768225
 C         -2.8373121881        0.6917031838       -0.6691177139
 H          0.0861414171       -2.3032092686        1.1597935823
 H         -2.4954183393       -3.1922991631        1.5815228969
 H         -4.5187426164        1.4962506123       -1.1118704798
 O          1.2018871442       -0.7011628730       -0.6338168947
 O          2.8498095008        2.0928274678        0.6166086347
 O          0.2897904040        2.1637303365        1.2344667902
 O          3.7408751244       -1.5783629093       -1.7830546339
 C          2.3116975833        0.8174347844        0.8129324360
 C          2.4212543994        0.0165787984       -0.4986573136
 C          0.7766687463        0.8709987597        1.0880071228
 C          0.1729965453        0.1181452922       -0.1372219478
 C          3.5851495584       -0.9738368828       -0.5269369005
 H          2.8250680713        0.2856281581        1.6201574716
 H          2.5248146211        0.7308524620       -1.3289107333
 H          0.5180316679        0.3307549845        2.0037911975
 H         -0.1573559682        0.8500602454       -0.8882417867
 H          3.4263317673       -1.7309147898        0.2520835427
 H          4.5144102008       -0.4365617859       -0.3296514265
 H          3.0582725547        2.5035851883        1.4686228546
 H          0.7951800538        2.7562159910        0.6487752441
 H          2.9157742827       -2.0273569069       -2.0161495564
  29
        -55.69206552
 O         -4.1358448932        0.7566139222       -0.4165164922
 O         -2.2094211843        1.7304218854       -0.9645606858
 N         -0.8502989426       -0.6615665265        0.0956663473
 N         -2.8805234561       -1.4747424325        0.4624790029
 C         -2.1987507773       -0.4335082145        0.0174809964
 C         -0.7018622946       -1.9026058046        0.6213375593
 C         -1.9681302384       -2.3894364335        0.8335370238
 C         -2.8206177140        0.7827089087       -0.4970691264
 H          0.2611902231       -2.3385133158        0.7824619760
 H         -2.2687972226       -3.3372109213        1.2296641478
 H         -4.5444612676        1.5755468795       -0.7634426307
 O          1.2252327586       -0.4815074738       -0.9194634307
 O          2.3088971764        2.3839710243       -0.0432985840
 O          0.2772101087        1.9012081218        1.5914245638
 O          3.6397140381       -2.0946498757       -1.1210490630
 C          2.3344650356        1.0911328209        0.5035026854
 C          2.5295979230       -0.0023611358       -0.5617347547
 C          0.9169021677        0.8034731309        1.0385525869
 C          0.2286842758        0.2292249622       -0.2282207432
 C          3.3793773769       -1.1866790346       -0.0831796030
 H          3.0803462195        1.0135697825        1.3003033311
 H          2.9825111175        0.4183083644       -1.4676124241
 H          0.9462985016        0.0263315564        1.8096424943
 H         -0.1735310638        1.0486478499       -0.8397504183
 H          2.8678095112       -1.6858763218        0.7510561843
 H          4.3543130554       -0.8324548017        0.2559148450
 H          3.2066422523        2.6984183421       -0.2171304948
 H          0.5256503275        2.6902776998        1.0787896857
 H          2.8008848294       -2.3513894027       -1.5304740933
  29
        -55.69204163
 O         -4.2042485322        0.6399615970       -0.6661638318
 O         -2.2665453285        1.6439904302       -1.1102389097
 N         -0.9348565080       -0.6595986675        0.1693221129
 N         -2.9718951971       -1.4827989296        0.4667932246
 C         -2.2794839832       -0.4630556665       -0.0086355899
 C         -0.8012507584       -1.8604322400        0.7860126464
 C         -2.0714661838       -2.3532070424        0.9560869607
 C         -2.8884207267        0.7035045558       -0.6412709788
 H          0.1567218360       -2.2622618011        1.0388156962
 H         -2.3838706863       -3.2752977742        1.4007691768
 H         -4.6048433943        1.4235850004       -1.0945391324
 O          1.1009514062       -0.5173681857       -0.9234281552
 O          2.9342208645        2.0462159499        0.5647162136
 O          0.4701574752        2.0110544001        1.4671818799
 O          3.5840844441       -1.8241627585       -0.3353903897
 C          2.4004554615        0.7525102965        0.5946440826
 C          2.3230580957        0.2010070048       -0.8427896516
 C          0.9152418228        0.7552838520        1.0696786747
 C          0.1519476675        0.2067194422       -0.1741897812
 C          3.4838897072       -0.7273626829       -1.2070618794
 H          3.0016160836        0.0757221687        1.2090271583
 H          2.3040094540        1.0554940758       -1.5348437807
 H          0.7631569137        0.0794008891        1.9165570113
 H         -0.2478363011        1.0505080736       -0.7539824640
 H          4.4176816111       -0.1701772272       -1.1153237237
 H          3.3589604945       -1.0577490082       -2.2434581346
 H          3.3315054282        2.2644181146        1.4202301037
 H          0.9754199388        2.6859224888        0.9764631881
 H          2.8200100713       -2.3998202722       -0.4783174581
  29
        -55.69201801
 O         -4.2617415544        0.4211567033       -0.0743444655
 O         -2.5592357434        1.6554149302       -0.8141977002
 N         -0.7834588445       -0.5723074596       -0.0937711687
 N         -2.6139672721       -1.6394060638        0.5660029345
 C         -2.1471219948       -0.5144404178        0.0524526540
 C         -0.3993286905       -1.7905783772        0.3561402413
 C         -1.5471850127       -2.4343608363        0.7541144101
 C         -2.9815373346        0.6203746824       -0.3196897723
 H          0.6246747219       -2.1025402004        0.3434653726
 H         -1.6597275994       -3.4172251016        1.1626070575
 H         -4.8112851021        1.1888119633       -0.3322822474
 O          1.1532975319       -0.0863101699       -1.3196405734
 O          3.0595152811        1.5185662206        1.2416162181
 O          0.8243926240        2.6481382177        0.3047626429
 O          2.7555314860       -2.1071932260        0.1227790845
 C          2.1050089386        0.6331090806        0.7431761403
 C          2.4144944652        0.1408600463       -0.6851471910
 C          0.7103021932        1.2804748469        0.5744501764
 C          0.0950893682        0.4695785908       -0.5850508091
 C          3.2838852914       -1.1148304702       -0.7287022641
 H          2.0508400145       -0.2278372808        1.4172836394
 H          2.9456047989        0.9283900743       -1.2385824604
 H          0.1058540369        1.2031085619        1.4808650455
 H         -0.5084395603        1.1140108514       -1.2371824627
 H          4.2902569679       -0.8240355988       -0.4060755575
 H          3.3129112531       -1.4713622013       -1.7649223338
 H          2.7196248074        2.4262743022        1.1335327664
 H          1.0938090799        2.7959457154       -0.6141703482
 H          3.3479924663       -2.8718406784        0.1219398959
  29
        -55.69194744
 O         -3.9790209217        0.7549406173        0.2979854926
 O         -2.2982106864        1.7209037761       -0.8015805713
 N         -0.7089599834       -0.6848042988       -0.2060956928
 N         -2.6310997095       -1.6170803028        0.3917198949
 C         -2.0463529565       -0.4911166542        0.0200586798
 C         -0.4601249455       -1.9931729774        0.0448623269
 C         -1.6639173850       -2.5511139318        0.4035428540
 C         -2.7568784677        0.7645377385       -0.1977648362
 H          0.5103289658       -2.4272437731       -0.0798648167
 H         -1.8823457223       -3.5657145740        0.6653686559
 H         -4.4549084619        1.5913703439        0.1207982470
 O          1.3737495243       -0.2091764750       -1.1775648134
 O          2.5547546538        2.4018210798       -0.1597944774
 O          0.1720598686        2.2189728871        1.0957299607
 O          2.7898206817       -2.4828406038       -0.3102464116
 C          2.3089377197        1.1765654830        0.4729089240
 C          2.5744297969       -0.0404190932       -0.4150758235
 C          0.8002110937        1.0206693662        0.7859708659
 C          0.2684869433        0.3356935527       -0.5108805073
 C          2.9301256150       -1.2900052289        0.4151815224
 H          2.9136803868        1.1782178288        1.3805674175
 H          3.3643478084        0.1498553348       -1.1482128040
 H          0.6458777823        0.3417040229        1.6321888792
 H         -0.2306099281        1.0727671108       -1.1543396260
 H          2.2531692087       -1.3835454691        1.2673161094
 H          3.9532216856       -1.1724490154        0.7926421260
 H          2.2435846497        2.3725819059       -1.0772178604
 H          0.6959116604        2.9493673011        0.7160544128
 H          3.3745834095       -2.4722912720       -1.0811176009
  29
        -55.69191627
 O         -4.0024026492        0.7558412887        0.2389518268
 O         -2.2916378247        1.7370692693       -0.7982901038
 N         -0.7173753117       -0.6766720841       -0.1881849367
 N         -2.6475672496       -1.6024639140        0.3929202028
 C         -2.0576260683       -0.4810388660        0.0142489457
 C         -0.4713888552       -1.9807040302        0.0870129971
 C         -1.6800953692       -2.5351397329        0.4342995823
 C         -2.7650085161        0.7728906141       -0.2190038331
 H          0.5032655981       -2.4121438466       -0.0135569838
 H         -1.9018755029       -3.5457370554        0.7086022496
 H         -4.4723503429        1.5944789822        0.0567901529
 O          1.3633305534       -0.2471695067       -1.1589087363
 O          2.4460509741        2.4052401695       -0.1961263450
 O          0.1758289825        2.1627326168        1.1691417241
 O          2.8097757629       -2.4727043948       -0.3451523822
 C          2.3197895944        1.1751128931        0.4661199511
 C          2.5836671907       -0.0305278169       -0.4463938165
 C          0.8232169841        0.9935661651        0.8035059512
 C          0.2755941751        0.3278255803       -0.4939726218
 C          3.0084921654       -1.2758846835        0.3596307632
 H          2.9356869910        1.1432585424        1.3703593450
 H          3.3301811317        0.1909785491       -1.2154223492
 H          0.7009538762        0.2943962692        1.6377336608
 H         -0.2004616971        1.0823589142       -1.1342984615
 H          2.4015763587       -1.3654527112        1.2637000702
 H          4.0597593844       -1.1612736357        0.6529359313
 H          3.3771175739        2.6544625540       -0.2761114565
 H          0.5124238108        2.8874838975        0.6138178442
 H          3.2936214226       -2.4452313952       -1.1825986857
  29
        -55.69182848
 O         -2.5527242882       -1.1507254365        2.0734840974
 O         -0.5746784987       -0.1686570694        1.7829164283
 N         -1.1140929931       -0.3082439624       -1.1325238494
 N         -3.1684214171       -0.9025245461       -0.5396941838
 C         -1.9576278456       -0.6183769696       -0.0958477175
 C         -1.8535415366       -0.4143211143       -2.2656505595
 C         -3.1195610533       -0.7742656339       -1.8771771182
 C         -1.6098301942       -0.6219562149        1.3217347196
 H         -1.4389049388       -0.2252165094       -3.2334055839
 H         -3.9870108740       -0.9478222613       -2.4795619417
 H         -2.3337211022       -1.1231297308        3.0272653053
 O          1.0083786853       -0.8913476270       -0.3615281751
 O          2.9589471085        2.0503811902       -0.3632337320
 O          0.6374308370        2.3455454732       -1.5911911860
 O          2.1975775928       -0.5552712760        2.4337784375
 C          1.9614813265        1.2313133122        0.1646533262
 C          2.2473178637       -0.2795402280       -0.0107535666
 C          0.5836051965        1.4358148678       -0.5311257666
 C          0.2773601634        0.0384386618       -1.1144993436
 C          2.8112342900       -0.9612246705        1.2387331604
 H          1.8990519277        1.4690183508        1.2292187925
 H          2.9566982215       -0.4177183775       -0.8407807066
 H         -0.1831081267        1.7102199333        0.2012738100
 H          0.6206055540        0.0404159017       -2.1636531719
 H          3.8667227914       -0.7015221638        1.3407791785
 H          2.7127900196       -2.0461735820        1.1002365146
 H          2.9115514036        2.0349685813       -1.3336016586
 H          0.7798932276        3.2400674514       -1.2460388060
 H          1.2326840255       -0.5916867407        2.3249710278
  29
        -55.69182467
 O         -4.1778511384        0.4628724140       -0.5965916012
 O         -2.3983595227        1.8045888153       -0.5644758921
 N         -0.7824879649       -0.5816184797        0.0711164284
 N         -2.7183358489       -1.6439165961        0.2895822525
 C         -2.1477923253       -0.4958387914       -0.0308027292
 C         -0.5066393981       -1.8533815330        0.4547666185
 C         -1.7161391865       -2.4894467441        0.5890590541
 C         -2.8921604439        0.6966848457       -0.4196357994
 H          0.5004232869       -2.1920037335        0.5852561174
 H         -1.9189639638       -3.4979519072        0.8848284548
 H         -4.6703492517        1.2708024319       -0.8468222769
 O          1.0502802740       -0.0964405751       -1.2633080208
 O          2.6527955475        2.3150090449       -0.1341640279
 O          0.7554345332        1.8964840433        1.6597694178
 O          2.7238544076       -1.8358340438        0.5155429896
 C          2.4928074238        0.9871005312        0.2814281511
 C          2.4325626602        0.0698806405       -0.9441706851
 C          1.1304008495        0.7488322320        0.9595130460
 C          0.2173980009        0.4085980467       -0.2468245412
 C          3.1214170719       -1.2804212358       -0.7214318674
 H          3.3138664090        0.7009171970        0.9513627877
 H          2.9011399345        0.5688999522       -1.7987702389
 H          1.2070952573       -0.1276448709        1.6129002622
 H         -0.2987910333        1.3139406869       -0.5942709916
 H          4.2029746516       -1.1114852302       -0.7397688377
 H          2.8388363280       -1.9420961325       -1.5487993587
 H          2.2543786382        2.8927804544        0.5374941709
 H          0.0172348362        1.7154849573        2.2553176538
 H          3.2757255707       -2.6090984205        0.7026103554
  29
        -55.69161307
 O         -2.5873475837       -0.8948085825        2.1454112241
 O         -0.7724275437        0.3224679121        1.7086046539
 N         -1.2092080403       -0.4158134675       -1.1476554511
 N         -3.2598121159       -0.9379980115       -0.4830937279
 C         -2.0565817309       -0.5746514962       -0.0816813932
 C         -1.9359113134       -0.7101414416       -2.2567908051
 C         -3.2007365629       -1.0179150400       -1.8258556362
 C         -1.7209974474       -0.3380899248        1.3230422059
 H         -1.5116892276       -0.6745551954       -3.2380750627
 H         -4.0626992924       -1.2899484189       -2.3989698984
 H         -2.3886955212       -0.7047914190        3.0848448840
 O          0.8617629545       -0.9581805147       -0.2589034313
 O          2.7832706121        2.0297021352       -0.0433986868
 O          0.8896532852        2.0471846555       -1.9148295300
 O          3.7351592685       -0.4998040602        1.9303681030
 C          1.6985789148        1.2048071600        0.2502543520
 C          2.0336270725       -0.3034184164        0.1988773739
 C          0.5211038825        1.3544568324       -0.7553308823
 C          0.1915140161       -0.1025427144       -1.1510966557
 C          2.4420637960       -0.8900064710        1.5520302166
 H          1.3562222377        1.4754305074        1.2513004209
 H          2.8512879707       -0.4666828889       -0.5218869212
 H         -0.3446883199        1.8140737379       -0.2689406976
 H          0.5576413944       -0.2543544558       -2.1804106413
 H          2.4579854162       -1.9789822290        1.4736459193
 H          1.6947064959       -0.6010263883        2.3017649005
 H          2.9931633810        1.9593658431       -0.9897240796
 H          0.9376917071        2.9966477114       -1.7264511930
 H          3.7808553238        0.4665276016        1.9783125580
  29
        -55.69160171
 O         -4.1397031889        0.8740103571        0.0821260343
 O         -2.3062491811        1.8292690272       -0.7467739476
 N         -0.8973372925       -0.6972111261       -0.1780559149
 N         -2.8956394675       -1.5274068387        0.3092873453
 C         -2.2342123512       -0.4354078494       -0.0322309166
 C         -0.7331328579       -2.0146922217        0.0956244268
 C         -1.9812438580       -2.5098467353        0.3851181977
 C         -2.8687120929        0.8592224089       -0.2643541388
 H          0.2230373446       -2.4889166185        0.0355680731
 H         -2.2672463644       -3.5088886316        0.6414399458
 H         -4.5605733262        1.7401662742       -0.0926733759
 O          1.1453292995       -0.3360552275       -1.2611507486
 O          2.5082438550        2.2038556536       -0.1025182064
 O          0.3060809185        1.8689662052        1.4107941994
 O          4.3049183552       -1.3147839832        0.2607999731
 C          2.3171803128        0.9022279476        0.3805555881
 C          2.4450795279       -0.1882812984       -0.6840353571
 C          0.8585131316        0.7206200593        0.8603865766
 C          0.1569522906        0.2485241187       -0.4466861888
 C          2.9600993970       -1.5106442257       -0.1001169862
 H          3.0426408542        0.7691744557        1.1844385068
 H          3.1306217408        0.1154567086       -1.4817837623
 H          0.7861516071       -0.0752950383        1.6100042575
 H         -0.3050222217        1.1033873682       -0.9587509666
 H          2.8596366635       -2.2843455820       -0.8710664778
 H          2.3601452295       -1.7904027428        0.7760975456
 H          2.1054808536        2.3010942965       -0.9779905304
 H          0.8138913075        2.6368981329        1.0868758889
 H          4.6831203031       -2.1495657146        0.5717510740
  29
        -55.69144044
 O         -2.5867006679       -0.8848317613        2.1412427088
 O         -0.7717826754        0.3304243972        1.7026273309
 N         -1.2040480871       -0.4310702795       -1.1532316127
 N         -3.2555687520       -0.9451009502       -0.4838653186
 C         -2.0513446613       -0.5786036936       -0.0860583965
 C         -1.9316731272       -0.7324245344       -2.2592214409
 C         -3.1968863033       -1.0358731142       -1.8254954542
 C         -1.7187954974       -0.3327193368        1.3171537272
 H         -1.5087965634       -0.7046243807       -3.2413297471
 H         -4.0589427963       -1.3118815999       -2.3965975176
 H         -2.3904590730       -0.6883280607        3.0798862508
 O          0.8711803692       -0.9479648982       -0.2573548754
 O          2.7923851484        1.9771070455       -0.1178993060
 O          0.8716448969        2.1195300091       -1.8900616464
 O          3.7353380388       -0.5672779595        1.9357469407
 C          1.6704543585        1.2273261861        0.2551163787
 C          2.0227753722       -0.2720089677        0.2178428901
 C          0.5142797228        1.3627925319       -0.7759310623
 C          0.1950311085       -0.1095311935       -1.1615437190
 C          2.4147805692       -0.8667523058        1.5732024285
 H          1.3042370750        1.4970090526        1.2492317029
 H          2.8574226023       -0.4106882597       -0.4881600470
 H         -0.3676761207        1.8240731895       -0.3235169994
 H          0.5579290503       -0.2790853352       -2.1887811477
 H          2.3556332300       -1.9543543877        1.4966956949
 H          1.6975976672       -0.5289153210        2.3318203302
 H          2.6587684709        2.9091765895        0.1108104233
 H          1.8467315715        2.1452036199       -1.9416299065
 H          3.8509471229        0.3924006768        1.9864415486
  29
        -55.69135255
 O         -4.3877430206        0.5435133954       -0.5756935443
 O         -2.5218209162        1.6153049759       -1.1517871563
 N         -1.0273634882       -0.5801078622        0.1431201446
 N         -3.0098935414       -1.4821272655        0.5566704547
 C         -2.3857433976       -0.4480716360        0.0229145860
 C         -0.8134612664       -1.7581770535        0.7820020404
 C         -2.0505181026       -2.3001364594        1.0253917921
 C         -3.0766257224        0.6677803780       -0.6194371803
 H          0.1724180050       -2.1138973019        0.9931448574
 H         -2.3020535260       -3.2218483586        1.5077831721
 H         -4.8455684477        1.2887293081       -1.0153332481
 O          0.9355813995       -0.4074348850       -1.0633822543
 O          3.1629527098        1.2425070663        1.1924239363
 O          0.8029944169        2.3240671138        0.8008801920
 O          4.4924451285       -0.7435596154       -0.5430636417
 C          2.1995424955        0.3215963201        0.7793041959
 C          2.2535590695       -0.0174089604       -0.7204661065
 C          0.7897458932        0.9329614001        0.9190578080
 C          0.0127369165        0.3203863376       -0.2770789089
 C          3.2357539662       -1.1401364892       -1.0414297408
 H          2.2633877993       -0.6036153223        1.3699488004
 H          2.5345317499        0.8924783129       -1.2715633449
 H          0.3154748025        0.6458872757        1.8686891344
 H         -0.4449322099        1.1320278437       -0.8571165714
 H          3.2582209177       -1.2959085131       -2.1248099447
 H          2.8897686190       -2.0623316487       -0.5574369442
 H          4.0365258424        0.9130529421        0.9271564101
 H          1.6644985736        2.6423710577        1.1269855864
 H          5.1589237490       -1.4029737619       -0.7819043692
  29
        -55.69126949
 O         -4.3792972974        0.6328158920       -0.2529096075
 O         -2.5618032431        1.6806251991       -1.0039043709
 N         -0.9931140820       -0.6096698161       -0.0110283872
 N         -2.9397813211       -1.5131712444        0.5481960314
 C         -2.3533278920       -0.4496879117        0.0286373833
 C         -0.7376831972       -1.8334670155        0.5149511527
 C         -1.9535259700       -2.3767255381        0.8482514841
 C         -3.0800924260        0.7207789798       -0.4571593639
 H          0.2566144292       -2.2189208951        0.5881131630
 H         -2.1707888291       -3.3297199648        1.2842097286
 H         -4.8610632608        1.4165129421       -0.5876168295
 O          0.9983993623       -0.3739338118       -1.1715084900
 O          3.0462393997        1.2370778883        1.2801981888
 O          0.8104733659        2.3976942954        0.4781352216
 O          4.4571297303       -0.8703361449       -0.2449821672
 C          2.0893209505        0.3482485470        0.7891949941
 C          2.2900804021       -0.0450918089       -0.6837560958
 C          0.7085531003        1.0309954952        0.7436222876
 C          0.0120717200        0.3284709394       -0.4484476722
 C          3.2406228475       -1.2264093358       -0.8596262671
 H          2.0353370901       -0.5550689688        1.4139230557
 H          2.6826141540        0.8283037033       -1.2251518114
 H          0.1397260707        0.8684151700        1.6707667036
 H         -0.4722506090        1.0845548794       -1.0788836175
 H          3.3668316106       -1.4261904636       -1.9285357104
 H          2.8022090841       -2.1127402363       -0.3829070358
 H          3.9262206478        0.8568612340        1.1283024271
 H          1.6211614233        2.7245389800        0.9083744657
 H          5.1142122308       -1.5633656060       -0.3997133784
  29
        -55.69126147
 O         -2.5378545438       -0.7766790782        2.1707416402
 O         -0.7724693840        0.4941903122        1.6884347912
 N         -1.0953312599       -0.4822412930       -1.1180579007
 N         -3.1269626767       -1.0734629890       -0.4520447039
 C         -1.9563731326       -0.6060577599       -0.0590558957
 C         -1.7776366116       -0.9057112730       -2.2126806706
 C         -3.0317872640       -1.2558979552       -1.7820255329
 C         -1.6742824266       -0.2427216754        1.3294875398
 H         -1.3344796483       -0.9208127405       -3.1861035817
 H         -3.8629087816       -1.6246422064       -2.3466367848
 H         -2.3801880913       -0.4991011741        3.0960526745
 O          0.9933683223       -0.7934782249       -0.1604065534
 O          2.7078105069        2.2579610277       -0.2112758412
 O          0.8203874465        2.1410622134       -2.0017863482
 O          2.9670775837       -1.7424460883        1.7877520730
 C          1.6356404509        1.4629046171        0.2108761221
 C          2.0864169241       -0.0081485731        0.2866500352
 C          0.4891170358        1.4464522684       -0.8401605288
 C          0.2788461710       -0.0669147532       -1.1270987900
 C          2.4850276649       -0.4288944652        1.7014839944
 H          1.2415313466        1.7722117386        1.1802113618
 H          2.9343796623       -0.1402801870       -0.4045144444
 H         -0.4298308338        1.8743997694       -0.4289675100
 H          0.6710235709       -0.2771754764       -2.1363002050
 H          1.5958765586       -0.3894824488        2.3337676204
 H          3.2295552283        0.2871977477        2.0725640773
 H          2.6045407125        3.1641825039        0.1140944815
 H          1.7805652671        2.3280763991       -1.9718884069
 H          3.7579403408       -1.8364215594        1.2368189883
  29
        -55.69125127
 O         -4.2876084089        0.4135496342       -0.0969178879
 O         -2.6060355149        1.6448652387       -0.8856229326
 N         -0.7992437987       -0.5408900168       -0.0794243163
 N         -2.6285942076       -1.6224397392        0.5575404483
 C         -2.1638292935       -0.4960953416        0.0443186837
 C         -0.4110938790       -1.7542014208        0.3835861103
 C         -1.5576776656       -2.4072348385        0.7669966962
 C         -3.0103283141        0.6211937037       -0.3566756369
 H          0.6155394016       -2.0580304463        0.3846487849
 H         -1.6687419518       -3.3886162259        1.1794879042
 H         -4.8469611121        1.1647939195       -0.3807310977
 O          1.1300064741       -0.0793058374       -1.2968895534
 O          3.0373726703        1.5210973094        1.2577910152
 O          0.8427239117        2.6145655021        0.2900222644
 O          2.8310628296       -2.0854917824        0.0999456248
 C          2.1210629315        0.5914904909        0.7548841436
 C          2.4040558520        0.1501219733       -0.6949631547
 C          0.7392677628        1.2626595657        0.6250738685
 C          0.0945455213        0.4971664793       -0.5485245284
 C          3.2647177344       -1.1077329523       -0.8213070731
 H          2.0391768508       -0.2906253022        1.3985587955
 H          2.8957078718        0.9752837283       -1.2294930566
 H          0.1398657086        1.1440501609        1.5398760814
 H         -0.4835176075        1.1910064561       -1.1704939028
 H          4.3093141015       -0.8356421850       -0.6303656479
 H          3.1650033832       -1.4691458526       -1.8503201892
 H          3.8298906420        1.0730181810        1.5821567090
 H          1.6095586279        2.9827423397        0.7636015375
 H          3.3448299267       -2.8947364405       -0.0320520065
  29
        -55.69122257
 O         -2.5692425595       -1.3198015337        1.9769441514
 O         -0.9007925181        0.1497858916        1.8427685321
 N         -1.1364498896       -0.2462037405       -1.1323214872
 N         -3.2210091468       -0.8104382770       -0.6250897490
 C         -2.0247091160       -0.5498143956       -0.1341141291
 C         -1.8316635738       -0.3398168848       -2.2972163934
 C         -3.1171962688       -0.6742556536       -1.9615344823
 C         -1.7526933368       -0.5361789263        1.3052804527
 H         -1.3717959073       -0.1619334226       -3.2464014377
 H         -3.9662139849       -0.8238442794       -2.5957207685
 H         -2.4277971164       -1.2698381616        2.9445021189
 O          0.9029794763       -0.9673916919       -0.2662636237
 O          3.0216633130        1.3467385564       -1.0656807121
 O          0.5878149005        2.3700820050       -1.4357855650
 O          3.2920319668       -0.2243853104        2.4168743835
 C          2.1208622428        1.0813245581       -0.0223809731
 C          2.1035580401       -0.4240663019        0.2902856594
 C          0.6664107413        1.3716114029       -0.4594451891
 C          0.2747287921        0.0066260977       -1.0613598346
 C          2.1387735864       -0.7232462946        1.7952599009
 H          2.4071826013        1.6517564868        0.8702731565
 H          2.9607136416       -0.8924418698       -0.2126278073
 H          0.0420648506        1.5717257188        0.4135600222
 H          0.6588494578       -0.0300422850       -2.0945534266
 H          2.0373267365       -1.8058637120        1.9352723185
 H          1.2892577282       -0.2300184863        2.2724860698
 H          2.6205797724        2.0190307871       -1.6462725756
 H          0.3718605447        3.2227129169       -1.0328070839
 H          4.0722862528       -0.6889050718        2.0806761939
  29
        -55.69120284
 O         -4.1683082234        0.7547161967       -0.0191205662
 O         -2.2470045379        1.8791837774       -0.1039166027
 N         -0.8763014851       -0.7083892543       -0.2480720181
 N         -2.8449969168       -1.6153823972        0.2417852288
 C         -2.2121350987       -0.4854351502       -0.0227108204
 C         -0.6894011469       -2.0432337029       -0.1191319293
 C         -1.9170277341       -2.5833428212        0.1858092113
 C         -2.8581338848        0.8178164954       -0.0541665311
 H          0.2650185526       -2.4975657461       -0.2742620102
 H         -2.1742453751       -3.6062034858        0.3674766212
 H         -4.5900233961        1.6387117314       -0.0203069489
 O          1.2045988939       -0.3749058198       -1.2432876716
 O          2.7255926317        2.1194167765       -0.1325613757
 O          0.3217592373        2.3065009081        0.8120651062
 O          4.2197923887       -1.6020070499        0.4322409125
 C          2.2469946346        0.9363075746        0.4390167052
 C          2.4377716545       -0.2314481552       -0.5370057043
 C          0.7161060936        0.9778763826        0.6633670509
 C          0.1471594176        0.2646735992       -0.5914269814
 C          2.8470759129       -1.5466781399        0.1506030023
 H          2.7651845294        0.7556126776        1.3913695388
 H          3.1998913281        0.0275601965       -1.2798692819
 H          0.4489292210        0.3910471608        1.5560451583
 H         -0.3073813069        1.0002424536       -1.2706980866
 H          2.6595069914       -2.3690593348       -0.5437157731
 H          2.2527685854       -1.6988796805        1.0623549736
 H          2.1442882860        2.8468474180        0.1521767282
 H         -0.6241294267        2.4016565003        0.5924123596
 H          4.4695684849       -0.8858264832        1.0327677099
  29
        -55.69114866
 O         -4.2136994121        0.4581207707       -0.8443093631
 O         -2.2782567960        1.4406542737       -1.3465328768
 N         -0.9615717711       -0.6026389320        0.3264042726
 N         -2.9890466026       -1.4407318855        0.6407413210
 C         -2.2996822632       -0.4761406895        0.0594745194
 C         -0.8283154201       -1.7057290622        1.1062042773
 C         -2.0926649863       -2.2087333724        1.2858977856
 C         -2.9027690903        0.5649527674       -0.7696426787
 H          0.1282895914       -2.0432704223        1.4451313907
 H         -2.4046343271       -3.0703227459        1.8389482471
 H         -4.6118650239        1.1522641443       -1.4079788690
 O          1.1085440695       -0.5858470629       -0.6836486858
 O          3.1408459167        1.7698463967        1.0693882685
 O          0.5322381194        2.3379819652        0.9851706083
 O          3.6327063421       -1.3964662141       -2.0249601882
 C          2.3223594533        0.6571849158        0.9072708602
 C          2.3736785934        0.0361341004       -0.5040058697
 C          0.8065516379        0.9709241747        1.0957910009
 C          0.1295045868        0.2327183056       -0.0870033129
 C          3.4799131122       -1.0014795499       -0.6869680500
 H          2.6549730932       -0.0744076640        1.6482442115
 H          2.4969157028        0.8353300518       -1.2507760030
 H          0.4340992054        0.5722950067        2.0467614985
 H         -0.2518040714        0.9830144160       -0.7941828912
 H          3.2649000671       -1.8663456175       -0.0468764927
 H          4.4305831007       -0.5556724624       -0.3877297853
 H          2.8254813093        2.4866095035        0.4943880101
 H          0.8368706094        2.7956828275        1.7841167269
 H          2.8008110614       -1.7825514478       -2.3341556179
  29
        -55.69113216
 O         -3.9774078837        0.5813735000        0.4585719666
 O         -2.2388314322        1.8075395337       -0.2019204623
 N         -0.6843174586       -0.6833848359       -0.3464336209
 N         -2.5471465342       -1.7101578235        0.2983739625
 C         -1.9954145503       -0.5360737199        0.0362880135
 C         -0.4318770067       -2.0129386632       -0.3326133955
 C         -1.5942359527       -2.6271757806        0.0749688225
 C         -2.7235851530        0.7196975512        0.0859255701
 H          0.5168673754       -2.4123081637       -0.6275421746
 H         -1.7887216054       -3.6705567627        0.2133136641
 H         -4.4603445696        1.4329091237        0.4725203689
 O          1.4523504600       -0.2389389793       -1.1771371092
 O          2.8457132484        2.2505135030       -0.0187579089
 O          0.3207784681        2.6321322079        0.2256244209
 O          2.7464198059       -2.5020065861       -0.0202378914
 C          2.1783011799        1.1712709240        0.5672118432
 C          2.4845202798       -0.1220142836       -0.2020469970
 C          0.6373510355        1.2953688280        0.4540740763
 C          0.2727145270        0.3488767290       -0.7282271284
 C          2.5792361767       -1.3294966196        0.7411772401
 H          2.4816534553        1.0883745938        1.6195601789
 H          3.4134099929       -0.0328911098       -0.7705201835
 H          0.1568146684        0.9283396478        1.3726160538
 H         -0.1670051575        0.9258169461       -1.5535443127
 H          1.6673685878       -1.3957394947        1.3526816791
 H          3.4378801983       -1.1573939915        1.3981084750
 H          2.2234858450        2.9972429294       -0.0743603818
 H         -0.6364625318        2.7116034244        0.0605738340
 H          3.0556815469       -3.2195231422        0.5505743320
  29
        -55.69109759
 O         -4.1738561118        0.6627666687       -0.6776302509
 O         -2.2028821967        1.4608625774       -1.3427105322
 N         -0.9520165923       -0.6738287983        0.2664507827
 N         -3.0099949621       -1.4283249757        0.5916811012
 C         -2.2881594183       -0.4678254848        0.0439807439
 C         -0.8541118893       -1.8183601819        0.9892124759
 C         -2.1370173725       -2.2708184026        1.1729007774
 C         -2.8571965955        0.6412283472       -0.7186575118
 H          0.0929629847       -2.2149108209        1.2883171018
 H         -2.4772613813       -3.1462540812        1.6860785337
 H         -4.5497358005        1.3979093613       -1.2033928112
 O          1.1679988420       -0.6661564473       -0.6441230508
 O          2.9978684836        1.9707717087        0.8874886086
 O          0.3591633958        2.2223172037        1.0891236988
 O          3.7026370300       -1.4786911534       -1.9161004459
 C          2.3238543528        0.7535638496        0.8543930403
 C          2.4010749086        0.0290942290       -0.5086373077
 C          0.7894894396        0.8935574534        1.1022795676
 C          0.1596702511        0.1520794783       -0.1036938480
 C          3.5553558464       -0.9661303615       -0.6180404669
 H          2.7823475186        0.1368493227        1.6316146556
 H          2.4874487470        0.7746631122       -1.3131560999
 H          0.4969644967        0.3933447430        2.0340810218
 H         -0.1876291400        0.9004726921       -0.8308293625
 H          3.3965002325       -1.7755630456        0.1055294710
 H          4.4877700131       -0.4486073637       -0.3844721655
 H          2.5490309583        2.6080751540        0.3077963625
 H          0.6916433205        2.6788109679        1.8779736822
 H          2.8831840905       -1.9269359084       -2.1701289153
  29
        -55.69107368
 O         -4.1165180069        0.6722687850       -0.2854103692
 O         -2.2253886241        1.8507574499       -0.2404112487
 N         -0.7835631886       -0.6906191575       -0.0817785446
 N         -2.7565498532       -1.6159605607        0.3523732917
 C         -2.1390787752       -0.4981483387        0.0139496841
 C         -0.5668378991       -1.9950679502        0.2131123035
 C         -1.7974130474       -2.5470780250        0.4789447837
 C         -2.8131631622        0.7765819789       -0.1845427071
 H          0.4087407984       -2.4304930854        0.1972054748
 H         -2.0368430097       -3.5531092469        0.7546052783
 H         -4.5598968272        1.5398080394       -0.3866723189
 O          1.3118966242       -0.3847626612       -1.0431037872
 O          2.6450581415        2.3144504869       -0.1508073786
 O          0.2615856976        2.3641272615        0.8930494674
 O          3.3455254401       -2.3576147009       -0.5451490033
 C          2.2848697581        1.1359175578        0.5100227366
 C          2.5534238881       -0.0633415721       -0.4025581383
 C          0.7603027754        1.0676391854        0.7668501846
 C          0.2298637021        0.2779603127       -0.4553507311
 C          3.0917788898       -1.2924819575        0.3362639565
 H          2.8414697048        1.0514697722        1.4529466552
 H          3.2538649866        0.2239626558       -1.1936774362
 H          0.5602706337        0.4863212095        1.6803968379
 H         -0.2190147124        0.9694106850       -1.1836174547
 H          2.3757181600       -1.5990436610        1.1129359904
 H          4.0438725123       -1.0494988304        0.8107198458
 H          2.0540338228        3.0229433136        0.1607744279
 H         -0.6653397840        2.4038796515        0.5906578584
 H          2.6276013650       -2.4025144365       -1.1941767823
  29
        -55.69106579
 O         -4.0623064789       -0.1855670619       -1.2489904783
 O         -2.6163335037        1.5043175470       -1.1292277437
 N         -0.8690849856       -0.2994099128        0.4384418981
 N         -2.6077418418       -1.6819718638        0.4648644999
 C         -2.1452627629       -0.5387153306       -0.0038104264
 C         -0.5330947545       -1.3683811850        1.2083249409
 C         -1.6216148987       -2.2040081067        1.2166103228
 C         -2.9355101762        0.3626668144       -0.8418902014
 H          0.4158556156       -1.4616003182        1.6920695059
 H         -1.7487456213       -3.1409921445        1.7181697442
 H         -4.6007775163        0.4304416680       -1.7862628481
 O          0.7172612665        0.4700073762       -1.1168577312
 O          3.3940633798        1.4441723778        0.6075833004
 O          1.1330579117        2.5672921366        1.2777177694
 O          3.4416537415       -1.9350134451       -0.5354106298
 C          2.3392731429        0.5235707198        0.6490847390
 C          2.0394358910        0.0547512629       -0.7873971544
 C          1.0133204214        1.1854782309        1.1330980187
 C         -0.0095426385        0.8002635664        0.0389516326
 C          2.1919488857       -1.4672572295       -0.9677898272
 H          2.6014783160       -0.3403561064        1.2708319922
 H          2.7173395435        0.5749605006       -1.4746261355
 H          0.6892047764        0.8151623296        2.1080261251
 H         -0.6603445083        1.6447782167       -0.2122163449
 H          2.0050991645       -1.7122865670       -2.0195442883
 H          1.4463941481       -1.9875579395       -0.3618822039
 H          3.7043508947        1.6363618805        1.5045755461
 H          1.7040533252        2.9207057376        0.5746490402
 H          4.1381891882       -1.6023407212       -1.1193335534
  29
        -55.69100832
 O         -4.1538684008        0.6592461843       -0.4185302380
 O         -2.2675783149        1.7006680844       -0.9824507446
 N         -0.8173248601       -0.6328302788        0.0994386877
 N         -2.8183677360       -1.5162706537        0.4666497167
 C         -2.1736786369       -0.4536583383        0.0186440037
 C         -0.6263327904       -1.8669760969        0.6284815508
 C         -1.8748116221       -2.3973722067        0.8411227997
 C         -2.8418237533        0.7348238108       -0.5038391561
 H          0.3493675745       -2.2728760524        0.7928467132
 H         -2.1417974618       -3.3539857415        1.2400780922
 H         -4.5957795935        1.4563189306       -0.7754979851
 O          1.2087089414       -0.3285388652       -1.0133530207
 O          2.4992767236        2.3980352268        0.0051912298
 O          0.3417767986        1.9933900674        1.5596270834
 O          3.4167828368       -2.2091181590       -1.0536388070
 C          2.3710187421        1.0945460008        0.5027601688
 C          2.5306421481        0.0008611988       -0.5572924188
 C          0.9378177269        0.8559268740        1.0318600531
 C          0.2231099600        0.3043868902       -0.2314905576
 C          3.2272847735       -1.2631640704       -0.0343836118
 H          3.1124082921        1.0091172196        1.2986579532
 H          3.0899468810        0.3666738581       -1.4260009728
 H          0.9340209748        0.0830271716        1.8087738988
 H         -0.2497457516        1.1226202999       -0.7912103737
 H          2.6422330288       -1.6933312348        0.7901643988
 H          4.2229732316       -1.0085749695        0.3321359581
 H          2.0482066601        2.4851940555       -0.8477272693
 H          0.8178476478        2.7753060675        1.2212860630
 H          2.5740036151       -2.3534756137       -1.5087117891
  29
        -55.69089541
 O         -4.2849915124        0.7302652177        0.1181709594
 O         -2.5160034526        1.7579460713       -0.7696106395
 N         -0.9624803799       -0.6587085377       -0.1848916395
 N         -2.8610447838       -1.5446297849        0.5456262842
 C         -2.2974805899       -0.4569493395        0.0504173784
 C         -0.6975985916       -1.9338746707        0.1898739222
 C         -1.8850663998       -2.4646470941        0.6321706968
 C         -3.0168431218        0.7790782509       -0.2410093816
 H          0.2772527144       -2.3602192266        0.0871061285
 H         -2.0864398162       -3.4472253105        1.0055894708
 H         -4.7614645800        1.5587505247       -0.0929051209
 O          1.0791594373       -0.3823294325       -1.2618521788
 O          2.8238276978        1.2710414406        1.3958169441
 O          0.8181607244        2.4421294058        0.0554960197
 O          4.4666218594       -0.9986764341       -0.0113780079
 C          1.9067248445        0.4009230358        0.8056126675
 C          2.3045060561       -0.0860719478       -0.5983912090
 C          0.5904490408        1.1399466761        0.5024831579
 C          0.0107837713        0.3021496670       -0.6589731274
 C          3.2194249239       -1.3154375379       -0.5780615754
 H          1.6982466540       -0.4609801567        1.4557035173
 H          2.8027747129        0.7428556938       -1.1237648604
 H         -0.0952384999        1.1406628200        1.3618868720
 H         -0.4788739528        0.9679859843       -1.3801944857
 H          3.3126167724       -1.7103003515       -1.5934914537
 H          2.7810747638       -2.0898997716        0.0570242853
 H          3.6613211850        0.8014044396        1.5310547365
 H          1.5017667618        2.8389469054        0.6229123594
 H          5.0264147800       -0.5654931045       -0.6707903808
  29
        -55.69084607
 O         -4.3889871103        0.5425147057       -0.5678131731
 O         -2.5226142912        1.6071982128       -1.1557613539
 N         -1.0283625605       -0.5831472538        0.1472404384
 N         -3.0113681818       -1.4780117268        0.5743878912
 C         -2.3870502666       -0.4484086029        0.0322014966
 C         -0.8144629502       -1.7582106489        0.7915392082
 C         -2.0519519136       -2.2956842121        1.0433023858
 C         -3.0778048320        0.6643563560       -0.6153822069
 H          0.1712323924       -2.1171756068        0.9979485995
 H         -2.3032195065       -3.2141975111        1.5318634101
 H         -4.8467526268        1.2849361384       -1.0122184561
 O          0.9466775343       -0.4215341463       -1.0434813060
 O          3.1376521168        1.2419426095        1.2440225432
 O          0.8019654396        2.3444157662        0.7342451501
 O          4.5631242457       -0.7877151716       -0.6888951701
 C          2.1755999463        0.3272463180        0.8134574012
 C          2.2617858432       -0.0332941989       -0.6810060085
 C          0.7707701905        0.9589510219        0.9063475322
 C          0.0105747644        0.3148733555       -0.2824248119
 C          3.2424325470       -1.1714285812       -0.9796781961
 H          2.2060507395       -0.5914653774        1.4155204733
 H          2.5476757800        0.8723280621       -1.2389987683
 H          0.2764659584        0.7104030949        1.8566706343
 H         -0.4471819428        1.1103612814       -0.8844786519
 H          3.1196633591       -1.4840036827       -2.0200809259
 H          3.0139789643       -2.0240327235       -0.3350772331
 H          4.0163004942        0.8416094693        1.1588641813
 H          1.6294097872        2.6769246045        1.1255779238
 H          4.9223944212       -0.2684726973       -1.4218140246
  29
        -55.69079193
 O         -4.3144463843        0.4277036168       -0.4341502582
 O         -2.5100885096        1.5523771940       -1.1034925785
 N         -0.8833565241       -0.5672012470        0.1214916827
 N         -2.8034126035       -1.5066598506        0.7159479804
 C         -2.2519349814       -0.4771039083        0.0999973555
 C         -0.5878455706       -1.7115427580        0.7863348381
 C         -1.7878100795       -2.2777593401        1.1409081699
 C         -3.0127849735        0.5966310618       -0.5327054700
 H          0.4190800426       -2.0374609678        0.9369479235
 H         -1.9726397215       -3.1867541521        1.6747360302
 H         -4.8179392932        1.1480067811       -0.8653893097
 O          1.1355860691       -0.3172648591       -1.0204938263
 O          3.0084355734        1.4731044480        1.4585098915
 O          0.8397903550        2.5983991501        0.3390437158
 O          3.7125391020       -1.6649560865       -1.6040169151
 C          2.0487215786        0.5894067298        0.9747250167
 C          2.3896544805       -0.0043712202       -0.4056657063
 C          0.6788097789        1.2601798467        0.7056637236
 C          0.0770949394        0.3765226273       -0.4091525061
 C          3.2645863033       -1.2561012132       -0.3388854018
 H          1.9402819026       -0.2184355207        1.7070920667
 H          2.9112535473        0.7458868266       -1.0169168581
 H          0.0427483217        1.2694015086        1.5935849035
 H         -0.4518828049        0.9883723139       -1.1508884443
 H          2.7111477801       -2.0648715587        0.1560651725
 H          4.1570793384       -1.0230166992        0.2455739176
 H          2.7169377060        2.3835222594        1.2655606295
 H          1.1671327763        2.6718340729       -0.5700242400
 H          2.9442089669       -1.8457999240       -2.1646442910
  29
        -55.69078743
 O         -4.2844577912        0.5549684194       -0.2253368525
 O         -2.4783850467        1.6079180123       -1.0013571673
 N         -0.8741075377       -0.6166973419        0.0268348622
 N         -2.7865472381       -1.5156176363        0.7042809646
 C         -2.2365488225       -0.4764333466        0.1027249182
 C         -0.5799079140       -1.8009623309        0.6163238656
 C         -1.7756857876       -2.3421275036        1.0222549615
 C         -2.9871057958        0.6584710505       -0.4258111731
 H          0.4214063212       -2.1691793809        0.6828269688
 H         -1.9592944752       -3.2706440694        1.5218998502
 H         -4.7791230120        1.3206147200       -0.5820953482
 O          1.1791980002       -0.3529920565       -1.0552476963
 O          2.8870544300        1.5056520258        1.4952052998
 O          0.8058824709        2.5886574066        0.1653994369
 O          3.8012944164       -1.6915759354       -1.4460552016
 C          1.9627892175        0.6101438569        0.9674912395
 C          2.3930771220       -0.0154213953       -0.3732851435
 C          0.6151251137        1.2715798293        0.5888036450
 C          0.0801127086        0.3305968955       -0.5123672442
 C          3.2755786115       -1.2541075197       -0.2211198397
 H          1.8033606452       -0.1806507884        1.7090245267
 H          2.9443555164        0.7233133590       -0.9721946441
 H         -0.0721346769        1.3265384946        1.4358737631
 H         -0.4363776416        0.8986741193       -1.2965766931
 H          2.7056654240       -2.0566684525        0.2651773585
 H          4.1295858641       -0.9930732373        0.4074862456
 H          2.6308741960        2.4080531890        1.2293163704
 H          1.1778564583        2.6148425607       -0.7289271106
 H          3.0696486708       -1.8930328806       -2.0473205089
  29
        -55.69076608
 O         -2.2656547659        1.8128461629       -0.5219519569
 O         -4.1741017247        0.6875854604       -0.3435885100
 N         -0.7931957959       -0.6194696564       -0.0679846456
 N         -2.7305199864       -1.6448572662        0.2708125966
 C         -2.1593488961       -0.4959334173       -0.0539123112
 C         -0.5213566455       -1.9046045540        0.2660588818
 C         -1.7308070536       -2.5209694199        0.4683816401
 C         -2.9587601716        0.6948894668       -0.3162733375
 H          0.4849849436       -2.2626072027        0.3299571506
 H         -1.9361960553       -3.5345503269        0.7445619479
 H         -2.8606974006        2.5756164701       -0.6725528336
 O          1.1358236272       -0.1957244989       -1.2927849189
 O          2.4724200493        2.3459259454       -0.0921888027
 O          0.5281692278        1.7875986273        1.6176898385
 O          2.7358834521       -1.8129157563        0.6444977757
 C          2.4470026842        0.9962145537        0.2965253244
 C          2.4913270371        0.0302029462       -0.8986683899
 C          1.0552445885        0.7245237742        0.8991326818
 C          0.2320187949        0.3486241993       -0.3622371206
 C          3.2060513550       -1.2880587961       -0.5794085779
 H          3.2356651022        0.7719991251        1.0195999027
 H          2.9908608700        0.4929755582       -1.7571350320
 H          1.0991617891       -0.1408915709        1.5669719805
 H         -0.2426677254        1.2436775423       -0.7805780847
 H          4.2820672414       -1.0880862261       -0.5259618551
 H          3.0055609880       -1.9855058364       -1.4016213905
 H          3.3787488872        2.6323605712       -0.2683633205
 H          0.8226033720        2.6133939472        1.1938886735
 H          3.2773175105       -2.5769363726        0.8886595313
  29
        -55.69075249
 O         -4.1955712723        0.8242034850       -0.0683930415
 O         -2.3431316069        1.8055852597       -0.8205319110
 N         -0.9077791535       -0.6758821233       -0.0995493444
 N         -2.9120588364       -1.5258941933        0.3222806224
 C         -2.2547677689       -0.4351511096       -0.0290277733
 C         -0.7346009790       -1.9807196003        0.2283788750
 C         -1.9856839783       -2.4880353066        0.4783873028
 C         -2.9063313861        0.8350632552       -0.3406172843
 H          0.2306493082       -2.4405268707        0.2319676729
 H         -2.2663490071       -3.4821415798        0.7586315178
 H         -4.6306023864        1.6697556933       -0.3008382692
 O          1.0950735475       -0.3071873104       -1.2391624749
 O          2.6493115191        2.1839770501        0.0555705760
 O          0.3061123283        1.8761836687        1.3949743167
 O          4.3223755352       -1.3826500803        0.1694113120
 C          2.3477341249        0.8690385528        0.4219437609
 C          2.4225977890       -0.1392876308       -0.7372545876
 C          0.8876547287        0.7050886979        0.9098348441
 C          0.1473385946        0.2676543483       -0.3750426700
 C          2.9990784133       -1.4923703112       -0.2794007068
 H          3.0765586990        0.6072725863        1.1933166722
 H          3.0315394371        0.2627244982       -1.5550128154
 H          0.8302186551       -0.1053096067        1.6519806390
 H         -0.3217541979        1.1439560896       -0.8431658406
 H          2.9057313888       -2.2090729171       -1.1038030084
 H          2.4297355991       -1.8640162511        0.5760603603
 H          1.9442769421        2.5510903121       -0.4972922274
 H          0.8358300585        2.2298119260        2.1259286684
 H          4.9027490178       -1.1545156957       -0.5703448627
  29
        -55.69066631
 O         -4.1654152012        0.9101458358       -0.0835071585
 O         -2.2610170154        1.8438297322       -0.7648113891
 N         -0.9352988873       -0.7108760493       -0.1061232641
 N         -2.9702798885       -1.4872117757        0.3059638835
 C         -2.2717862472       -0.4187107610       -0.0345823676
 C         -0.8112420178       -2.0241723551        0.2096112506
 C         -2.0814809841       -2.4855094561        0.4534872394
 C         -2.8701570288        0.8815151038       -0.3271858386
 H          0.1386992634       -2.5155977936        0.2086423744
 H         -2.4007889992       -3.4702867698        0.7251353117
 H         -4.5632144210        1.7778587887       -0.2997949802
 O          1.1131508727       -0.4661160408       -1.1706718109
 O          2.4537237535        2.1876730571       -0.0604669130
 O          0.2839100263        1.7483766366        1.4630686129
 O          4.4737087208       -1.1730452503        0.1408297471
 C          2.3156965666        0.8709230867        0.4040063738
 C          2.4393760645       -0.1388855035       -0.7465913847
 C          0.8873563983        0.6103548812        0.9272124310
 C          0.1601594769        0.1836790392       -0.3682685511
 C          3.1730091927       -1.4225755590       -0.3191102482
 H          3.0829827378        0.6750721264        1.1641798850
 H          2.9555367336        0.3319899116       -1.5911400945
 H          0.8854132830       -0.2310181641        1.6301671580
 H         -0.2435140710        1.0751647355       -0.8686570393
 H          3.1654622051       -2.1249576020       -1.1603744043
 H          2.6441101061       -1.8799845329        0.5209124536
 H          1.7012832630        2.7099291305        0.2701946183
 H          0.5409492969        1.8604843091        2.3907928886
 H          5.0255421259       -0.8476386567       -0.5846860645
  29
        -55.69064712
 O         -4.0372960575        0.7087881497        0.1637891901
 O         -2.2706789219        1.7562496977       -0.7024604997
 N         -0.7205626196       -0.6827953830       -0.1804944417
 N         -2.6493655248       -1.6210349559        0.3871102137
 C         -2.0632898073       -0.4940252499        0.0188531296
 C         -0.4710942283       -1.9883494529        0.0806351454
 C         -1.6786560815       -2.5496276598        0.4233773769
 C         -2.7715707086        0.7600502445       -0.2051018032
 H          0.5040283225       -2.4168798530       -0.0266758993
 H         -1.8961206862       -3.5629825854        0.6908852502
 H         -4.5062082596        1.5497771822       -0.0105419392
 O          1.3617244030       -0.2470071272       -1.1487143370
 O          2.6145156580        2.3573385625       -0.1746746220
 O          0.1638979761        2.2468792239        1.0622014118
 O          2.8185853034       -2.4691046772       -0.3520090220
 C          2.3109960600        1.1645947122        0.4990525847
 C          2.5713769862       -0.0294407269       -0.4220759821
 C          0.7881384884        1.0395980481        0.7771064507
 C          0.2646556444        0.3272568773       -0.5019551042
 C          2.9868718379       -1.2817166076        0.3760500989
 H          2.8889602436        1.0769044160        1.4237444111
 H          3.3288287521        0.2171575581       -1.1723053249
 H          0.6165647925        0.3983397147        1.6472378500
 H         -0.2184016342        1.0539447209       -1.1701406546
 H          2.3542264656       -1.3897859658        1.2606956292
 H          4.0278943157       -1.1604942180        0.7003194383
 H          2.6967117028        3.0822048332        0.4619050146
 H          0.2884780901        2.8569646265        0.3170936522
 H          3.3285827858       -2.4253940582       -1.1729737089
  29
        -55.69064415
 O         -4.2206286495        0.5582873170       -0.7033737048
 O         -2.3054047684        1.5900990901       -1.1812713330
 N         -0.9278333876       -0.6218701890        0.2126931746
 N         -2.9434270000       -1.5016576656        0.4887857880
 C         -2.2738905106       -0.4732199895        0.0016165419
 C         -0.7693363393       -1.8052904712        0.8585521158
 C         -2.0266366861       -2.3323845389        1.0168400149
 C         -2.9071036938        0.6548413399       -0.6779865954
 H          0.1956101872       -2.1718458098        1.1381730775
 H         -2.3198298490       -3.2529289368        1.4774117762
 H         -4.6394789691        1.3107899684       -1.1685270492
 O          1.0716360765       -0.4519462386       -0.9322423031
 O          3.0978832979        1.9229656110        0.7680000332
 O          0.5086061814        2.1233554833        1.3129377163
 O          3.4807469218       -1.8729353484       -0.4388102737
 C          2.4108994308        0.7200405434        0.6234921320
 C          2.3149737907        0.2298570046       -0.8394084850
 C          0.9215258674        0.8084970450        1.0750152156
 C          0.1433209149        0.2598500343       -0.1462879793
 C          3.4456179251       -0.7207764471       -1.2408748624
 H          2.9560191852       -0.0187420883        1.2173891414
 H          2.3118908908        1.0989163210       -1.5136505380
 H          0.7363684113        0.1748333597        1.9505005935
 H         -0.2775316734        1.1107809967       -0.7010880282
 H          4.3976881024       -0.2082636326       -1.0916717923
 H          3.3336615188       -0.9829486278       -2.2986051602
 H          2.5685878732        2.6425189470        0.3859073802
 H          0.9243426720        2.4504368133        2.1259521200
 H          2.6836396571       -2.3913780510       -0.6176207000
  29
        -55.69056894
 O         -2.4030589208        1.7381026193       -0.4525047560
 O         -4.2391371619        0.5365562766       -0.0889140560
 N         -0.7985043282       -0.6148981074       -0.1647921521
 N         -2.6033267928       -1.6903350491        0.5535538438
 C         -2.1517043175       -0.5470956723        0.0631692077
 C         -0.4082044700       -1.8561364328        0.2083572965
 C         -1.5387922345       -2.5031434514        0.6480685154
 C         -3.0277217621        0.5918766173       -0.1634438096
 H          0.6102537785       -2.1768425574        0.1301110747
 H         -1.6399768197       -3.4994313080        1.0257920918
 H         -3.0648074531        2.4445004870       -0.6027320171
 O          1.1827887233       -0.1746860289       -1.3281083038
 O          2.9029160110        1.5057353283        1.3406133792
 O          0.8923112283        2.6150288559       -0.0080557664
 O          2.7825205696       -2.0796784957        0.2056271182
 C          1.9804710116        0.6519960277        0.7475429829
 C          2.3971957231        0.1401905773       -0.6459288172
 C          0.6236024119        1.3161100285        0.4359309545
 C          0.0793663163        0.4111584294       -0.6949844723
 C          3.3325644571       -1.0651151297       -0.6059544623
 H          1.8461651036       -0.1991991046        1.4213507508
 H          2.9009248607        0.9498541457       -1.1926110191
 H         -0.0513470066        1.3141643766        1.2983406378
 H         -0.4842225996        0.9931308383       -1.4341303061
 H          4.2897741929       -0.7184825300       -0.2000565747
 H          3.4713062694       -1.4260509264       -1.6317630367
 H          2.8170683062        2.3821314549        0.9277418491
 H          0.0745109143        3.1249628761       -0.0783303327
 H          3.4182050967       -2.8049270197        0.2797362915
  29
        -55.69054579
 O         -2.5431868291        1.1363272852       -1.1023313178
 O         -1.7360895428       -0.4346828018       -2.4638710684
 N         -0.8692033412       -0.3905743244        0.8551448849
 N         -2.3615823872       -1.9044993864        0.2434357694
 C         -1.7389637767       -0.8012870339       -0.1034819822
 C         -0.9536714591       -1.2982065026        1.8693023320
 C         -1.8834671202       -2.2177390217        1.4755466126
 C         -1.9806008577       -0.0305148234       -1.3483841856
 H         -0.3683240391       -1.2076531675        2.7595350631
 H         -2.2438747313       -3.0825982575        1.9928797516
 H         -2.7145530911        1.6520865178       -1.9168913921
 O          0.1640575172        1.1400293233       -0.5722261534
 O          2.7407729492        2.2233261117        0.5231637127
 O          1.7177601481        0.9093520229        2.5513400820
 O          1.5374919539       -1.5569577028       -0.8596315766
 C          2.3797731074        0.9111712753        0.1798400351
 C          1.4746750113        0.8502689039       -1.0603362888
 C          1.4510268682        0.3825971829        1.2942869751
 C          0.0328765514        0.7383535515        0.7628687145
 C          1.5508448076       -0.4959018925       -1.7916576955
 H          3.2564265837        0.2681427150        0.0660073882
 H          1.6995205509        1.6484121400       -1.7727707340
 H          1.5434979736       -0.7049230035        1.3575564113
 H         -0.3947916180        1.5756583141        1.3345204662
 H          2.4781774538       -0.5128786859       -2.3771568075
 H          0.6924534021       -0.5646184872       -2.4707060273
 H          3.4701134122        2.5304066080       -0.0316765842
 H          2.0652229462        1.8116276698        2.4354547062
 H          1.5955420442       -2.3954494185       -1.3383285769
  29
        -55.69052071
 O         -2.5434453625        1.1544553236       -1.0345806753
 O         -1.7936223847       -0.3790253901       -2.4697277858
 N         -0.8422160627       -0.4204496332        0.8390222620
 N         -2.3138655344       -1.9417523379        0.1945910960
 C         -1.7164217053       -0.8160271396       -0.1228544312
 C         -0.8987465375       -1.3617709148        1.8234190134
 C         -1.8160319214       -2.2855310697        1.4099845021
 C         -1.9974560191       -0.0083328811       -1.3347365989
 H         -0.3095881003       -1.2901312331        2.7126974323
 H         -2.1537729839       -3.1734626841        1.9029150856
 H         -2.7455885507        1.6916778663       -1.8278433801
 O          0.1668168743        1.1627238071       -0.5564460731
 O          2.8223136894        2.2183907247        0.4248757364
 O          1.7151214096        1.0417655443        2.5318577520
 O          1.4745481663       -1.5836379720       -0.7639740537
 C          2.3741512009        0.9157969967        0.1688471708
 C          1.4611621948        0.8176646183       -1.0570399109
 C          1.4541813684        0.4214362617        1.3130402078
 C          0.0291216325        0.7338234080        0.7730027982
 C          1.5032127291       -0.5576097478       -1.7337366119
 H          3.2645952095        0.2945129857        0.0750655927
 H          1.6997084961        1.5740981809       -1.8092347225
 H          1.5643160717       -0.6604355491        1.4300405812
 H         -0.4340614350        1.5486758939        1.3492975312
 H          2.4269133299       -0.6107101886       -2.3217445557
 H          0.6402553877       -0.6354980408       -2.4070273639
 H          2.1099473798        2.8533078979        0.2533350000
 H          2.3061874940        1.8009692628        2.3643886238
 H          1.5695484313       -2.4369494805       -1.2090927661
  29
        -55.69049252
 O         -2.6106086042       -1.2382973511        1.9883391008
 O         -0.8660193155        0.1360018588        1.8352352084
 N         -1.1307435118       -0.2692921797       -1.1402838780
 N         -3.2194658838       -0.8058934539       -0.6193323963
 C         -2.0197862964       -0.5433553856       -0.1345705288
 C         -1.8285688532       -0.3784463010       -2.3008641852
 C         -3.1165768409       -0.6973734761       -1.9572138213
 C         -1.7513859632       -0.5115637892        1.3038017565
 H         -1.3708011842       -0.2227750269       -3.2549398258
 H         -3.9670514079       -0.8535119944       -2.5879381578
 H         -2.4684767888       -1.1755041225        2.9550057812
 O          0.9171436283       -0.9568136910       -0.2658224232
 O          2.9329727180        1.4370836051       -1.1036969456
 O          0.5219506380        2.4249725962       -1.3926351620
 O          3.3803555720       -0.4603042626        2.3891981350
 C          2.0946985428        1.1159443977       -0.0214755126
 C          2.1003407459       -0.3913803574        0.3055532458
 C          0.6484277656        1.3806327025       -0.4871820673
 C          0.2778005964       -0.0030487179       -1.0767207881
 C          2.1274678853       -0.7210057687        1.8070973522
 H          2.3386783272        1.7208738791        0.8561642207
 H          2.9693939960       -0.8650071665       -0.1726515496
 H         -0.0004215469        1.5886574900        0.3670910931
 H          0.6605862590       -0.0593342667       -2.1094273844
 H          1.9508177970       -1.7948540886        1.9063338734
 H          1.3164416815       -0.1877274029        2.3091926990
 H          3.8572605750        1.4675641170       -0.8219407022
 H          1.3463915585        2.4787810264       -1.9100188891
 H          3.4358945843        0.4640286799        2.6664990198
  29
        -55.69041781
 O         -4.3059823079        0.2763713853       -0.6010402969
 O         -2.5532518332        1.5301753178       -1.1648770263
 N         -0.8565920881       -0.4891775558        0.1684559837
 N         -2.7437890466       -1.5747192267        0.5886477932
 C         -2.2203556905       -0.4958586629        0.0355241741
 C         -0.5327203832       -1.6263081562        0.8362386126
 C         -1.7124497938       -2.2827094461        1.0829541170
 C         -3.0140493939        0.5346432912       -0.6299519178
 H          0.4803332486       -1.8799735638        1.0686495917
 H         -1.8754983959       -3.2137745568        1.5849811852
 H         -4.8327221282        0.9673522439       -1.0519813718
 O          1.0343747816       -0.1304835178       -1.1162141423
 O          3.2179732133        1.5331401288        1.1693961311
 O          0.8347957441        2.5275814694        0.7756065433
 O          2.9417885436       -2.0971857556       -0.4397132346
 C          2.2961707759        0.5700046218        0.7491074504
 C          2.3600689457        0.2461544582       -0.7561700376
 C          0.8684182894        1.1369411955        0.9037379955
 C          0.0942383364        0.4991709063       -0.2743210327
 C          3.3026574544       -0.9114684378       -1.1037288748
 H          2.3924560503       -0.3603018495        1.3222735619
 H          2.6530909804        1.1507747273       -1.3069985170
 H          0.4180424413        0.8417478789        1.8627267618
 H         -0.4500440662        1.2820512537       -0.8168556530
 H          4.3143663203       -0.6671858493       -0.7768804192
 H          3.3023252740       -1.0533748946       -2.1889597961
 H          4.0901031505        1.1361811251        1.2938652024
 H          1.6735406419        2.8824740042        1.1203989983
 H          2.1163662063       -2.4202330913       -0.8270321733
  29
        -55.69040967
 O         -3.9958304269       -0.3317982128       -1.2410357671
 O         -2.5045305755        1.3197516590       -1.3445908002
 N         -0.8269555085       -0.2801137640        0.4967735141
 N         -2.5800781648       -1.6352711127        0.6479631248
 C         -2.0972738282       -0.5575129362        0.0596952261
 C         -0.5172102270       -1.2558638462        1.3911104253
 C         -1.6139443472       -2.0763110487        1.4735536053
 C         -2.8584373682        0.2393264289       -0.9020522317
 H          0.4234835286       -1.2992853817        1.8969126471
 H         -1.7601416048       -2.9489464114        2.0758979541
 H         -4.5116981664        0.2119706744       -1.8705840194
 O          0.8984505932        0.2639723771       -0.9961441404
 O          3.4014383407        1.5141540648        0.9310280992
 O          1.0689729396        2.7275893951        1.0548881865
 O          2.6049876913       -1.9389288899       -1.8936398417
 C          2.3241359977        0.6243118229        0.9038280905
 C          2.2213720527        0.0248728064       -0.5093303679
 C          0.9583681926        1.3402500814        1.1259957396
 C          0.0576083210        0.7629708665        0.0102277703
 C          2.5442304130       -1.4733790090       -0.5702813882
 H          2.4610932238       -0.1752830029        1.6427396426
 H          2.9115538408        0.5561753027       -1.1762644513
 H          0.5297791322        1.1290657880        2.1086459283
 H         -0.5738458593        1.5412483138       -0.4323943121
 H          1.7917500722       -2.0372302065       -0.0016425062
 H          3.5324148652       -1.6497243841       -0.1413370030
 H          3.5366150482        1.8515175418        1.8293169779
 H          1.6933929410        2.9724257237        0.3525834729
 H          1.7810202978       -1.7036392707       -2.3442970941
  29
        -55.69034229
 O         -4.2453021922        0.7145116099        0.1709935952
 O         -2.4759773867        1.7580331898       -0.7010186151
 N         -0.9279293377       -0.6639256375       -0.2172843529
 N         -2.7974748716       -1.5663317699        0.5672662676
 C         -2.2560758270       -0.4708312775        0.0657731383
 C         -0.6454060172       -1.9421889111        0.1302813887
 C         -1.8151230943       -2.4822148971        0.6092676551
 C         -2.9800702220        0.7691429247       -0.1922406235
 H          0.3252811938       -2.3657222228       -0.0152429854
 H         -1.9983220806       -3.4699546878        0.9785164924
 H         -4.7226157443        1.5481944670       -0.0161693243
 O          1.1123347826       -0.3262460255       -1.3131053463
 O          2.7894697911        1.2876552734        1.4142550045
 O          0.8308587129        2.5232229231        0.0051308034
 O          4.4370500860       -1.1542528552       -0.0396769436
 C          1.8425125540        0.4695085436        0.8034354735
 C          2.3020907365       -0.1157303559       -0.5479892448
 C          0.5486674591        1.2141250143        0.4007564142
 C          0.0093988431        0.3167039505       -0.7322646135
 C          3.1112495204       -1.4116010277       -0.4191954405
 H          1.6029723088       -0.3432235706        1.4996103175
 H          2.9365264797        0.6147180089       -1.0713538299
 H         -0.1627535094        1.2937706657        1.2253268390
 H         -0.5179417453        0.9099212498       -1.4897546925
 H          3.1575259191       -1.8983413989       -1.3958394599
 H          2.6276504942       -2.0920326568        0.2951054776
 H          2.6068452708        2.2123259148        1.1686498587
 H          1.2077675695        2.5401699613       -0.8872787834
 H          4.4446462692       -0.6653259077        0.7970067073
  29
        -55.69032294
 O         -2.2065878636        1.8334190594       -0.6309239870
 O         -4.0737457229        1.0190649688        0.2594439322
 N         -0.9241332848       -0.7128574490       -0.2489929177
 N         -2.8982951480       -1.5388774798        0.3342059272
 C         -2.2453522993       -0.4393507566       -0.0046816284
 C         -0.7640891215       -2.0427718710       -0.0398331631
 C         -1.9970187313       -2.5352600670        0.3090587654
 C         -2.9249378643        0.8497728087       -0.0984117138
 H          0.1812158041       -2.5229317929       -0.1776384200
 H         -2.2818866788       -3.5405463397        0.5410773247
 H         -2.7287857493        2.6598858438       -0.6834222058
 O          1.1616583080       -0.4603010616       -1.2553085525
 O          2.4003702917        2.1820775459       -0.2271270167
 O          0.2250502636        1.9082713307        1.2482142104
 O          4.2850545492       -1.3426277545        0.4850366215
 C          2.2782213493        0.9039128228        0.3426509873
 C          2.4477087229       -0.2318478207       -0.6762144875
 C          0.8046081618        0.7445914788        0.7693172751
 C          0.1543482102        0.2023320086       -0.5367735280
 C          2.9852277005       -1.5154810955       -0.0147147086
 H          2.9608664200        0.7730063088        1.1878245909
 H          3.1102267186        0.0695468503       -1.4950646855
 H          0.7081325234       -0.0139252839        1.5535239516
 H         -0.2458185144        1.0336097784       -1.1302121116
 H          2.9337884266       -2.3334246199       -0.7415013667
 H          2.3628341612       -1.7718039334        0.8464603508
 H          3.3302164854        2.4371408028       -0.2935931945
 H          0.6230154000        2.6574807817        0.7687805752
 H          4.9195142690       -1.3163646934       -0.2455754546
  29
        -55.69031784
 O         -2.5261939474       -0.7963990368        2.1761266650
 O         -0.7793427363        0.5012162977        1.6922888343
 N         -1.0981319105       -0.4600928110       -1.1141271064
 N         -3.1236882160       -1.0752200775       -0.4529661118
 C         -1.9576080352       -0.6022167846       -0.0557484096
 C         -1.7762655846       -0.8817850003       -2.2127897553
 C         -3.0271972716       -1.2454148433       -1.7850772379
 C         -1.6731083790       -0.2461021236        1.3350872564
 H         -1.3317814336       -0.8864923528       -3.1857209980
 H         -3.8551486784       -1.6177011045       -2.3520152844
 H         -2.3681378818       -0.5240670689        3.1028350783
 O          0.9859094896       -0.7907693841       -0.1580089755
 O          2.7138331949        2.3049608035       -0.1832166367
 O          0.8107700004        2.0972549418       -2.0119491257
 O          2.9637410379       -1.7579346779        1.7992623065
 C          1.6746600222        1.4590460879        0.1988051669
 C          2.0982135669       -0.0258644145        0.2832502310
 C          0.4913512264        1.4525359197       -0.8110628015
 C          0.2769302614       -0.0476704361       -1.1144885369
 C          2.4902234765       -0.4414250420        1.7009324471
 H          1.3282299855        1.7986590669        1.1762898516
 H          2.9404936061       -0.1950594531       -0.4068518658
 H         -0.4081491626        1.8725109987       -0.3519264436
 H          0.6726863679       -0.2392709975       -2.1266182355
 H          1.6001514610       -0.3903355147        2.3308718137
 H          3.2357060127        0.2759137539        2.0677106035
 H          2.8686875628        2.2030283756       -1.1386845239
 H          0.7630144295        3.0576689375       -1.8913056596
 H          3.7665536564       -1.8573169110        1.2666510147
  29
        -55.69023980
 O         -4.2020928169       -0.0682951896       -1.0700115992
 O         -2.7165325068        1.5873501804       -0.9489774772
 N         -0.8815492565       -0.3526712977        0.3227016187
 N         -2.6677998892       -1.6613666535        0.4982490812
 C         -2.2056664894       -0.5278342230        0.0069113042
 C         -0.5175636884       -1.4513840090        1.0355249981
 C         -1.6350421765       -2.2413846415        1.1365101809
 C         -3.0389623793        0.4331972065       -0.7146038547
 H          0.4714873098       -1.5906809653        1.4165688064
 H         -1.7523890961       -3.1826252585        1.6323505840
 H         -4.7695448635        0.5883452153       -1.5234070711
 O          0.7967097141        0.2994502820       -1.1959947077
 O          3.3850190830        1.2874660702        0.9398393474
 O          1.1640613009        2.5988286486        0.8765899802
 O          3.6711115817       -1.8199207588       -0.3578482646
 C          2.2654692945        0.4939559460        0.6994093776
 C          2.1376448962        0.0521044433       -0.7791059421
 C          0.9279838562        1.2235316635        0.9887234970
 C         -0.0113072326        0.7182770686       -0.1263025550
 C          2.4826727226       -1.4336247055       -0.9942797360
 H          2.3814269757       -0.3890808286        1.3356129633
 H          2.7921100795        0.6789607725       -1.3975118824
 H          0.5353394874        0.9679057141        1.9785931031
 H         -0.6590883542        1.5180985071       -0.5018463016
 H          2.5176777839       -1.6345938854       -2.0717611095
 H          1.6929868699       -2.0530926629       -0.5615998148
 H          3.1478685052        2.2153559592        0.7676827604
 H          0.4104224820        3.1078776099        1.2038963446
 H          4.4192759830       -1.3361049609       -0.7351458997
  29
        -55.69019197
 O         -3.5840823032       -0.5881958934       -1.5756210163
 O         -2.4710182247        1.3064478458       -1.2077979525
 N         -0.7484885119       -0.2342277294        0.6267658083
 N         -2.3161728025       -1.8051643237        0.5100415047
 C         -1.9126431074       -0.6457825005        0.0272348007
 C         -0.4157861493       -1.2087635361        1.5097465362
 C         -1.4019227226       -2.1603227415        1.4309662555
 C         -2.6553907113        0.1247140309       -0.9676086735
 H          0.4619740101       -1.1741985732        2.1165817101
 H         -1.5019346174       -3.0725027052        1.9818218120
 H         -4.0998586017       -0.0556584328       -2.2147242553
 O          0.6040927903        0.7720897512       -1.0193050570
 O          3.5631064414        1.1307826050        0.8115016952
 O          1.4281399627        2.6779916404        1.1552925662
 O          1.5188262098       -2.0089703493       -0.5204737700
 C          2.3361378677        0.4965184951        0.6159604023
 C          1.9598142776        0.3354059385       -0.8773182313
 C          1.1461322351        1.3054505720        1.1908665778
 C         -0.0001471533        0.9457817434        0.2391514571
 C          2.1490950340       -1.0939300104       -1.3903526237
 H          2.3963945565       -0.4941182751        1.0758933552
 H          2.5752347772        0.9977884099       -1.4971233961
 H          0.9318653929        1.0713393288        2.2335891544
 H         -0.7218646749        1.7646991901        0.1328716551
 H          3.2274777313       -1.2872338670       -1.4418678326
 H          1.7154632313       -1.1531323817       -2.3958827266
 H          3.3929764910        2.0688193155        1.0189097047
 H          1.3572896764        3.0063228012        0.2457598014
 H          1.6793225668       -2.9059951571       -0.8438223498
  29
        -55.69017849
 O         -2.6077213660       -0.6974489384        2.1551704928
 O         -0.8206973219        0.5431610944        1.6763273352
 N         -1.0953909088       -0.5117379087       -1.1095185018
 N         -3.1481367133       -1.0580686493       -0.4698889383
 C         -1.9801331569       -0.5927458890       -0.0661275498
 C         -1.7596525216       -0.9593435801       -2.2053021221
 C         -3.0271893831       -1.2812899211       -1.7913881681
 C         -1.7227106548       -0.1933581971        1.3169517354
 H         -1.2957107074       -1.0095847194       -3.1677735182
 H         -3.8506037817       -1.6570304643       -2.3626594298
 H         -2.4662000770       -0.3946577965        3.0752525645
 O          0.9641376274       -0.8030953098       -0.0855053246
 O          2.7095410514        2.2361349974       -0.2160827423
 O          0.8572783347        2.0626102037       -2.0433672300
 O          3.1594468037       -1.6495722581        1.6831042012
 C          1.6303214199        1.4514516998        0.2043512582
 C          2.0734423467       -0.0188632276        0.3205250427
 C          0.5015891328        1.4108031262       -0.8643909649
 C          0.2827446349       -0.1109019457       -1.1001727446
 C          2.4923008049       -0.4112711658        1.7313031616
 H          1.2193737191        1.7812890940        1.1604490302
 H          2.9174966479       -0.1921831812       -0.3638582546
 H         -0.4203061690        1.8610105427       -0.4843316952
 H          0.7001546954       -0.3633429732       -2.0892390317
 H          1.5872396820       -0.4635520484        2.3469335692
 H          3.1601353974        0.3700569447        2.1164113726
 H          2.5923253463        3.1526510474        0.0744408586
 H          1.8197246934        2.2349606959       -2.0100729460
 H          3.3387608020       -1.9523673650        2.5846406305
  29
        -55.69017844
 O         -3.8749106094       -0.4892407096       -1.3491541169
 O         -2.4780137018        1.2462015087       -1.3865229238
 N         -0.8264906650       -0.2319550063        0.5749946174
 N         -2.5285722631       -1.6562451763        0.6783214638
 C         -2.0576406182       -0.5816044213        0.0770926355
 C         -0.5298745609       -1.1596797609        1.5235922090
 C         -1.5958217028       -2.0222335319        1.5760675052
 C         -2.7976076662        0.1527077781       -0.9495989027
 H          0.3766085481       -1.1440557520        2.0890139791
 H         -1.7413043983       -2.8760400682        2.2049538977
 H         -4.3838570979        0.0137487638       -2.0170588429
 O          0.8337764981        0.3708768384       -0.9831997067
 O          3.4340293454        1.3163337031        1.1485103622
 O          1.2351172145        2.7634095947        0.9212312720
 O          2.4602650029       -1.8535633051       -2.0050988797
 C          2.2774706968        0.5699426829        0.9272496500
 C          2.1565226067        0.0571940139       -0.5262112772
 C          0.9813801487        1.4032935227        1.1259134182
 C          0.0248922801        0.8298063505        0.0708250208
 C          2.4202689095       -1.4459853956       -0.6617489908
 H          2.3061881135       -0.2824124180        1.6149133617
 H          2.8590985882        0.5915933975       -1.1763918423
 H          0.5828339857        1.3228056429        2.1383338266
 H         -0.6410945442        1.5977665604       -0.3391706964
 H          1.6488568973       -2.0051059235       -0.1132613980
 H          3.4011452958       -1.6773315810       -0.2423278864
 H          3.1874532381        2.2595610097        1.2004401537
 H          1.3447207113        2.9486627521       -0.0243188570
 H          1.6409097550       -1.5751729184       -2.4395109181
  29
        -55.69015778
 O         -3.9810276320       -0.3038804201       -1.3147703020
 O         -2.6195213969        1.4515805531       -1.1474818778
 N         -0.8476318712       -0.2637291677        0.4831533230
 N         -2.5346846696       -1.7093042469        0.4901558370
 C         -2.1013186043       -0.5609006463        0.0089606197
 C         -0.4954807345       -1.3020742056        1.2875178842
 C         -1.5531032250       -2.1765629850        1.2833673050
 C         -2.8985358015        0.2973362167       -0.8675934168
 H          0.4409932066       -1.3503308454        1.8004640524
 H         -1.6607656072       -3.1057024451        1.8036634009
 H         -4.5264363528        0.2827061431       -1.8774671841
 O          0.6805153872        0.5843805521       -1.1058828689
 O          3.4535465284        1.2565728319        0.7855254152
 O          1.2592911660        2.6441635645        1.1140393988
 O          3.2509946433       -1.9890562056       -0.5534528239
 C          2.2920009578        0.4869725264        0.6697382511
 C          1.9891826335        0.1003622211       -0.7980772402
 C          1.0224894894        1.2653799507        1.1176548545
 C         -0.0315315952        0.8639230712        0.0743596198
 C          2.0693514058       -1.4175951402       -1.0464132397
 H          2.4362255218       -0.4243114661        1.2621949409
 H          2.6872044675        0.6209819085       -1.4635106980
 H          0.7170548269        1.0190079524        2.1354270152
 H         -0.7200156106        1.6852382119       -0.1541204992
 H          1.9457541529       -1.6041041306       -2.1200691029
 H          1.2519420901       -1.9166499742       -0.5194119043
 H          3.2019529025        2.1455805431        1.1003850763
 H          1.2805857906        2.9774582668        0.2034531248
 H          4.0133580750       -1.6376641533       -1.0345817272
  29
        -55.69012884
 O         -3.4693440073       -0.2033843548       -1.8601948143
 O         -1.8480318177        1.2855425757       -1.5038054884
 N         -0.9920377056       -0.3829588666        0.7493691860
 N         -2.9672781576       -1.3777685012        0.5717789770
 C         -2.1413217267       -0.5133217787        0.0144828868
 C         -1.1216880472       -1.2142059588        1.8137770662
 C         -2.3515720633       -1.8116665793        1.6877803146
 C         -2.4451468453        0.2742876986       -1.1788933887
 H         -0.3780684094       -1.2921740790        2.5777155118
 H         -2.8237720705       -2.5220871013        2.3342864996
 H         -3.6915843973        0.3535276188       -2.6335214723
 O          0.6227990856       -0.0126228589       -0.8689484564
 O          2.6117333817        2.2110711474        0.6564699663
 O          1.2636859311        0.9388965211        2.5274036919
 O          3.0125970801       -1.5938860456       -1.2125482244
 C          2.4766398065        0.8409535962        0.3779621828
 C          1.9134614724        0.5750258767       -1.0416173869
 C          1.3716065495        0.2876460351        1.3078151770
 C          0.1384175550        0.4178856990        0.3846453566
 C          2.7722961754       -0.3792005532       -1.8770470813
 H          3.4171607469        0.3041756815        0.5282337818
 H          1.7967326012        1.5335472424       -1.5658565862
 H          1.5563577439       -0.7732982025        1.5027115586
 H         -0.1759702859        1.4740865655        0.3236736313
 H          3.7499980974        0.0708344207       -2.0555570850
 H          2.2716417816       -0.5472108927       -2.8365761728
 H          3.4696197787        2.5382804134        0.3554019914
 H          1.5342327417        1.8659489111        2.4029172259
 H          2.1755416923       -2.0718709462       -1.1349775567
  29
        -55.68998308
 O         -4.2150813284        0.8535260667       -0.5597245125
 O         -2.2073069370        1.6523142880       -1.1032903475
 N         -1.0525921500       -0.7583737247        0.1247970504
 N         -3.1410807372       -1.4109410207        0.4790644427
 C         -2.3803711362       -0.4429777940       -0.0002237641
 C         -1.0001014048       -1.9779647127        0.7150954482
 C         -2.3022456620       -2.3650989541        0.9186784033
 C         -2.9000852392        0.7814085981       -0.6007405676
 H         -0.0688231904       -2.4654382708        0.9112086702
 H         -2.6774476805       -3.2679261893        1.3541774430
 H         -4.5545819525        1.6733029579       -0.9731699471
 O          1.0784800240       -0.7996909204       -0.7677761903
 O          2.9180826324        1.8042529104        0.6532688312
 O          0.3382827642        2.0261682367        1.2333184525
 O          4.6888904330       -0.5656420384       -1.0581127553
 C          2.2707183983        0.5689740498        0.7498261057
 C          2.3242790839       -0.1405362181       -0.6184790883
 C          0.7436828458        0.7124362773        1.0311044191
 C          0.0907819510        0.0365258126       -0.2131739853
 C          3.4533367285       -1.1637759314       -0.7737046288
 H          2.7326335110       -0.0599894037        1.5215062525
 H          2.4383176528        0.6326335887       -1.3945781723
 H          0.4551510938        0.1647207249        1.9328569653
 H         -0.2250010120        0.8119469618       -0.9265410084
 H          3.2172477636       -1.8024934928       -1.6271309340
 H          3.5119919219       -1.7895341660        0.1264419929
 H          2.9190601791        2.2436178887        1.5175225346
 H          0.7389247288        2.5978500301        0.5572350311
 H          4.9223931761        0.0588604751       -0.3560788525
  29
        -55.68997394
 O         -2.1997236593        1.8310974894       -0.6498773633
 O         -4.0608339251        1.0390740184        0.2730929486
 N         -0.9291275601       -0.7176635981       -0.2548045719
 N         -2.9059584364       -1.5303871309        0.3375427034
 C         -2.2473196500       -0.4354937716       -0.0049091102
 C         -0.7767679532       -2.0484266408       -0.0451053563
 C         -2.0112454823       -2.5327599230        0.3091896111
 C         -2.9183178971        0.8583282347       -0.0988401712
 H          0.1648786422       -2.5337503973       -0.1889131845
 H         -2.3021290183       -3.5359669287        0.5427116043
 H         -2.7155613021        2.6613911888       -0.7029152443
 O          1.1654616619       -0.4843288549       -1.2454040965
 O          2.4044926289        2.1637555529       -0.2298029637
 O          0.2178601641        1.9116453539        1.2296304771
 O          4.3052064969       -1.2377312341        0.4313309473
 C          2.2729780170        0.8910992131        0.3481282229
 C          2.4466908031       -0.2513036232       -0.6617185082
 C          0.7965723449        0.7418466898        0.7647794535
 C          0.1551726313        0.1910026637       -0.5421975816
 C          2.9958796330       -1.5213443598        0.0004374835
 H          2.9528378002        0.7682457350        1.1965266616
 H          3.1254241825        0.0403485477       -1.4700046728
 H          0.6892933417       -0.0099878477        1.5542188393
 H         -0.2360379601        1.0187500898       -1.1463821133
 H          2.9822033026       -2.3279586724       -0.7415740092
 H          2.3574231578       -1.8015172108        0.8493458358
 H          3.3382275851        2.3743982088       -0.3641858153
 H          0.6278043422        2.6557463467        0.7527461450
 H          4.7181630507       -2.0445803914        0.7696397047
  29
        -55.68995559
 O         -4.2959422651        0.4034127516       -0.6571002967
 O         -2.4410193157        1.4421244979       -1.3236815072
 N         -0.9278798916       -0.5502085017        0.2461597506
 N         -2.8955300309       -1.4678011188        0.6949899059
 C         -2.2851325068       -0.4732935023        0.0766699685
 C         -0.7001590183       -1.6499992305        1.0082129407
 C         -1.9280951350       -2.2038937001        1.2705204816
 C         -2.9869485850        0.5491871666       -0.6962676354
 H          0.2880876771       -1.9524444524        1.2823423831
 H         -2.1675167635       -3.0804857264        1.8359898672
 H         -4.7612410536        1.0851267362       -1.1833152167
 O          1.0981165292       -0.4177213459       -0.8552023793
 O          3.0789409155        1.5784572517        1.3521319901
 O          0.7489616507        2.4958362541        0.6239030914
 O          3.6050071324       -1.4867047550       -1.9187469868
 C          2.1996243927        0.5597721327        0.9824615193
 C          2.3891351918        0.0311033597       -0.4520382446
 C          0.7650021197        1.1343210918        0.9300354472
 C          0.0971398982        0.3459463042       -0.2241054651
 C          3.3648345182       -1.1399500840       -0.5806814209
 H          2.2332938889       -0.2769814781        1.6924955282
 H          2.7086828893        0.8584643514       -1.1023456826
 H          0.2279406905        0.9578334550        1.8736704789
 H         -0.3599916856        1.0562149825       -0.9248658806
 H          2.9650978898       -1.9979869669       -0.0238983541
 H          4.3358110908       -0.8608218946       -0.1681216330
 H          3.9691525182        1.2311576826        1.4975489988
 H          1.5455425750        2.9034359602        1.0085139364
 H          2.7607529456       -1.6956233420       -2.3428344233
  29
        -55.68994502
 O         -4.1440173139        0.8241676681       -0.4477340274
 O         -2.1821705770        1.7007317631       -1.0337506385
 N         -0.9213252851       -0.7252217125        0.0812324583
 N         -2.9846556456       -1.4618058135        0.4185719005
 C         -2.2597271484       -0.4472315188       -0.0173094298
 C         -0.8254408841       -1.9699878076        0.6103503427
 C         -2.1120612837       -2.4092112695        0.8038004519
 C         -2.8306946523        0.7895087697       -0.5431724127
 H          0.1190890503       -2.4369235856        0.7896681836
 H         -2.4541577686       -3.3443865421        1.1960080892
 H         -4.5210750596        1.6544137739       -0.8037851052
 O          1.1530746510       -0.5906965043       -0.9531353383
 O          2.6784494577        2.2337428124        0.4216397177
 O          0.3555817115        1.7782091364        1.5781924152
 O          3.6754950471       -1.7317356141       -0.0855702081
 C          2.3696030125        0.8729516991        0.4800316544
 C          2.3611210307        0.1618869156       -0.8918469440
 C          0.9354491743        0.6363494153        1.0340182046
 C          0.1844502479        0.1284236575       -0.2247039085
 C          3.5549195804       -0.7747435714       -1.1055978049
 H          3.1171498941        0.4240503384        1.1386129896
 H          2.3543218606        0.9161854629       -1.6929266353
 H          0.9387922453       -0.1644115148        1.7860752949
 H         -0.1952190111        0.9858970333       -0.7987182535
 H          4.4711252099       -0.1821424730       -1.0814956830
 H          3.4560137583       -1.2533541562       -2.0856499369
 H          2.2146004884        2.6612279631       -0.3150316088
 H          1.0364254526        2.4789413198        1.6030627658
 H          2.9379356582       -2.3528007049       -0.1560792996
  29
        -55.68993593
 O         -4.3112924678        0.4743409361       -0.4579967503
 O         -2.4880046597        1.5118762974       -1.2098877256
 N         -0.9049905888       -0.5726005437        0.1493398417
 N         -2.8507280593       -1.4849444030        0.6970022524
 C         -2.2697446629       -0.4675653885        0.0871629802
 C         -0.6416070506       -1.7130834351        0.8353282379
 C         -1.8566296592       -2.2635916003        1.1591234109
 C         -3.0056631435        0.6007233476       -0.5847506336
 H          0.3579180911       -2.0459776734        1.0169300523
 H         -2.0684685432       -3.1661802147        1.6938588972
 H         -4.7996496355        1.1847327494       -0.9216250591
 O          1.1333812175       -0.3858815643       -0.9348835485
 O          2.9861664203        1.5580264026        1.4301178530
 O          0.7845764133        2.5264345505        0.3818099452
 O          3.6844113935       -1.5710989324       -1.7450655673
 C          2.1044945560        0.5679670447        0.9939417631
 C          2.4005753766        0.0115751611       -0.4110264130
 C          0.7075653176        1.1965012456        0.7973097943
 C          0.0928734293        0.3488952828       -0.3405906075
 C          3.3360222788       -1.1986991569       -0.4382037006
 H          2.0367936457       -0.2561296528        1.7163570478
 H          2.8138052282        0.8151878541       -1.0375642212
 H          0.0966351530        1.1200842828        1.7088516455
 H         -0.3837198002        1.0156071104       -1.0700542756
 H          2.8551612305       -2.0350925945        0.0868792233
 H          4.2751972898       -0.9526245764        0.0602022785
 H          3.8485139523        1.1795163627        1.6476820967
 H          1.5407885711        2.9409214640        0.8335178131
 H          2.8747728747       -1.7432586033       -2.2462827726
  29
        -55.68990886
 O         -2.5933658508       -1.2786283441        1.9939829567
 O         -0.8444737582        0.0913507420        1.8344134380
 N         -1.1533680923       -0.2548236615       -1.1378132656
 N         -3.2335775916       -0.8088118778       -0.6003443364
 C         -2.0288519699       -0.5523609689       -0.1264202622
 C         -1.8675550342       -0.3424174231       -2.2912130845
 C         -3.1493455649       -0.6727486724       -1.9372548228
 C         -1.7410295591       -0.5445359267        1.3085423484
 H         -1.4251183378       -0.1633553642       -3.2484648271
 H         -4.0073647349       -0.8196740251       -2.5598649989
 H         -2.4383352804       -1.2296541794        2.9594020022
 O          0.9189538395       -0.9706626527       -0.3366641654
 O          3.0294824100        1.5552788366       -0.9031567724
 O          0.5860600773        2.4093710842       -1.4238513376
 O          3.2912256030       -0.3035788012        2.3822904232
 C          2.0800915416        1.0984550338        0.0216922016
 C          2.0993615364       -0.4213156231        0.2540442223
 C          0.6446995923        1.3807094858       -0.4866531086
 C          0.2569127053        0.0121909304       -1.0964618800
 C          2.1407364156       -0.7895426358        1.7458473224
 H          2.2902462790        1.6334190332        0.9496008689
 H          2.9699524544       -0.8634344462       -0.2524221596
 H         -0.0237057737        1.6036438347        0.3505052515
 H          0.6005046466       -0.0154487247       -2.1449681663
 H          2.0511779128       -1.8779786127        1.8384577192
 H          1.2872269331       -0.3264485287        2.2442654365
 H          3.0824202779        0.9597895797       -1.6662790474
 H          1.5008468637        2.7045519856       -1.6024423338
 H          4.0727597527       -0.7754558386        2.0589908322
  29
        -55.68988802
 O         -2.4697958124        1.0273349852       -1.4258120322
 O         -1.5923187782       -0.7621296467       -2.4285562829
 N         -1.0592624954       -0.2456127109        0.9106402657
 N         -2.5882275774       -1.7550733973        0.3861577831
 C         -1.8673230542       -0.7522863197       -0.0579840206
 C         -1.2975355422       -0.9798045319        2.0371053560
 C         -2.2460173878       -1.8997649632        1.6930731129
 C         -1.9388053490       -0.1776741496       -1.4261906173
 H         -0.7923037214       -0.7805735132        2.9583140854
 H         -2.7076086773       -2.6564856508        2.2926885775
 H         -2.5317891104        1.4147445471       -2.3231939812
 O          0.1819540170        1.0085193441       -0.6171802597
 O          2.7206768202        2.0972867019        0.5465912442
 O          1.4702416978        1.1198598042        2.6377813097
 O          2.8595384765       -1.1813309519       -1.7723171622
 C          2.3128860404        0.7691357937        0.3498911890
 C          1.5014108817        0.5772349770       -0.9383104531
 C          1.2686542939        0.4469786070        1.4413481578
 C         -0.0784278218        0.8079862595        0.7458708168
 C          1.5310910074       -0.8772401109       -1.4245257344
 H          3.1616915594        0.0799332227        0.3823473356
 H          1.8534696166        1.2274708678       -1.7431668414
 H          1.2803532667       -0.6241953651        1.6658909382
 H         -0.4895257940        1.7396410483        1.1608505015
 H          0.8518696871       -0.9718029351       -2.2792611134
 H          1.1722118241       -1.5417907199       -0.6259703420
 H          3.4806351314        2.3008023325       -0.0149142692
 H          1.8948977139        1.9741657223        2.4415044404
 H          2.8901798263       -2.0429100424       -2.2117279514
  29
        -55.68986659
 O         -3.5212662036       -0.1173153949       -1.8662158708
 O         -1.9086412875        1.3635467664       -1.4463677117
 N         -1.0721715157       -0.3839993320        0.7597500071
 N         -3.0638189347       -1.3399765139        0.5508130224
 C         -2.2200323773       -0.4775226444        0.0179308671
 C         -1.2205913301       -1.2397261235        1.8024333793
 C         -2.4604038430       -1.8114543851        1.6584716244
 C         -2.5072448525        0.3425694913       -1.1578629324
 H         -0.4833779637       -1.3505479429        2.5683351183
 H         -2.9477801635       -2.5283842720        2.2861982753
 H         -3.7335842501        0.4614824495       -2.6262233530
 O          0.5403220969       -0.0270685861       -0.8596930505
 O          2.4509705876        2.1380307777        0.5423687451
 O          1.2031965377        0.8921308545        2.5551398028
 O          4.0385879133       -0.7859208307       -1.6354296656
 C          2.4176835019        0.7387882234        0.4119180275
 C          1.9347864152        0.2654583688       -0.9737891961
 C          1.2973053516        0.2298953648        1.3408674452
 C          0.0786941932        0.3977345931        0.4071430775
 C          2.6661904746       -1.0034968028       -1.4429510916
 H          3.3867054679        0.2937617055        0.6565105155
 H          2.0551715846        1.0717307030       -1.7091025747
 H          1.4470692704       -0.8337325039        1.5480934131
 H         -0.2168354258        1.4596248278        0.3608565258
 H          2.1750754771       -1.3723433967       -2.3488726469
 H          2.5795771631       -1.7704369757       -0.6694339040
 H          3.2784231503        2.4919017648        0.1894338175
 H          1.4185314134        1.8300043850        2.4113585546
 H          4.1827096943       -0.2934413275       -2.4560413372
  29
        -55.68980043
 O         -4.1618472502        0.7326279343       -0.6222743196
 O         -2.1780317048        1.5479946594       -1.2244199291
 N         -0.9563271783       -0.7156506867        0.2100056050
 N         -3.0263826822       -1.4257574999        0.5626542389
 C         -2.2915008765       -0.4617352631        0.0365269252
 C         -0.8714607275       -1.8909532655        0.8804252920
 C         -2.1622780746       -2.3156790125        1.0810727975
 C         -2.8448226729        0.6974066093       -0.6561879615
 H          0.0725243541       -2.3276631556        1.1285359445
 H         -2.5124405360       -3.2028701012        1.5667286049
 H         -4.5235166653        1.5080698637       -1.0977827804
 O          1.1955863321       -0.7178793297       -0.6305646471
 O          2.8513538075        2.0720469034        0.6203836713
 O          0.2772431078        2.1640187174        1.2123908454
 O          3.8064036950       -1.5767315912       -1.7575581175
 C          2.2959444734        0.8038200574        0.8158252396
 C          2.4098885118        0.0018456338       -0.4966865712
 C          0.7601955456        0.8681484015        1.0781712965
 C          0.1635167592        0.1046357503       -0.1446782246
 C          3.5992366743       -0.9606377786       -0.5159151097
 H          2.7983711979        0.2679656832        1.6277257159
 H          2.4977007655        0.7271895399       -1.3209755070
 H          0.4923963874        0.3382802614        1.9969884751
 H         -0.1651149207        0.8306990009       -0.9027968875
 H          3.4114087041       -1.7737537624        0.1880874602
 H          4.4904266137       -0.4026868301       -0.2008233959
 H          2.9933242554        2.5086420871        1.4735183070
 H          0.7541016709        2.7449212395        0.5934197517
 H          3.9955986290       -0.9062923268       -2.4295805648
  29
        -55.68976527
 O         -4.2385011216        0.6477513445       -0.6312691915
 O         -2.3617984848        1.8499464470       -0.6525618594
 N         -0.9329428829       -0.6196400517        0.0952544817
 N         -2.9434607217       -1.5302099104        0.3284306685
 C         -2.2878439742       -0.4377864174       -0.0188534795
 C         -0.7560516266       -1.8984047100        0.5159787969
 C         -2.0094464507       -2.4398453432        0.6578940061
 C         -2.9404613077        0.7922786453       -0.4605250253
 H          0.2159898915       -2.3221985464        0.6533882290
 H         -2.2868585216       -3.4225299929        0.9786889603
 H         -4.6702771015        1.4767095654       -0.9222814656
 O          1.0024375841       -0.3195533773       -1.1409525588
 O          2.5521982322        2.1727200073       -0.1203907083
 O          0.6047770772        1.8604457661        1.6507989737
 O          4.3843997522       -1.3530439480       -0.1348588751
 C          2.3837545534        0.8758062589        0.3814070799
 C          2.3694057807       -0.1230750766       -0.7784758899
 C          0.9915026702        0.6816447943        1.0160314596
 C          0.1332614192        0.2982327453       -0.2195539200
 C          3.0152868382       -1.4702972586       -0.4106449661
 H          3.1862537974        0.6369793444        1.0926805563
 H          2.8805818916        0.3183364508       -1.6414317565
 H          1.0198059010       -0.1657389740        1.7123949694
 H         -0.3121747419        1.2027020739       -0.6559177940
 H          2.8218727551       -2.1786107130       -1.2247882446
 H          2.5639192022       -1.8589767444        0.5054415420
 H          2.1761972934        2.7990263245        0.5191915842
 H         -0.1555781563        1.7181859096        2.2291413469
 H          4.8606256651       -1.1006313482       -0.9385639846
  29
        -55.68974449
 O         -4.0392074636       -0.1692328790       -1.2668972962
 O         -2.6029125391        1.5239896877       -1.0888536352
 N         -0.8628447486       -0.3140690167        0.4476826196
 N         -2.6074358455       -1.6889557486        0.4476933364
 C         -2.1375537479       -0.5423112168       -0.0042300324
 C         -0.5346399086       -1.3951115137        1.2048647211
 C         -1.6273152100       -2.2250217756        1.1979183077
 C         -2.9204017317        0.3746619405       -0.8330781372
 H          0.4124880182       -1.5003769664        1.6904191221
 H         -1.7613161959       -3.1673162619        1.6875740081
 H         -4.5740743828        0.4560772926       -1.7970493186
 O          0.7117743351        0.4682326149       -1.1119952467
 O          3.4040119905        1.4935547342        0.6436884873
 O          1.0818600972        2.5443868424        1.2341440639
 O          3.4306155221       -1.9472254115       -0.5322656858
 C          2.3719143634        0.5538639710        0.6167672419
 C          2.0410238684        0.0527623407       -0.8083013952
 C          1.0287748930        1.1469562038        1.1437914625
 C          0.0029511833        0.7834981547        0.0576306886
 C          2.1806494772       -1.4750352024       -0.9588309314
 H          2.7177033287       -0.2797337116        1.2335894284
 H          2.6967603320        0.5469240400       -1.5347014295
 H          0.7404231743        0.7148383665        2.1071232026
 H         -0.6365794214        1.6432597930       -0.1713625105
 H          1.9789989042       -1.7412424898       -2.0031685404
 H          1.4390094697       -1.9778518063       -0.3342725697
 H          3.0907957812        2.3176414503        0.2340267571
 H          1.6360465774        2.7985709600        1.9884070368
 H          4.1264246366       -1.6195067314       -1.1197119809
  29
        -55.68974061
 O         -2.4861897142        1.0464857314       -1.3742752216
 O         -1.6273941523       -0.7148757084       -2.4403112187
 N         -1.0459273334       -0.2674387841        0.9053979616
 N         -2.5606244796       -1.7871822486        0.3675818230
 C         -1.8584282770       -0.7660702841       -0.0641040904
 C         -1.2615961889       -1.0269850562        2.0192343154
 C         -2.2015200087       -1.9528699266        1.6672303043
 C         -1.9553159050       -0.1585090432       -1.4161263890
 H         -0.7529245998       -0.8385166966        2.9407623515
 H         -2.6464093628       -2.7268177238        2.2573998510
 H         -2.5651486956        1.4570729739       -2.2600588604
 O          0.1780649808        1.0014164254       -0.6209746087
 O          2.7289299818        2.1150875976        0.5202787305
 O          1.4538565302        1.2071438632        2.6205525877
 O          2.8290011085       -1.3056702164       -1.7415934063
 C          2.3108175822        0.7858245086        0.3512563374
 C          1.5001122572        0.5691114765       -0.9345682570
 C          1.2632611448        0.4878700679        1.4493859663
 C         -0.0873466949        0.8071022140        0.7413331308
 C          1.5328722553       -0.9053118557       -1.3810543831
 H          3.1510160907        0.0872522057        0.4017296198
 H          1.8388025263        1.2173773834       -1.7473477726
 H          1.2905119794       -0.5742517916        1.7110567796
 H         -0.5242462579        1.7328496179        1.1427483691
 H          0.8120890113       -1.0506620809       -2.1926572082
 H          1.2336534368       -1.5474660800       -0.5481075167
 H          3.5559933818        2.2731890733        0.0459752059
 H          1.8700177529        2.0579871260        2.3910957793
 H          3.0460665591       -0.9686031775       -2.6227115481
  29
        -55.68973678
 O         -4.3035798635        0.6851129033       -0.6393885989
 O         -2.3455244652        1.6190597699       -1.1473829945
 N         -1.0551526030       -0.6826708513        0.1673223132
 N         -3.1057973178       -1.4430364907        0.5275432011
 C         -2.3977374448       -0.4538461090        0.0136105512
 C         -0.9392718570       -1.8743084127        0.8061207418
 C         -2.2180512765       -2.3275643232        1.0159176698
 C         -2.9861650079        0.7117836111       -0.6413279280
 H          0.0156115148       -2.2989416127        1.0327541093
 H         -2.5452646472       -3.2305929831        1.4881220334
 H         -4.6906833606        1.4642821291       -1.0878764332
 O          1.0066718101       -0.6700218544       -0.8657854771
 O          3.1342700768        1.4792018984        1.0389302179
 O          0.5663997420        2.1911795649        0.9350605992
 O          4.6489373001       -0.5365200278       -0.9945867849
 C          2.2557114397        0.4264424861        0.7971613126
 C          2.2830468717       -0.0916620162       -0.6579695455
 C          0.7590579924        0.8060149729        0.9976236451
 C          0.0539769185        0.1429680272       -0.2169218581
 C          3.3771270316       -1.1255420492       -0.9321707468
 H          2.5366818486       -0.3770541590        1.4845906305
 H          2.4214650648        0.7623731051       -1.3397033913
 H          0.3623032584        0.3894254640        1.9288095984
 H         -0.3130401597        0.9391917820       -0.8803288782
 H          3.1974001166       -1.5818281563       -1.9075025413
 H          3.3399288159       -1.9106399761       -0.1655493104
 H          2.7827939089        2.2838550166        0.6211413153
 H          0.6810309846        2.5847069709        1.8126496330
 H          4.8252689425       -0.0585665904       -0.1700150734
  29
        -55.68970684
 O         -3.9874401966        0.7496461667        0.3016192088
 O         -2.3416710927        1.6874807895       -0.8733733303
 N         -0.7120190984       -0.6781042259       -0.1906750038
 N         -2.6322356258       -1.6183804821        0.3995322516
 C         -2.0521879460       -0.4919399326        0.0236734891
 C         -0.4573156400       -1.9844948633        0.0685630371
 C         -1.6594480335       -2.5472880997        0.4231046070
 C         -2.7770741917        0.7517578639       -0.2231849929
 H          0.5152131076       -2.4145197616       -0.0523761053
 H         -1.8740093588       -3.5615188376        0.6894276168
 H         -4.4804578578        1.5693507597        0.0949507983
 O          1.3614189481       -0.1932188955       -1.1714551746
 O          2.6852697744        2.3874575210        0.0156932700
 O          0.1496018144        2.2645966907        0.9517962270
 O          2.7855817092       -2.4800632704       -0.4029267104
 C          2.3149291943        1.1454220052        0.5348704751
 C          2.5667002388       -0.0334271885       -0.4190171920
 C          0.7883627864        1.0360321443        0.7898198901
 C          0.2636272720        0.3467568624       -0.4952948474
 C          2.9440728509       -1.3112516282        0.3572228331
 H          2.8888838985        1.0347829314        1.4572392980
 H          3.3453872445        0.2016917439       -1.1511889711
 H          0.6005257037        0.3777690280        1.6524384424
 H         -0.2404679803        1.0893834502       -1.1289569945
 H          2.2880261202       -1.4337697829        1.2225668823
 H          3.9765615508       -1.2062366652        0.7126628495
 H          2.1390579128        2.6093445583       -0.7525682468
 H          0.6025414806        2.7844148051        1.6339495604
 H          3.3322260290       -2.4309572350       -1.1996088519
  29
        -55.68969059
 O         -2.5434305528        1.1436643006       -1.0507387071
 O         -1.7741847380       -0.3882893917       -2.4775828229
 N         -0.8433612998       -0.4250720273        0.8356251243
 N         -2.3171826432       -1.9431951156        0.1883310169
 C         -1.7139024885       -0.8208339165       -0.1293136556
 C         -0.9112780950       -1.3618646908        1.8238867553
 C         -1.8284380430       -2.2843623170        1.4081791154
 C         -1.9878241979       -0.0156206082       -1.3450566632
 H         -0.3340161026       -1.2886627500        2.7204767079
 H         -2.1721543895       -3.1695384538        1.9019127368
 H         -2.7394930831        1.6805483154       -1.8457354823
 O          0.1650478938        1.1598431731       -0.5561615774
 O          2.9415622593        2.1485680116        0.3953176450
 O          1.5998525876        1.1870428954        2.5103382995
 O          1.4707758664       -1.5788092334       -0.7563878995
 C          2.3817171547        0.8865233842        0.1838911815
 C          1.4619510732        0.8173582096       -1.0472720134
 C          1.4324600241        0.4526184801        1.3332245480
 C          0.0207271556        0.7361611983        0.7712386129
 C          1.4994467512       -0.5549834071       -1.7298941395
 H          3.2239177683        0.2009902711        0.0818527120
 H          1.7147606224        1.5827155295       -1.7851156535
 H          1.5500712596       -0.6246919756        1.5020288445
 H         -0.4509751436        1.5505935988        1.3417982733
 H          2.4222442942       -0.6106467055       -2.3189293248
 H          0.6357066356       -0.6328871255       -2.4014692577
 H          2.2436642244        2.7971529529        0.5714909976
 H          2.5225336397        1.1312806433        2.8009417670
 H          1.5567715873       -2.4337516695       -1.2003106280
  29
        -55.68967916
 O         -2.5955941440       -0.9088761636        2.1286896755
 O         -0.7335006494        0.2453787159        1.7227997151
 N         -1.1986443836       -0.3945711152       -1.1554972356
 N         -3.2485675289       -0.9247965464       -0.4943557971
 C         -2.0425958134       -0.5720903142       -0.0897094762
 C         -1.9303998036       -0.6626731961       -2.2671869499
 C         -3.1945314382       -0.9773539047       -1.8381700129
 C         -1.7046321521       -0.3700681420        1.3190147408
 H         -1.5103975631       -0.6054157712       -3.2492529741
 H         -4.0586253952       -1.2367147427       -2.4139731112
 H         -2.3946937272       -0.7404840561        3.0717790871
 O          0.8825949249       -0.9540407898       -0.3023638124
 O          2.8161562578        2.0135584878       -0.1238769003
 O          0.8329863898        2.1131758959       -1.8685279623
 O          3.6419837447       -0.4632417227        1.9573306709
 C          1.7410775475        1.2043792451        0.2362189674
 C          2.0391294823       -0.3096662274        0.2086464319
 C          0.5265636459        1.3676507830       -0.7254686303
 C          0.2013230670       -0.0747047836       -1.1622795239
 C          2.3639376192       -0.9071807148        1.5753311380
 H          1.4553968357        1.5103923717        1.2438925710
 H          2.8915686053       -0.4959393944       -0.4636969432
 H         -0.3275855164        1.8002182762       -0.1906074397
 H          0.5555313274       -0.1958299892       -2.1996016811
 H          2.3336897689       -2.0004344468        1.4791517112
 H          1.5907958686       -0.5897793777        2.2843552071
 H          3.1767643174        1.7268910538       -0.9776204839
 H          1.1844592382        2.9760142952       -1.5950850203
 H          3.8363905800       -0.7793932262        2.8508932957
  29
        -55.68967802
 O         -2.2344405293        1.7128352980       -0.5867362486
 O         -3.7788324948        0.8469897860        0.7603600427
 N         -0.7332198721       -0.7292193774       -0.3995213330
 N         -2.5833711519       -1.7008628554        0.3448742491
 C         -2.0197779288       -0.5448688826        0.0361672346
 C         -0.4991378802       -2.0614641218       -0.3475039302
 C         -1.6562820636       -2.6447830530        0.1046984161
 C         -2.7517257338        0.7160889357        0.1242544075
 H          0.4382468058       -2.4786633768       -0.6428020556
 H         -1.8729801464       -3.6804382204        0.2661566016
 H         -2.7789437538        2.5219282808       -0.5062067083
 O          1.3282253565       -0.2682983558       -1.4144964476
 O          2.6091449572        2.3063203504       -0.2939509448
 O          0.2447501694        2.1315130556        0.9361081310
 O          2.2177124342       -1.6315080663        1.1462465032
 C          2.3362583652        1.0484452534        0.2607373807
 C          2.5636292430       -0.1147187736       -0.7070843363
 C          0.8328793867        0.9192088663        0.5970008941
 C          0.2545122102        0.2847445505       -0.7031298681
 C          3.0146100763       -1.3961613911        0.0054379327
 H          2.9523466926        0.9691411870        1.1565548147
 H          3.3161080341        0.1307027423       -1.4629957300
 H          0.6889879293        0.2149567874        1.4233497811
 H         -0.2370165909        1.0492588658       -1.3186513403
 H          4.0652125872       -1.2626879215        0.2873326884
 H          2.9375890195       -2.2290394585       -0.7051170529
 H          2.2921557812        2.3431380665       -1.2089608304
 H          0.8373701819        2.8473623851        0.6340489315
 H          2.5879228256       -2.3725284592        1.6457918973
  29
        -55.68965901
 O         -2.6095309098       -0.6974419013        2.1627572146
 O         -0.8334712214        0.5578943517        1.6775227492
 N         -1.1026452924       -0.4971459541       -1.1028412522
 N         -3.1536725416       -1.0537566610       -0.4683463207
 C         -1.9887953883       -0.5859025924       -0.0609634801
 C         -1.7626995445       -0.9457432673       -2.2014960546
 C         -3.0293818628       -1.2734707528       -1.7907175489
 C         -1.7309820297       -0.1858107992        1.3226445986
 H         -1.2959265371       -0.9917903912       -3.1628108819
 H         -3.8506000248       -1.6508541369       -2.3640293958
 H         -2.4676787016       -0.3942012574        3.0825822514
 O          0.9521906023       -0.8026190572       -0.0742307183
 O          2.6932389704        2.3026499938       -0.1522721681
 O          0.8646620847        1.9907128926       -2.0697078341
 O          3.2002021250       -1.6548644307        1.6686607941
 C          1.6548956659        1.4432906767        0.1970984620
 C          2.0820080790       -0.0361453478        0.3152175583
 C          0.5046475855        1.4080984542       -0.8494472081
 C          0.2768439324       -0.1019227179       -1.0866025954
 C          2.5172476936       -0.4247119794        1.7214294414
 H          1.2678790946        1.7913809712        1.1564522312
 H          2.9109082723       -0.2428594647       -0.3793918657
 H         -0.4029345353        1.8640123703       -0.4399353681
 H          0.6985258677       -0.3464294746       -2.0763874486
 H          1.6193761505       -0.4871975160        2.3461651781
 H          3.1762237010        0.3680597112        2.0989925863
 H          3.0063774898        2.0840232469       -1.0459393309
 H          0.9416929090        2.9507716473       -1.9572988210
 H          3.3979677399       -1.9506003759        2.5685250860
  29
        -55.68960720
 O         -2.5934353719       -1.2705935270        1.9803809744
 O         -0.9366711444        0.2107690823        1.8403097181
 N         -1.1178739788       -0.2732282093       -1.1326064059
 N         -3.2104424509       -0.8199773825       -0.6384500837
 C         -2.0200880861       -0.5479761178       -0.1387667141
 C         -1.7977810130       -0.3972462849       -2.3036099846
 C         -3.0885560515       -0.7199037794       -1.9764614804
 C         -1.7722609221       -0.4960537014        1.3038064088
 H         -1.3246168408       -0.2462023919       -3.2508826019
 H         -3.9292770639       -0.8844323432       -2.6179627071
 H         -2.4728325226       -1.1933734627        2.9489923489
 O          0.9115547633       -0.9756352801       -0.2243047017
 O          3.0215501233        1.2562606210       -1.1264779665
 O          0.5953881486        2.3357171425       -1.4759848056
 O          3.3126195698       -0.1736958087        2.3774122292
 C          2.1397276983        1.0693964012       -0.0512153237
 C          2.1004745771       -0.4157407854        0.3407524211
 C          0.6832094995        1.3563319742       -0.4815150690
 C          0.2931832562       -0.0217808312       -1.0520897673
 C          2.0928886637       -0.6400582936        1.8532734936
 H          2.4561413905        1.6824375082        0.8013874438
 H          2.9740889487       -0.9152326586       -0.0961737454
 H          0.0634486381        1.5722351316        0.3913690786
 H          0.6893620207       -0.0863961438       -2.0790162105
 H          1.9646747708       -1.7146720224        2.0307902232
 H          1.2395822550       -0.1029922740        2.2839479813
 H          2.6526768531        1.9505556421       -1.7024732511
 H          0.3921471113        3.1977480663       -1.0862026136
 H          3.3278541668       -0.3299600590        3.3327447137
  29
        -55.68955420
 O         -3.5050946593       -0.1268545469       -1.8848952632
 O         -1.9044445903        1.3630432423       -1.4505730774
 N         -1.0802106659       -0.3790132989        0.7636693686
 N         -3.0738465504       -1.3297017494        0.5501947498
 C         -2.2238181367       -0.4745034607        0.0157054291
 C         -1.2380082912       -1.2257812025        1.8124662908
 C         -2.4787468617       -1.7943570087        1.6655249945
 C         -2.5013445486        0.3399696274       -1.1666043189
 H         -0.5058509301       -1.3318868638        2.5839500128
 H         -2.9726897267       -2.5044543047        2.2960004352
 H         -3.7120360595        0.4489811212       -2.6486423990
 O          0.5371491535       -0.0443788555       -0.8544327441
 O          2.4804759100        2.1054581551        0.5565494312
 O          1.2054595064        0.8812315233        2.5576847703
 O          4.0224265669       -0.6521139022       -1.6340078793
 C          2.4199173196        0.7089987314        0.4163291495
 C          1.9274884943        0.2578896341       -0.9737096533
 C          1.2938586201        0.2149123444        1.3451608034
 C          0.0775287975        0.3917957999        0.4097482472
 C          2.6637596385       -0.9835192691       -1.4825153368
 H          3.3835969021        0.2497430883        0.6555742090
 H          2.0513269227        1.0751537782       -1.6953622106
 H          1.4311734815       -0.8499612386        1.5556071601
 H         -0.2072689859        1.4562380833        0.3586812821
 H          2.2090023004       -1.2824784693       -2.4331857267
 H          2.5317886727       -1.7964934164       -0.7564051056
 H          3.2715843797        2.4492864140        0.1200720988
 H          1.4422316219        1.8137271911        2.4137200702
 H          4.4943992636       -1.3985249598       -2.0302551378
  29
        -55.68954793
 O         -2.3053553822        1.7375826218       -0.6511282330
 O         -3.7471434450        1.0121195449        0.8822767254
 N         -0.8717847953       -0.7367271681       -0.4247696071
 N         -2.7481915236       -1.6250991357        0.3554566842
 C         -2.1355801102       -0.4964398505        0.0464101780
 C         -0.7034798166       -2.0825475445       -0.3984103410
 C         -1.8767763368       -2.6122621190        0.0757241916
 C         -2.7975752213        0.8052249823        0.1549946727
 H          0.2004725399       -2.5436501688       -0.7331233007
 H         -2.1413564216       -3.6379623696        0.2283062298
 H         -2.8005676436        2.5774319094       -0.5670535598
 O          1.2381571751       -0.3612614502       -1.3816819794
 O          2.5917738678        2.1650543598       -0.2782553582
 O          0.1631055900        2.1748369926        0.8066636964
 O          3.8515749974       -1.4501811821        0.9980801789
 C          2.2237312157        0.9477146251        0.3096526874
 C          2.4277568204       -0.2681864573       -0.5936862679
 C          0.6969159265        0.9162769565        0.5663495918
 C          0.1521672255        0.2424232943       -0.7320074032
 C          2.6847960104       -1.5481857063        0.2260089321
 H          2.7957532437        0.8655344556        1.2355846802
 H          3.2520893062       -0.1137286359       -1.2970826923
 H          0.4585168149        0.2757568812        1.4237322648
 H         -0.2971928654        0.9928347846       -1.3949318452
 H          2.7247327157       -2.4048602100       -0.4566952417
 H          1.8684156788       -1.7030655096        0.9358969554
 H          2.3372366354        2.1754581999       -1.2136953646
 H          0.8194871839        2.8397762041        0.5182775588
 H          4.6329421358       -1.4765462556        0.4269394917
  29
        -55.68951607
 O         -2.4408408792        1.6933363572       -0.6638959631
 O         -4.2556420252        0.5746504452       -0.0251456001
 N         -0.8191889362       -0.5999421555       -0.1538330720
 N         -2.6343709482       -1.6706639264        0.5410218082
 C         -2.1762269116       -0.5327962767        0.0448951426
 C         -0.4329558658       -1.8348821154        0.2481492629
 C         -1.5701379095       -2.4810345607        0.6678379797
 C         -3.0544370963        0.6026184442       -0.2108065034
 H          0.5890856654       -2.1503670590        0.1994089198
 H         -1.6792546904       -3.4738425303        1.0525424718
 H         -3.0745994545        2.4241223566       -0.8116560566
 O          1.1639589373       -0.1839822484       -1.3010547840
 O          3.0093286769        1.6093373781        1.1124167585
 O          0.7354397756        2.6080566081        0.1960014284
 O          2.8130877654       -2.0786445685        0.2235553178
 C          2.0699544694        0.6444414643        0.7337551214
 C          2.4041597699        0.1193031421       -0.6708554614
 C          0.6618250812        1.2564062465        0.5356097359
 C          0.0890420373        0.4218184875       -0.6355130585
 C          3.3172220452       -1.1053881451       -0.6655989731
 H          2.0229675718       -0.1955863264        1.4324398642
 H          2.9023886578        0.9201300008       -1.2354717289
 H          0.0246391871        1.1407898503        1.4230202645
 H         -0.4526989952        1.0740813869       -1.3290856385
 H          4.3145757219       -0.7741615551       -0.3538935011
 H          3.3591882864       -1.4971142518       -1.6875699490
 H          3.0643306631        1.6688927274        2.0767491943
 H          1.6547198815        2.9050773317        0.3440762835
 H          3.3995018311       -2.8480704753        0.2151790363
  29
        -55.68945511
 O         -3.6027717672       -0.0047562024       -1.6571456309
 O         -2.0889620928        1.5490928198       -1.1474756312
 N         -0.8676269425       -0.4486984816        0.6458525409
 N         -2.7770953837       -1.5622811440        0.4313824768
 C         -2.0744777767       -0.5308784614        0.0019123373
 C         -0.8264678650       -1.4931078116        1.5098666907
 C         -2.0183404336       -2.1601626872        1.3687172247
 C         -2.5592041340        0.4376231838       -0.9793275311
 H         -0.0024176811       -1.6738569949        2.1654599652
 H         -2.3682320305       -3.0293726539        1.8863851035
 H         -3.9460265327        0.6653317083       -2.2821115294
 O          0.5702413492        0.2852167159       -1.0108134096
 O          2.4355792861        2.3779117977        0.3441387573
 O          1.3662334035        1.0302370010        2.4125702883
 O          2.6797489015       -1.7361815807       -0.4965694043
 C          2.4882622337        0.9804108375        0.2143653610
 C          1.9816638395        0.4740555423       -1.1461562433
 C          1.4442727025        0.3930220904        1.1818327760
 C          0.1657696341        0.5016039396        0.3247516403
 C          2.6506776630       -0.8350850967       -1.5809451091
 H          3.4883645124        0.5959963851        0.4340071444
 H          2.1293852981        1.2256895208       -1.9293967472
 H          1.6871324873       -0.6576031020        1.3559295802
 H         -0.2620399764        1.5137100958        0.4156220511
 H          3.6694035506       -0.6109349160       -1.9219686106
 H          2.0669687663       -1.2419098305       -2.4138983306
 H          3.1720940270        2.7897224737       -0.1280956425
 H          1.4958277621        1.9838267907        2.2740251888
 H          3.0082028183       -2.5932600831       -0.8029689847
  29
        -55.68945186
 O         -2.6028109405       -1.2516097097        1.9943683039
 O         -0.8729285328        0.1414350556        1.8326922888
 N         -1.1423296697       -0.2748370238       -1.1398681487
 N         -3.2293846177       -0.8098884443       -0.6097790828
 C         -2.0272217981       -0.5501619175       -0.1308215579
 C         -1.8474055829       -0.3795530759       -2.2973979174
 C         -3.1336960552       -0.6973846469       -1.9481151617
 C         -1.7537059229       -0.5160057137        1.3064229622
 H         -1.3960215560       -0.2198515152       -3.2538661704
 H         -3.9875993755       -0.8506988684       -2.5748141099
 H         -2.4622895842       -1.1826472995        2.9608441748
 O          0.9178066880       -0.9737143608       -0.2925586845
 O          3.0316920335        1.5053061127       -0.9430916699
 O          0.6021520656        2.3810238757       -1.4709508790
 O          3.3436365691       -0.3079738031        2.3169675380
 C          2.0851899435        1.0988389297        0.0084387936
 C          2.0863509617       -0.4085786272        0.3058227353
 C          0.6527302532        1.3719796378       -0.5142200175
 C          0.2687496822       -0.0123929991       -1.0901891784
 C          2.1000375838       -0.7216420623        1.8033499535
 H          2.3022731877        1.6767752169        0.9077592349
 H          2.9731207702       -0.8771299689       -0.1432331486
 H         -0.0218119344        1.6168425777        0.3113534714
 H          0.6253645072       -0.0725455971       -2.1325959464
 H          1.9576053113       -1.8030034897        1.9225854568
 H          1.2673240355       -0.1962294521        2.2823709385
 H          3.1517217323        0.8260875247       -1.6232895169
 H          1.5229024380        2.6056679067       -1.7130709860
 H          3.3612741525       -0.4613031344        3.2722053400
  29
        -55.68941414
 O         -3.4130762411       -0.3311911270       -1.8521764284
 O         -1.7224801428        1.1048429092       -1.6290137633
 N         -0.9808291830       -0.3423901374        0.8124628139
 N         -2.9539558639       -1.3451359271        0.6456614884
 C         -2.1080257335       -0.5245675215        0.0530977360
 C         -1.1465313471       -1.0970555296        1.9276842683
 C         -2.3743084282       -1.7001059282        1.8071906485
 C         -2.3701161277        0.1609269276       -1.2106180895
 H         -0.4299810400       -1.1245078609        2.7201020863
 H         -2.8678081608       -2.3632062903        2.4872449720
 H         -3.6009605646        0.1551086722       -2.6803782456
 O          0.7521275554       -0.1690135831       -0.7113252197
 O          2.4339324051        2.3431329225        0.5141071081
 O          1.0892176451        1.2902409049        2.5539832162
 O          2.6923546570       -1.3684713118       -2.4921217457
 C          2.4682216419        0.9399236562        0.5360751599
 C          2.0999741740        0.3056356946       -0.8237675145
 C          1.3140676066        0.4801789296        1.4523185262
 C          0.1634780474        0.4290586571        0.4240745913
 C          2.9953077321       -0.8755731433       -1.2137126072
 H          3.4340984190        0.5752537419        0.8989351808
 H          2.1270113310        1.0665639074       -1.6149748540
 H          1.5167544530       -0.5321359970        1.8142023829
 H         -0.1676418435        1.4529171770        0.1817193282
 H          2.8897509467       -1.6657069439       -0.4583965825
 H          4.0368670910       -0.5524043522       -1.2573044642
 H          3.2307940293        2.6965943275        0.0963726936
 H          1.2584876376        2.2131640421        2.2972285208
 H          1.7532082079       -1.5993273873       -2.5210699562
  29
        -55.68939361
 O         -2.3261405173        0.7602823322       -1.6113451910
 O         -1.2384052290       -1.0528941627       -2.3188478248
 N         -1.0027150856       -0.1910369945        0.9483703214
 N         -2.4912271718       -1.7667105588        0.5117682615
 C         -1.7509696784       -0.8123724610        0.0000717050
 C         -1.2996345771       -0.7965234075        2.1356329062
 C         -2.2221610007       -1.7598913571        1.8443108629
 C         -1.7240272147       -0.3918459522       -1.4253598124
 H         -0.8451720343       -0.4905311672        3.0539474111
 H         -2.7128840802       -2.4499399680        2.4986612930
 H         -2.3222770412        1.0499150869       -2.5476023757
 O          0.3045639890        0.8859911709       -0.6522952527
 O          2.6170360022        2.3023472833        0.5372372177
 O          1.3660385763        1.3718285410        2.6726194923
 O          1.6053076296       -1.2717498707       -2.5205256304
 C          2.3657016669        0.9241204901        0.4659450551
 C          1.6741160063        0.5109789919       -0.8416490796
 C          1.2765625862        0.6152560715        1.5139096286
 C         -0.0316955091        0.8551945094        0.7085399335
 C          1.8399596782       -0.9865111175       -1.1667693806
 H          3.2745457950        0.3441110248        0.6511017195
 H          2.0239182308        1.0919777060       -1.6997645067
 H          1.3301775196       -0.4382622114        1.8064544280
 H         -0.4807191813        1.8224199144        0.9791121938
 H          1.1837597863       -1.5809396831       -0.5196824054
 H          2.8777057271       -1.2756881496       -0.9836380708
 H          3.3722880867        2.5389804847       -0.0181380782
 H          1.7191282657        2.2492648117        2.4413865348
 H          0.6495598344       -1.2645979831       -2.6992016978
  29
        -55.68935555
 O         -2.4993805381        1.0829751547       -1.2998557124
 O         -1.6733745277       -0.6362968932       -2.4566614753
 N         -1.0110249941       -0.3062859754        0.8954338634
 N         -2.5069424186       -1.8319145849        0.3212971543
 C         -1.8336205893       -0.7794597386       -0.0793972637
 C         -1.1921135729       -1.1157100031        1.9798756192
 C         -2.1207105997       -2.0445149635        1.6058898917
 C         -1.9718521389       -0.1202736154       -1.4030306866
 H         -0.6739796055       -0.9562464221        2.9014858356
 H         -2.5393753431       -2.8506140103        2.1716536217
 H         -2.6087753348        1.5242532713       -2.1676130659
 O          0.1762096401        1.0412776436       -0.5996401958
 O          2.7787106564        2.1284964977        0.4388548099
 O          1.4754109072        1.2888585673        2.5933804850
 O          2.7532218871       -1.3887972457       -1.6494771582
 C          2.3057934865        0.8146478762        0.3300218955
 C          1.4793017327        0.5605981431       -0.9318751116
 C          1.2795407602        0.5153348698        1.4544885741
 C         -0.0859600172        0.8004812544        0.7596651711
 C          1.4691114551       -0.9295521313       -1.3234410025
 H          3.1775349252        0.1608752040        0.3850264290
 H          1.8226193284        1.1630241568       -1.7773162198
 H          1.3312982865       -0.5405563690        1.7391762275
 H         -0.5566773355        1.6992847394        1.1831623734
 H          0.7553041273       -1.0794808381       -2.1415005939
 H          1.1389502292       -1.5334666338       -0.4742115808
 H          2.1117259294        2.7498722549        0.1077795828
 H          2.1108929134        1.9980241958        2.3745496000
 H          3.0157986950       -1.0520873137       -2.5181777713
  29
        -55.68932812
 O         -2.3429394698        1.7895316030       -0.5181503397
 O         -4.2304878134        0.8273927968        0.1595392084
 N         -0.9596230272       -0.6939410758       -0.2423065776
 N         -2.8152518562       -1.5876786364        0.5862183907
 C         -2.2755954471       -0.4860685668        0.0907594914
 C         -0.6875987547       -1.9839213070        0.0658088007
 C         -1.8473873305       -2.5177056302        0.5751507729
 C         -3.0427657155        0.7403382269       -0.0766623912
 H          0.2717086961       -2.4167246666       -0.1235089950
 H         -2.0329612854       -3.5101170828        0.9302982625
 H         -2.9418589939        2.5546069928       -0.6433967175
 O          1.1038164531       -0.4238637478       -1.3010803390
 O          2.7231203751        1.2695766952        1.4286417241
 O          0.9135081949        2.4471878633       -0.1729970348
 O          4.4492519704       -1.0367012740        0.0491940843
 C          1.7922174470        0.4675068565        0.7792402557
 C          2.2835385244       -0.1231575254       -0.5572918075
 C          0.5161312536        1.2052746317        0.3272384434
 C         -0.0053320275        0.2584713227       -0.7815043187
 C          3.1596595570       -1.3681710841       -0.3936857565
 H          1.5278236101       -0.3404082384        1.4709486390
 H          2.8605242930        0.6399340228       -1.0996546632
 H         -0.2167458258        1.3073244326        1.1347283633
 H         -0.4940775521        0.8160134216       -1.5896305540
 H          3.2797802184       -1.8512182647       -1.3656697208
 H          2.6800950364       -2.0754638938        0.2974625127
 H          2.7415457910        2.1374533516        0.9911496994
 H          0.1430268492        2.9959910616       -0.3712120663
 H          4.3857590837       -0.5342326165        0.8758637604
  29
        -55.68931197
 O         -2.3934793435        1.7329313508       -0.4681921608
 O         -4.2077548818        0.5676275129        0.0781113793
 N         -0.7904944694       -0.6198575066       -0.2181239739
 N         -2.5661486748       -1.6881993538        0.5800851769
 C         -2.1290523514       -0.5425665679        0.0818244056
 C         -0.3943312858       -1.8707049212        0.1157089214
 C         -1.5071515524       -2.5126802620        0.6061231285
 C         -3.0060276737        0.6038260361       -0.0970598059
 H          0.6125750780       -2.2088220097       -0.0220478997
 H         -1.5976150076       -3.5140512519        0.9729618725
 H         -3.0575859562        2.4422543718       -0.5904660900
 O          1.1925538289       -0.1621715325       -1.3714102339
 O          2.8163778512        1.4739367801        1.3889335484
 O          0.9179313001        2.6212427836       -0.1339553355
 O          2.8513037706       -2.1050822255        0.3199512328
 C          1.9054030344        0.6524190690        0.7364533837
 C          2.3837406905        0.1256976687       -0.6312044234
 C          0.5867632501        1.3507500026        0.3460255254
 C          0.0695562499        0.4131712805       -0.7697862517
 C          3.2900269348       -1.1130438744       -0.5791561633
 H          1.6880457583       -0.1864735813        1.4048733178
 H          2.9237159986        0.9247441820       -1.1574626922
 H         -0.1227830863        1.4031911001        1.1788732254
 H         -0.4982357894        0.9606957216       -1.5310245111
 H          4.3061830551       -0.7881544764       -0.3437484356
 H          3.2783754364       -1.5677821359       -1.5728908487
 H          2.8024134211        2.3475076307        0.9634784329
 H          0.1199937928        3.1430999889       -0.2916462637
 H          3.2215993288       -1.9406650281        1.1973439062
  29
        -55.68930084
 O         -4.0712933161       -0.1596523229       -1.2424354804
 O         -2.6143634847        1.5205909139       -1.1190243980
 N         -0.8727295803       -0.3018459110        0.4328124754
 N         -2.6188082574       -1.6748778076        0.4565208340
 C         -2.1509213665       -0.5319615579       -0.0077457175
 C         -0.5413127527       -1.3759192431        1.1975171248
 C         -1.6340706252       -2.2059498681        1.2039236375
 C         -2.9390538003        0.3792242143       -0.8374114238
 H          0.4072169160       -1.4725014966        1.6814718283
 H         -1.7663283984       -3.1443749372        1.7014915315
 H         -4.6087740472        0.4632636910       -1.7727090144
 O          0.7247786793        0.4503221044       -1.1177309783
 O          3.3826637576        1.4604347103        0.5921201666
 O          1.1277049971        2.5525845400        1.2853797768
 O          3.4918947074       -1.8449815376       -0.5416791843
 C          2.3471474475        0.5197051304        0.6473302496
 C          2.0441293814        0.0348459879       -0.7837154955
 C          1.0155993736        1.1710141166        1.1339290999
 C         -0.0036889550        0.7909196031        0.0346165158
 C          2.1983546331       -1.4819028859       -0.9588120619
 H          2.6268355439       -0.3320131483        1.2747025401
 H          2.7331755371        0.5375851338       -1.4715141363
 H          0.6901501255        0.7890783960        2.1044528056
 H         -0.6461567773        1.6405052672       -0.2206185927
 H          2.0319629581       -1.7145105052       -2.0165368273
 H          1.4344413602       -2.0017715054       -0.3647785294
 H          3.7696480712        1.5852933518        1.4708096749
 H          1.7749733119        2.8934492180        0.6429232950
 H          3.6628671408       -2.7657807609       -0.7845827950
  29
        -55.68919354
 O         -2.1691534418       -1.1677235388        2.1659634964
 O         -0.8670373896        0.5728924090        1.6757532021
 N         -1.1185375916       -0.4105815176       -1.1682451677
 N         -3.0771043816       -1.1445726321       -0.4317828704
 C         -1.9043863049       -0.6589453964       -0.0756524433
 C         -1.8509479718       -0.7823283049       -2.2530388915
 C         -3.0592104893       -1.2172639445       -1.7791105384
 C         -1.5684005070       -0.3551496748        1.3216956291
 H         -1.4659029076       -0.7062716324       -3.2479680791
 H         -3.9100511937       -1.5750279099       -2.3208351629
 H         -2.0103584603       -0.9215190480        3.1000716058
 O          1.0230816304       -0.8752518992       -0.4178286917
 O          2.7631552775        2.1659554102       -0.0211751297
 O          0.8889286333        2.2569673861       -1.8301379352
 O          2.0020659900       -0.6979178338        2.3329712292
 C          1.7215121139        1.2712668645        0.2522472620
 C          2.1835375412       -0.1732084460       -0.0070434310
 C          0.5435978723        1.4464209354       -0.7467542485
 C          0.2565976221       -0.0051313983       -1.2184469666
 C          2.8173593938       -0.8610111629        1.1971502205
 H          1.3496299897        1.3427103084        1.2754670886
 H          2.9153540387       -0.1594956598       -0.8303181801
 H         -0.3388152931        1.8644805788       -0.2526493594
 H          0.5766609917       -0.0776069280       -2.2716095949
 H          3.8032267848       -0.4065510380        1.3577795050
 H          2.9349792235       -1.9223630557        0.9497589192
 H          2.6887703808        2.9471070817        0.5451519794
 H          1.8218986453        2.5275887474       -1.7072093744
 H          2.3951140037       -1.1830727063        3.0726475388
  29
        -55.68919187
 O         -2.2541850116        1.8158623824       -0.4895444752
 O         -4.1676239697        0.6933815146       -0.3378115971
 N         -0.7903247108       -0.6268104332       -0.0781122306
 N         -2.7297496992       -1.6531044516        0.2418630446
 C         -2.1567803091       -0.5009406368       -0.0647300770
 C         -0.5210459881       -1.9186940879        0.2343641464
 C         -1.7318657587       -2.5350364977        0.4261944966
 C         -2.9525496937        0.6978900676       -0.3083252841
 H          0.4852111154       -2.2783451003        0.2921450536
 H         -1.9399713560       -3.5522299521        0.6864428539
 H         -2.8422310452        2.5856758916       -0.6305180596
 O          1.1496753316       -0.1987450674       -1.2833713450
 O          2.5860847145        2.3239857765       -0.0870735765
 O          0.4768813901        1.8644517681        1.4905450302
 O          2.7282411136       -1.8178800764        0.6442620523
 C          2.4442403422        0.9913577567        0.3236730052
 C          2.5005475184        0.0387453481       -0.8788717529
 C          1.0367909227        0.7284866803        0.9011192033
 C          0.2371726417        0.3436153036       -0.3634409861
 C          3.2187601222       -1.2772737610       -0.5656666756
 H          3.2296884489        0.7484487517        1.0496228596
 H          3.0089742934        0.5284565673       -1.7160871286
 H          1.0702349684       -0.1308388952        1.5777173721
 H         -0.2372011999        1.2395922690       -0.7810169622
 H          4.2910978128       -1.0679167639       -0.4913053610
 H          3.0368490457       -1.9669487760       -1.3983634044
 H          1.8777330711        2.8457780691        0.3328742566
 H          0.6933116364        1.8986659509        2.4333093464
 H          3.2739190482       -2.5776043280        0.8929676145
  29
        -55.68918267
 O         -2.2739908940        1.6549795632       -0.7800571322
 O         -3.8264263002        0.9129178292        0.6316374466
 N         -0.7223003847       -0.7072863831       -0.2767309425
 N         -2.5836959129       -1.6515282332        0.4756908664
 C         -2.0305507077       -0.5153720728        0.0870922360
 C         -0.4632392177       -2.0264395760       -0.0987155009
 C         -1.6287669465       -2.5915742977        0.3564600859
 C         -2.7873236199        0.7335772149        0.0280521377
 H          0.4909396113       -2.4591118770       -0.3180026116
 H         -1.8307232014       -3.6138947138        0.6007419458
 H         -2.8354210031        2.4558543740       -0.8047920574
 O          1.3919776302       -0.2635445814       -1.2022429944
 O          2.6016253598        2.3545912755       -0.2448534523
 O          0.1212968605        2.3677448360        0.7318659321
 O          2.7599677469       -2.5245809274       -0.1231722777
 C          2.2465223643        1.1826144098        0.4347746230
 C          2.5330403680       -0.0956910382       -0.3547640845
 C          0.7089477356        1.1150999921        0.6238804896
 C          0.2497606586        0.3090575001       -0.6320748790
 C          2.7749015957       -1.3038646157        0.5692078964
 H          2.7687288125        1.2149432925        1.3917546483
 H          3.3854723542        0.0210664480       -1.0310784352
 H          0.4518118007        0.5441959002        1.5237888584
 H         -0.2227573721        0.9741096613       -1.3655844378
 H          1.9782000086       -1.3767094585        1.3131155839
 H          3.7285652119       -1.1546704493        1.0897903878
 H          2.4042058174        2.2657415134       -1.1900128928
 H          0.7517396954        3.0296265619        0.3858803331
 H          3.4723984804       -2.5425058104       -0.7781341394
  29
        -55.68916164
 O         -3.8693880129        0.8019643552        0.5457408469
 O         -2.3135693426        1.7162579517       -0.7652221759
 N         -0.7047234423       -0.6908363779       -0.3037591172
 N         -2.5975343389       -1.6390817534        0.3557669121
 C         -2.0199195277       -0.4979633915        0.0223339978
 C         -0.4608483543       -2.0165133242       -0.1624088986
 C         -1.6461508129       -2.5837905682        0.2388515866
 C         -2.7203288391        0.7782493081       -0.1009744217
 H          0.4936023733       -2.4425028803       -0.3930190089
 H         -1.8648877510       -3.6110306048        0.4452456958
 H         -4.3471144007        1.6467957612        0.4195096433
 O          1.4162761173       -0.2204386675       -1.1835939387
 O          2.5912819351        2.3544338893       -0.1972007254
 O          0.1219377956        2.3262218795        0.8733820585
 O          2.8664158845       -2.4678542550       -0.1792453709
 C          2.2579239118        1.1786969809        0.4868083371
 C          2.5429298464       -0.0940344031       -0.3125006178
 C          0.7233620267        1.0898982377        0.6878537328
 C          0.2704558751        0.3366855556       -0.6034049038
 C          2.7577564709       -1.3048746637        0.6079341838
 H          2.7888617801        1.2181955605        1.4384733846
 H          3.4100134366       -0.0019515005       -0.9718667730
 H          0.4784086975        0.4766411014        1.5623017784
 H         -0.2013324896        1.0358893997       -1.3068803462
 H          1.9187152733       -1.3955680584        1.3111476545
 H          3.6783718005       -1.1213988966        1.1722156973
 H          2.3922780155        2.2569358290       -1.1407784956
 H          0.6899566538        3.0085072146        0.4681928257
 H          3.2290343992       -3.1887163115        0.3548169663
  29
        -55.68913930
 O         -2.3229997340        1.7777583000       -0.5637521312
 O         -4.1899123061        0.9019198710        0.2766237341
 N         -0.9775078812       -0.7023332055       -0.2637042784
 N         -2.8484057782       -1.5829153063        0.5430575930
 C         -2.2889277639       -0.4798262527        0.0755195527
 C         -0.7287700353       -2.0048456386        0.0141430980
 C         -1.8973957316       -2.5312886739        0.5069943753
 C         -3.0268991655        0.7734061522       -0.0511231905
 H          0.2236013607       -2.4483078207       -0.1831719473
 H         -2.1032613632       -3.5290080804        0.8351237943
 H         -2.8617122827        2.5914575127       -0.6364809648
 O          1.0949700220       -0.4571813762       -1.2951361837
 O          2.7510950377        1.3703058436        1.2972871047
 O          0.7568383950        2.4312486273       -0.1333335649
 O          4.3329021545       -0.9388457792        0.2579954744
 C          1.8575783752        0.4490048369        0.7498640944
 C          2.2953403826       -0.1271527280       -0.6060301456
 C          0.5392309556        1.1494585652        0.3722517851
 C          0.0030781821        0.2446689062       -0.7593746280
 C          3.1983984115       -1.3506907925       -0.4685262227
 H          1.6484315144       -0.3696898703        1.4547400790
 H          2.8303845913        0.6561659113       -1.1619570517
 H         -0.1660277446        1.1806137123        1.2148378360
 H         -0.4606020937        0.8622377333       -1.5375728759
 H          3.4623245011       -1.7116476630       -1.4678804405
 H          2.6591779355       -2.1432835140        0.0671106324
 H          3.6259237923        0.9553112927        1.3600709511
 H          1.4461733701        2.8537212406        0.4078975876
 H          4.9787246130       -1.6582987806        0.2914623777
  29
        -55.68909803
 O         -2.3721291721       -0.5787294355       -2.2779417442
 O         -2.4347839841        1.3337541548       -1.1322079831
 N         -0.8382373167       -0.2848659691        0.8542107916
 N         -2.4559616575       -1.7322505034        0.4107773751
 C         -1.8191931141       -0.6602908291       -0.0112764946
 C         -0.8684842158       -1.1785692113        1.8805639704
 C         -1.8774647831       -2.0563890886        1.5913127821
 C         -2.2178010850        0.1402730957       -1.1847522104
 H         -0.2069066935       -1.1114614830        2.7176332430
 H         -2.2246221295       -2.8969542058        2.1557185277
 H         -2.7173195453       -0.0498357239       -3.0270996090
 O          0.2891053212        0.9721182729       -0.7532322208
 O          2.8453896795        2.1760149152        0.2697675635
 O          1.7507850745        1.1393317832        2.4326078710
 O          1.5839667887       -1.7559949129       -0.6253799184
 C          2.4770277455        0.8326067522        0.0984101392
 C          1.6112542577        0.6064995715       -1.1494927077
 C          1.5043621053        0.4704164647        1.2405576615
 C          0.1123180572        0.7851888163        0.6249481615
 C          1.6833204953       -0.8295948286       -1.6848552757
 H          3.3494114982        0.1731091730        0.1070194750
 H          1.8711419571        1.2945340228       -1.9586040583
 H          1.5734393032       -0.6023551754        1.4368476374
 H         -0.3008746417        1.7143555399        1.0454534325
 H          2.6383415764       -0.9487932112       -2.2109664468
 H          0.8575317673       -0.9635226509       -2.3943739934
 H          3.5791736115        2.4033226711       -0.3171386525
 H          2.1013614947        2.0223973124        2.2215837382
 H          1.6565701406       -2.6521616960       -0.9839351589
  29
        -55.68900436
 O         -2.4789504205        1.0703577147       -1.3430812870
 O         -1.6556109541       -0.6821877145       -2.4518371363
 N         -1.0229957618       -0.2857329983        0.8993683035
 N         -2.5243837559       -1.8102636111        0.3378231607
 C         -1.8391185214       -0.7700064013       -0.0751428095
 C         -1.2215989594       -1.0739314416        1.9965517455
 C         -2.1535818025       -2.0022826783        1.6301898471
 C         -1.9595537061       -0.1382112926       -1.4137159542
 H         -0.7100687185       -0.9010243985        2.9194446635
 H         -2.5847242853       -2.7946897771        2.2058460763
 H         -2.5752961778        1.4934259339       -2.2213024311
 O          0.1852702639        1.0457909433       -0.5984005956
 O          2.7804838597        2.1089458680        0.4560567385
 O          1.4844357690        1.2509854597        2.6038025582
 O          2.7747982199       -1.2797585903       -1.6984797780
 C          2.3089796373        0.7954074884        0.3355703505
 C          1.4837901875        0.5557222718       -0.9293508534
 C          1.2791277013        0.4946711242        1.4556335531
 C         -0.0808968268        0.8063720454        0.7608934883
 C          1.4628558288       -0.9209180027       -1.3437923547
 H          3.1811148691        0.1427463470        0.3836257041
 H          1.8473134148        1.1484629665       -1.7724577135
 H          1.3151992380       -0.5647108376        1.7294441725
 H         -0.5358917158        1.7118773108        1.1870749558
 H          0.7667133792       -1.0344516925       -2.1833488602
 H          1.1007357014       -1.5383619706       -0.5097887153
 H          2.1281630913        2.7298439607        0.0967623779
 H          2.1121155440        1.9677498320        2.3865593955
 H          2.7743808555       -2.1661466477       -2.0865525347
  29
        -55.68896073
 O         -2.3042018134        1.7863875336       -0.5743043042
 O         -4.1938795144        0.6412304894       -0.3337046095
 N         -0.7909576001       -0.6132832475       -0.0554192639
 N         -2.7150272685       -1.6671907318        0.2680935013
 C         -2.1599054652       -0.5113448412       -0.0567395772
 C         -0.5021531825       -1.8931500091        0.2866692840
 C         -1.7036573294       -2.5272020326        0.4794755236
 C         -2.9786473748        0.6651156579       -0.3302129526
 H          0.5095036611       -2.2336449109        0.3648740345
 H         -1.8963407715       -3.5428515688        0.7570932246
 H         -2.9103300195        2.5398442349       -0.7255902941
 O          1.1217014693       -0.1420939363       -1.2978758960
 O          2.7652218519        2.2927253544        0.0585691707
 O          0.4711724059        1.9408278239        1.4334017038
 O          2.6956612391       -1.8461510572        0.6114340100
 C          2.4615164599        0.9593837086        0.3494789675
 C          2.4784885058        0.0376133533       -0.8852849525
 C          1.0265211649        0.7765642954        0.8999568040
 C          0.2188062194        0.3735442698       -0.3526170904
 C          3.1607649834       -1.3069126315       -0.6090246141
 H          3.2113997710        0.6380687675        1.0747779281
 H          3.0045544970        0.5223622179       -1.7149971386
 H          1.0144321429       -0.0528795373        1.6194755527
 H         -0.2870911745        1.2572828034       -0.7585739492
 H          4.2411949732       -1.1329633609       -0.5679372118
 H          2.9299386235       -1.9817148012       -1.4421139297
 H          2.0143692330        2.7216738466       -0.3781237855
 H          0.9825367670        2.2273680692        2.2045245844
 H          3.2329181782       -2.6180718820        0.8391656096
  29
        -55.68889867
 O         -2.3810273186        1.7057617343       -0.5655963876
 O         -4.2040379921        0.6019801690        0.0777985502
 N         -0.7949560481       -0.6281550160       -0.1847890250
 N         -2.5986757937       -1.6831514622        0.5641353245
 C         -2.1433869170       -0.5441853326        0.0691832352
 C         -0.4126758021       -1.8747295653        0.1791881483
 C         -1.5428037481       -2.5102998398        0.6348001090
 C         -3.0070027017        0.6116034506       -0.1324113694
 H          0.6018069130       -2.2044508699        0.0911529509
 H         -1.6503666574       -3.5079756472        1.0070655403
 H         -3.0069336659        2.4501460182       -0.6750322281
 O          1.1942113963       -0.1800749473       -1.3457765225
 O          2.9164271095        1.5802454950        1.2488293599
 O          0.7570625700        2.6430514862        0.0520761803
 O          2.7419281003       -2.0932544696        0.2733544296
 C          2.0003743466        0.6692853882        0.7250686196
 C          2.4109809269        0.1099023580       -0.6522286729
 C          0.6229955224        1.3018392168        0.4205659635
 C          0.0864152268        0.3983479985       -0.7099654437
 C          3.3121652164       -1.1210213323       -0.5742917440
 H          1.8949589551       -0.1606048403        1.4317380388
 H          2.9581316675        0.8794877977       -1.2154119117
 H         -0.0392707672        1.2927672397        1.2885017619
 H         -0.4840324724        0.9775890936       -1.4459331637
 H          4.2808061168       -0.7865804186       -0.1857568655
 H          3.4356003646       -1.5194939022       -1.5884276675
 H          2.5906277905        2.4810630938        1.0664473882
 H          1.1334677673        2.7173479573       -0.8380263974
 H          3.3676280466       -2.8218587649        0.3860724518
  29
        -55.68887891
 O         -4.0718897654        0.7072640852        0.3917108586
 O         -2.4055198089        1.6916319032       -0.7207163458
 N         -0.7929281676       -0.6798739712       -0.2225585084
 N         -2.6207910043       -1.6007404011        0.6368733696
 C         -2.1050091421       -0.4941104858        0.1316980360
 C         -0.4958952986       -1.9673568620        0.0730328410
 C         -1.6389717492       -2.5173222033        0.6034871240
 C         -2.8515990224        0.7356938268       -0.1061212156
 H          0.4601905257       -2.3929437955       -0.1462688376
 H         -1.8032518139       -3.5142158620        0.9566093797
 H         -4.5689843526        1.5286470880        0.2021595247
 O          1.3076051367       -0.2797747867       -1.1880255540
 O          2.6256466693        1.7467984592        1.4228280601
 O          0.7559709240        2.6346684538       -0.2790834267
 O          3.4714611577       -2.1400214928       -0.8514245433
 C          1.7688713271        0.7800533629        0.9038393048
 C          2.3784289510       -0.0139019433       -0.2715578626
 C          0.4891531733        1.3801765499        0.2733178745
 C          0.1133960295        0.3140089695       -0.7743633643
 C          3.0714717654       -1.2995088094        0.1973821966
 H          1.5030759951        0.0939911704        1.7160380331
 H          3.1122494861        0.6102282531       -0.7992648179
 H         -0.3031991257        1.5314927238        1.0080151979
 H         -0.3844274292        0.7698311750       -1.6402477390
 H          2.3893306798       -1.8950547322        0.8083055655
 H          3.9232454706       -1.0010444018        0.8227119960
 H          2.3892132643        2.6079561677        1.0295143250
 H          1.2041423201        2.5433653102       -1.1335372560
 H          4.1005263898       -1.6782129393       -1.4233416762
  29
        -55.68881722
 O         -2.3373129734        1.7723774910       -0.5831022069
 O         -4.1954321991        0.8972569286        0.2775855270
 N         -0.9775012225       -0.6979231749       -0.2554604098
 N         -2.8421270895       -1.5771582653        0.5668498627
 C         -2.2888378056       -0.4770599834        0.0850971717
 C         -0.7219654714       -1.9961015660        0.0364054237
 C         -1.8869867079       -2.5215231224        0.5392192355
 C         -3.0334811424        0.7705831336       -0.0542754998
 H          0.2319357180       -2.4381074581       -0.1577675874
 H         -2.0873120537       -3.5164611533        0.8789077800
 H         -2.8817928306        2.5814542716       -0.6665850307
 O          1.0956934881       -0.4522199696       -1.2873400656
 O          2.7182087073        1.3536600611        1.3464545973
 O          0.7761106935        2.4328486984       -0.1704547059
 O          4.4130639977       -1.0148548863        0.1627253911
 C          1.8274432281        0.4482529284        0.7688494798
 C          2.2895458709       -0.1260421029       -0.5812131599
 C          0.5282432060        1.1664857064        0.3601219251
 C         -0.0017203922        0.2482272900       -0.7625479651
 C          3.1902594155       -1.3580389214       -0.4407944454
 H          1.5850648843       -0.3725437117        1.4595035882
 H          2.8211529304        0.6650745326       -1.1312023369
 H         -0.1888724726        1.2255421847        1.1906577406
 H         -0.4670390540        0.8532986499       -1.5493450453
 H          3.3279406051       -1.8165566368       -1.4241432663
 H          2.7153556263       -2.0876596262        0.2208310785
 H          3.5414522087        0.8913771479        1.5658343809
 H          1.4259650997        2.8778864653        0.3995656991
 H          5.0044206864       -0.6211979248       -0.4939837857
  29
        -55.68880019
 O         -2.4945548700        1.6817803440       -0.6400728052
 O         -4.2856814936        0.3737098412       -0.4669937000
 N         -0.8080651688       -0.5562960447       -0.0090542162
 N         -2.6333937586       -1.6616023714        0.6039470292
 C         -2.1802878855       -0.5465698236        0.0573634158
 C         -0.4096175623       -1.7359127254        0.5296025549
 C         -1.5519504485       -2.4024716528        0.8990288026
 C         -3.0836978699        0.5148497359       -0.3710805537
 H          0.6215124967       -2.0159452257        0.5953834311
 H         -1.6521691346       -3.3632249159        1.3598456461
 H         -3.1585843286        2.3420651036       -0.9276478884
 O          1.1472701602       -0.1448571810       -1.2226554950
 O          3.0356888432        1.4555419124        1.3844267491
 O          0.9300873018        2.6250950490        0.2443039584
 O          2.7724740166       -2.1960074512       -0.3225268993
 C          2.0794586134        0.6293436212        0.8073714209
 C          2.4029990702        0.1994284768       -0.6367156394
 C          0.7001876690        1.2977995594        0.6224170871
 C          0.0860845411        0.4587659371       -0.5262452334
 C          3.3709592794       -0.9876168283       -0.7229558146
 H          1.9984002065       -0.2557287965        1.4455630822
 H          2.8311089868        1.0561199610       -1.1753357398
 H          0.0823792873        1.2331429564        1.5239165081
 H         -0.4786722505        1.0934231691       -1.2176801365
 H          4.1975332595       -0.7990813500       -0.0342064052
 H          3.7616763839       -1.0682965860       -1.7417258854
 H          2.9208534005        2.3535423893        1.0291297570
 H          0.1182130170        3.1458288017        0.3058891196
 H          2.1859202288       -2.4918879234       -1.0334713066
  29
        -55.68877822
 O         -2.2823542203        1.8162146245       -0.2031072010
 O         -4.1222429428        0.6606603766       -0.6904119794
 N         -0.7980329314       -0.6188314538       -0.0280635574
 N         -2.7326090083       -1.6895869878        0.1581133317
 C         -2.1656380983       -0.5245816029       -0.1014298846
 C         -0.5205659280       -1.9108804141        0.2815404335
 C         -1.7276146172       -2.5522159210        0.3971770859
 C         -2.9515431742        0.6767634058       -0.3689151797
 H          0.4878939089       -2.2539136101        0.3851091768
 H         -1.9298887299       -3.5745855097        0.6410923683
 H         -2.8494088097        2.5948761881       -0.3760887594
 O          1.1174404553       -0.1702185097       -1.2581604378
 O          2.5732683632        2.3255907950       -0.1227289475
 O          0.6092949975        1.8830777195        1.5996073208
 O          2.7179814902       -1.8177576348        0.6315178250
 C          2.4416430269        1.0053064269        0.3259564081
 C          2.4755705057        0.0537093039       -0.8749099475
 C          1.0538330396        0.7390489031        0.9368851670
 C          0.2199575964        0.3622791543       -0.3146355508
 C          3.1929233836       -1.2668387840       -0.5798181565
 H          3.2361638112        0.7675335289        1.0445414778
 H          2.9729644015        0.5454609731       -1.7174691978
 H          1.1167358719       -0.1307012391        1.6015169318
 H         -0.2605881973        1.2604271032       -0.7218877417
 H          4.2663979929       -1.0601720323       -0.5180903762
 H          2.9983442468       -1.9495989566       -1.4155291861
 H          2.1498369655        2.9092830716        0.5283196722
 H         -0.1905212652        1.6974647299        2.1080056989
 H          3.2751387659       -2.5714034206        0.8730998798
  29
        -55.68877325
 O         -3.9266142374        0.8186587315        0.4295896021
 O         -2.2929760023        1.7412285298       -0.7746550460
 N         -0.7268964808       -0.6866530187       -0.2679322461
 N         -2.6410676241       -1.6083327182        0.3675598721
 C         -2.0490220669       -0.4790102390        0.0173669875
 C         -0.4935255145       -2.0081541482       -0.0801233161
 C         -1.6917566504       -2.5595063959        0.3049105012
 C         -2.7391769161        0.7973849043       -0.1446672969
 H          0.4652790470       -2.4422118551       -0.2728908343
 H         -1.9206571247       -3.5793132464        0.5358351481
 H         -4.3924282711        1.6664951172        0.2811532553
 O          1.3915308119       -0.2741585773       -1.1576809108
 O          2.4568099137        2.3661884178       -0.2403149860
 O          0.1131347538        2.2328062377        1.0061685736
 O          2.9954666888       -2.4379663052       -0.2742919029
 C          2.2713833037        1.1739638159        0.4736567952
 C          2.5600078331       -0.0809813751       -0.3614178647
 C          0.7545536153        1.0361968914        0.7312690321
 C          0.2719099132        0.3174066223       -0.5655250803
 C          2.8884025703       -1.2883373864        0.5314516279
 H          2.8336938735        1.1820771831        1.4132458144
 H          3.3727360888        0.0579804165       -1.0794588782
 H          0.5698805498        0.3817022064        1.5900062143
 H         -0.1778082547        1.0441543567       -1.2555113227
 H          2.0998698716       -1.4198311466        1.2851382632
 H          3.8353610827       -1.0739702819        1.0396821970
 H          3.3995527773        2.5550228754       -0.3461722919
 H          0.4893305621        2.9228633375        0.4328426231
 H          3.3987652936       -3.1548496081        0.2355879675
  29
        -55.68875070
 O         -2.3101098344        1.7278739992       -0.6439744818
 O         -3.6910257330        1.0126720585        0.9503353462
 N         -0.8642233971       -0.7365513794       -0.4501117406
 N         -2.7264300577       -1.6334936699        0.3538273439
 C         -2.1169393241       -0.5016714526        0.0513491136
 C         -0.6999545764       -2.0834166868       -0.4527297633
 C         -1.8640379691       -2.6181823445        0.0375782213
 C         -2.7721849907        0.8019461473        0.1858507575
 H          0.1943827128       -2.5395600862       -0.8187012453
 H         -2.1291263534       -3.6456179280        0.1771144356
 H         -2.7958804221        2.5713315304       -0.5438245940
 O          1.2562920887       -0.3609517117       -1.3843312765
 O          2.6033332778        2.1437014398       -0.3036108049
 O          0.1630400779        2.2195348727        0.7276398576
 O          3.8210381442       -1.3980991917        1.0011767310
 C          2.2125517783        0.9481171959        0.3136251530
 C          2.4168534925       -0.2916133301       -0.5553813521
 C          0.6791571123        0.9460930760        0.5347496549
 C          0.1569985100        0.2461755869       -0.7600440820
 C          2.6181998002       -1.5570658827        0.2896306943
 H          2.7686704629        0.8858625575        1.2497328808
 H          3.2807428679       -0.1807749026       -1.2168325059
 H          0.4065886551        0.3355254882        1.4035392104
 H         -0.2864943753        0.9823343900       -1.4424892659
 H          2.6684876278       -2.4196527167       -0.3860263968
 H          1.7709886906       -1.6866607278        0.9765121784
 H          2.4068399529        2.1089322938       -1.2522363462
 H          0.8328295754        2.8627451927        0.4203057752
 H          4.0164022496       -2.2076460278        1.4937647330
  29
        -55.68874106
 O         -2.1193138344        1.5854605805       -1.1188255961
 O         -4.1483765196        0.8995253067       -0.5215647225
 N         -0.9664862135       -0.7236472922        0.1426732271
 N         -3.0214354986       -1.4384029771        0.5683357308
 C         -2.3087272009       -0.4577409595        0.0408710241
 C         -0.8597037948       -1.9199532219        0.7734941950
 C         -2.1403393935       -2.3482418305        1.0181427976
 C         -2.9473444092        0.7183506543       -0.5436120877
 H          0.0920356101       -2.3646226847        0.9724257576
 H         -2.4737818924       -3.2495187186        1.4893623773
 H         -2.6074355440        2.3502687112       -1.4865056485
 O          1.2096037237       -0.7536404270       -0.6279939550
 O          2.8436469929        2.0595020008        0.6219309730
 O          0.2582997477        2.2260259835        0.9967751156
 O          3.8131858188       -1.6536630323       -1.6418584884
 C          2.2586841020        0.8048771997        0.8179922263
 C          2.4254259027       -0.0372195538       -0.4611259329
 C          0.7113039851        0.9133067174        0.9894495189
 C          0.1617651967        0.0874006094       -0.2163213416
 C          3.5853544672       -1.0308674643       -0.4057451299
 H          2.7007593172        0.2804629750        1.6700898406
 H          2.5722616266        0.6496708479       -1.3077850785
 H          0.3789720479        0.4475411628        1.9227561569
 H         -0.1308456883        0.7753903604       -1.0202220566
 H          3.3791494294       -1.7756922983        0.3739870375
 H          4.5037254761       -0.4934783182       -0.1627071362
 H          3.0623743739        2.4679782844        1.4720329140
 H          0.8966731730        2.7715336964        0.4983489543
 H          3.0034676367       -2.1069812686       -1.9166998477
  29
        -55.68872663
 O         -2.4142171369        1.7197897386       -0.5683093353
 O         -4.2427591496        0.5842213395        0.0002418969
 N         -0.8131430432       -0.6004238575       -0.1690528572
 N         -2.6198163326       -1.6724691306        0.5466664481
 C         -2.1659669123       -0.5309407700        0.0557925096
 C         -0.4250944701       -1.8419884056        0.2096907399
 C         -1.5566058844       -2.4883028706        0.6441684389
 C         -3.0392020192        0.6148495731       -0.1682846198
 H          0.5939641243       -2.1621167376        0.1389141006
 H         -1.6622227660       -3.4849201251        1.0198978631
 H         -3.0427588197        2.4585809190       -0.6978485052
 O          1.1706127942       -0.1815242706       -1.3193141782
 O          2.8855614739        1.5770883497        1.2768240311
 O          0.7852549255        2.6032691374        0.0168796751
 O          2.8387090143       -2.0687188583        0.2455510994
 C          2.0105236634        0.6259803412        0.7429769792
 C          2.4005761000        0.1216679149       -0.6602485682
 C          0.6471093825        1.2892049511        0.4682421928
 C          0.0832031287        0.4215433794       -0.6744587764
 C          3.3114120422       -1.1054777150       -0.6717870280
 H          1.8720593131       -0.2294369334        1.4137938255
 H          2.8955975561        0.9367429243       -1.2071771895
 H         -0.0116855009        1.2523135153        1.3477591521
 H         -0.4631712417        1.0502997002       -1.3857810832
 H          4.3258838340       -0.7852592875       -0.4073764023
 H          3.3107484919       -1.5054586321       -1.6916727803
 H          3.6663547955        1.1456082802        1.6481501171
 H          1.4879264606        3.0284811343        0.5377910871
 H          3.4066491598       -2.8508571507        0.2044141161
  29
        -55.68870444
 O         -4.1767935005        0.6935626175       -0.6403456959
 O         -2.2047508610        1.4886002326       -1.3052310867
 N         -0.9583775258       -0.6918125036        0.2450056000
 N         -3.0206597905       -1.4294861623        0.5823593950
 C         -2.2947648281       -0.4665542076        0.0435281533
 C         -0.8639164355       -1.8507122663        0.9438814284
 C         -2.1497647985       -2.2924272647        1.1355138472
 C         -2.8603629875        0.6617740780       -0.6919137623
 H          0.0832794055       -2.2644793308        1.2181116719
 H         -2.4928442018       -3.1738645999        1.6364023247
 H         -4.5496878276        1.4418651127       -1.1494868556
 O          1.1711806096       -0.6865087727       -0.6461332172
 O          2.9592228818        1.9913852019        0.8435353184
 O          0.3298075938        2.2032794675        1.0826005625
 O          3.7757246520       -1.5161013985       -1.8532700890
 C          2.3082628752        0.7602062989        0.8440402910
 C          2.3976887330        0.0142122911       -0.5105416153
 C          0.7735241821        0.8785361914        1.0920497582
 C          0.1565971061        0.1322117056       -0.1192097290
 C          3.5764862320       -0.9578559445       -0.5826033713
 H          2.7811721662        0.1646795709        1.6289685066
 H          2.4767902833        0.7593660391       -1.3179399502
 H          0.4866034581        0.3680276655        2.0187518330
 H         -0.1859522453        0.8786200374       -0.8512046777
 H          3.3828557764       -1.8019519696        0.0820027706
 H          4.4723657160       -0.4234114159       -0.2407886370
 H          2.4197949170        2.6381623635        0.3571188740
 H          0.5670800265        2.6350600360        1.9178213304
 H          3.9797974023       -0.8170703192       -2.4907831961
  29
        -55.68865068
 O         -2.1398662886        1.7726308522       -0.8049240295
 O         -4.1337880893        0.8510770395       -0.4648788877
 N         -0.8701718561       -0.6607941873        0.0589667359
 N         -2.8879811353       -1.4979182114        0.4411643911
 C         -2.2230775644       -0.4396293494        0.0087773551
 C         -0.7069441429       -1.9130590221        0.5538974369
 C         -1.9644845005       -2.4144784060        0.7768409721
 C         -2.9224650869        0.7637516378       -0.4320627514
 H          0.2616892300       -2.3457253223        0.6876100389
 H         -2.2529604074       -3.3724060219        1.1573472474
 H         -2.6711256921        2.5466101805       -1.0831837909
 O          1.2300260735       -0.5180345319       -0.9104697515
 O          2.3104461540        2.3605066330       -0.0786916583
 O          0.2407771366        1.9367436649        1.5106942672
 O          3.6590463024       -2.1370898871       -1.0254012135
 C          2.3160657794        1.0814064822        0.5002889439
 C          2.5288391325       -0.0384704450       -0.5339062504
 C          0.8835990370        0.8178232185        1.0076135902
 C          0.2221747513        0.2166745710       -0.2620763567
 C          3.3629426883       -1.2145449805       -0.0098674044
 H          3.0426183035        1.0178888567        1.3156365978
 H          3.0055458113        0.3574682243       -1.4387135480
 H          0.8864683673        0.0588051848        1.7971517849
 H         -0.1477744946        1.0235070321       -0.9062719986
 H          2.8256126646       -1.7022390520        0.8149329218
 H          4.3262530855       -0.8543845935        0.3554024262
 H          3.2128775846        2.6732506956       -0.2289887688
 H          0.5480786665        2.7127658334        1.0086751412
 H          2.8345805635       -2.4075482959       -1.4545279053
  29
        -55.68861868
 O         -4.1766759203        0.8833519935       -0.1135603410
 O         -2.2761668009        1.8438814700       -0.7673441156
 N         -0.9244636366       -0.6937978855       -0.0957922450
 N         -2.9528411074       -1.4935068765        0.3056259943
 C         -2.2650151909       -0.4182517444       -0.0353582815
 C         -0.7873110113       -2.0044990596        0.2257846377
 C         -2.0530893139       -2.4803028549        0.4638368580
 C         -2.8777438371        0.8731272314       -0.3382390345
 H          0.1679743129       -2.4851336918        0.2318909989
 H         -2.3622886244       -3.4673982121        0.7387425366
 H         -4.5835627030        1.7454237952       -0.3355209580
 O          1.1126729689       -0.4232913254       -1.1807874416
 O          2.4696945798        2.1820274201       -0.0863679690
 O          0.3043483818        1.7862986314        1.4568307393
 O          4.4419693913       -1.1778532034        0.0696060785
 C          2.3271685186        0.8766514395        0.4061654587
 C          2.4397513657       -0.1563613321       -0.7231881451
 C          0.8956710528        0.6372665643        0.9311630541
 C          0.1631692598        0.2114366764       -0.3617902800
 C          3.1068169384       -1.4597387801       -0.2677106478
 H          3.0967192906        0.6941019910        1.1661098174
 H          3.0137573078        0.2700159452       -1.5522657293
 H          0.8809075010       -0.1969060736        1.6428784461
 H         -0.2528762555        1.1013768763       -0.8539489759
 H          3.0384210874       -2.1759982840       -1.0939415201
 H          2.5658963660       -1.8621826929        0.6006775605
 H          1.7200773996        2.7141772522        0.2361365966
 H          0.5836297449        1.9179563596        2.3756945767
 H          4.9224587674       -2.0061748699        0.2121260982
  29
        -55.68852907
 O         -2.2114737264       -0.5476854944       -2.3173868145
 O         -2.4976589007        1.2916684000       -1.0892669241
 N         -0.8083068046       -0.3188645703        0.8638233094
 N         -2.3663947101       -1.8046698875        0.3409517522
 C         -1.7602646445       -0.6980152420       -0.0312764055
 C         -0.8277285224       -1.2472208898        1.8597587728
 C         -1.7982573033       -2.1493170959        1.5213026481
 C         -2.1721832565        0.1265541406       -1.1862849890
 H         -0.1889923694       -1.1897785486        2.7144827669
 H         -2.1251501135       -3.0210989323        2.0492141323
 H         -2.5746475236       -0.0163646227       -3.0560617383
 O          0.2486455202        1.0753681270       -0.6812438951
 O          3.0751147655        2.0312585599        0.1135067162
 O          1.7008202563        1.4543043404        2.3344115109
 O          1.4348442203       -1.7428057535       -0.5108830511
 C          2.4517383759        0.7818981454        0.0770586759
 C          1.5162578331        0.5938318153       -1.1283236037
 C          1.4943656399        0.5601491573        1.2796129603
 C          0.0884891758        0.8069954368        0.6850598891
 C          1.4653967281       -0.8610011509       -1.6133080480
 H          3.2579840846        0.0472551494        0.0700205909
 H          1.7997872456        1.2357275018       -1.9658997328
 H          1.5818208742       -0.4812894738        1.6110124090
 H         -0.3689074540        1.6918934939        1.1514851047
 H          2.3567561420       -1.0403290330       -2.2248957837
 H          0.5680634266       -0.9866939121       -2.2323302128
 H          2.4084162209        2.7337308909        0.1406885654
 H          2.6479952280        1.5032363962        2.5359934045
 H          1.5152774982       -2.6510095850       -0.8347031854
  29
        -55.68852700
 O         -4.1408003889        0.6004083041        0.1341902119
 O         -2.3233629040        1.7799785914       -0.4005420317
 N         -0.7822148904       -0.6701421621       -0.2395916902
 N         -2.6120122288       -1.6548029840        0.5411300157
 C         -2.1128437061       -0.5277877409        0.0613425983
 C         -0.4481980450       -1.9416470886        0.0759693719
 C         -1.5955094393       -2.5326835974        0.5546934895
 C         -2.8487385965        0.7174627335       -0.0958599291
 H          0.5476646269       -2.3109107910       -0.0552745838
 H         -1.7386510909       -3.5332633182        0.9066680048
 H         -4.6144570034        1.4520205626        0.0409619649
 O          1.2310539690       -0.2278169107       -1.3439470676
 O          2.7554633095        1.5825724532        1.3590333464
 O          0.7866861465        2.6013543996       -0.1542101108
 O          2.8360755603       -2.0286870954        0.3085147025
 C          1.9128439999        0.6662839341        0.7330471395
 C          2.4106262085        0.1470592751       -0.6292400000
 C          0.5727984501        1.3150456337        0.3395929626
 C          0.0932497544        0.3514130478       -0.7748661762
 C          3.3644362825       -1.0433130191       -0.5524367898
 H          1.6964060116       -0.1950061959        1.3805821103
 H          2.9005458242        0.9728221847       -1.1633974985
 H         -0.1309397994        1.3241909972        1.1801600346
 H         -0.4601272243        0.9021352492       -1.5465353407
 H          4.3330620942       -0.6838259903       -0.1869186902
 H          3.4826656787       -1.4386472884       -1.5677483492
 H          3.5189508463        1.1206119806        1.7341071414
 H         -0.0705548687        3.0287563389       -0.3008805340
 H          3.4551469116       -2.7709497732        0.3560367251
  29
        -55.68852292
 O         -3.7723279779       -0.5328712791       -1.4353763177
 O         -2.4788423062        1.2777673289       -1.3273848107
 N         -0.7960529572       -0.2277812253        0.5838209701
 N         -2.4602134744       -1.6991062377        0.6247814445
 C         -2.0076534175       -0.5972477350        0.0586444939
 C         -0.4864779991       -1.1737580322        1.5099991990
 C         -1.5301161648       -2.0642406919        1.5260988244
 C         -2.7485936565        0.1464508909       -0.9604471536
 H          0.4129577972       -1.1512854888        2.0870477785
 H         -1.6626839877       -2.9372282534        2.1310986591
 H         -4.2811272577       -0.0241562056       -2.0991159830
 O          0.8231427771        0.4580400664       -0.9791615768
 O          3.4473751072        1.5010685833        0.8048884297
 O          1.1642266160        2.7635234878        1.1562221378
 O          2.0855906461       -2.0132547718       -1.8763345734
 C          2.3501534693        0.6359114405        0.8564837686
 C          2.1214874801        0.0497683090       -0.5511436867
 C          1.0201525115        1.3773352054        1.1913831712
 C          0.0423642437        0.8612404880        0.1126740347
 C          2.2864086300       -1.4776174853       -0.5955117586
 H          2.5304258866       -0.1724136383        1.5772737302
 H          2.8312569309        0.5089929955       -1.2497780391
 H          0.6524997322        1.1521386803        2.1940945111
 H         -0.6256106808        1.6546544175       -0.2400281020
 H          1.5357953258       -1.9574585784        0.0368442105
 H          3.2878758501       -1.7258215711       -0.2187390436
 H          3.5953497514        1.9037303613        1.6739835107
 H          1.6323491594        3.0272737194        0.3482323137
 H          2.7104285673       -1.6148297544       -2.4989609618
  29
        -55.68849612
 O         -4.1594788987        0.7076702827       -0.6925885481
 O         -2.1657454958        1.5309649586       -1.2492833565
 N         -0.9682389148       -0.7116825167        0.2399390689
 N         -3.0445548640       -1.4136731114        0.5717318843
 C         -2.2999838846       -0.4620709789        0.0366620170
 C         -0.8962332329       -1.8719507804        0.9377414149
 C         -2.1903841168       -2.2915666425        1.1259634160
 C         -2.8416427458        0.6826253178       -0.6889351847
 H          0.0429157349       -2.3022806992        1.2134067483
 H         -2.5500803079       -3.1669161249        1.6259755808
 H         -4.5132861274        1.4743076708       -1.1877740659
 O          1.1848910707       -0.7445299324       -0.5961497247
 O          2.8917938549        2.0188764738        0.6725157282
 O          0.3093640658        2.1702219862        1.2082177663
 O          3.7899929505       -1.3387316777       -1.8983200721
 C          2.3011702350        0.7638683746        0.8407226691
 C          2.3983952569       -0.0207042263       -0.4828361985
 C          0.7658257431        0.8626831666        1.0950932155
 C          0.1602714302        0.0938551167       -0.1206702918
 C          3.5835236141       -0.9764538659       -0.5543266646
 H          2.7837257837        0.1990363716        1.6459077462
 H          2.4799497997        0.7016046474       -1.3086760590
 H          0.4815842969        0.3533401801        2.0206622574
 H         -0.1580020086        0.8161116886       -0.8864304531
 H          3.3591417232       -1.8550678589        0.0616501466
 H          4.4638228994       -0.4551913516       -0.1565863145
 H          3.0137334167        2.4469783849        1.5334771953
 H          0.8010020578        2.7319901875        0.5836398588
 H          4.4909926788       -2.0040963473       -1.9477449270
  29
        -55.68838828
 O         -2.2238136522        1.6970364631       -0.9388323895
 O         -4.2160854279        0.7862384396       -0.5590019800
 N         -0.9472670314       -0.6749843921        0.0709411632
 N         -2.9626060384       -1.5185122553        0.4479385542
 C         -2.3016273822       -0.4733442116       -0.0195457316
 C         -0.7798187564       -1.9002541952        0.6290221315
 C         -2.0361159551       -2.4066336604        0.8472109370
 C         -3.0047688834        0.7045593647       -0.5208013855
 H          0.1925689112       -2.3049465086        0.8118652937
 H         -2.3228704103       -3.3486977727        1.2665127213
 H         -2.7529547697        2.4614046587       -1.2457646004
 O          1.1317019496       -0.5632668241       -0.9377271079
 O          2.9370586817        2.0063021415        0.5953113510
 O          0.4055639506        2.1056102130        1.2403511106
 O          3.5693224800       -1.8718304307       -0.1688103070
 C          2.3519918081        0.7352359953        0.6181707898
 C          2.3545231708        0.1462571276       -0.8059320244
 C          0.8376092391        0.8099619041        0.9817381484
 C          0.1445666378        0.1885558128       -0.2714073181
 C          3.5279166418       -0.7987713338       -1.0747804773
 H          2.8775554590        0.0512542872        1.2906862739
 H          2.3862632326        0.9808392483       -1.5213221918
 H          0.6039887660        0.2027996232        1.8621835556
 H         -0.2249751049        0.9987195531       -0.9120663956
 H          4.4581131212       -0.2437429919       -0.9417242711
 H          3.4646372650       -1.1570069437       -2.1072642997
 H          3.3062428666        2.2229195398        1.4633613903
 H          1.0248051143        2.7241396251        0.8063557312
 H          2.8232231270       -2.4586684125       -0.3532771332
  29
        -55.68834449
 O         -2.3423237909        1.7105734341       -0.7103153670
 O         -4.2768527552        0.6702164828       -0.3463830889
 N         -0.9141129982       -0.6477738376        0.0047972996
 N         -2.8324353154       -1.5530030120        0.6585186534
 C         -2.2752565080       -0.4946490498        0.0958065068
 C         -0.6321447800       -1.8601207645        0.5420385287
 C         -1.8295489039       -2.4029520668        0.9371286973
 C         -3.0625492316        0.6564764429       -0.3352270169
 H          0.3653020890       -2.2422742430        0.5818994354
 H         -2.0214357784       -3.3467733787        1.4038779152
 H         -2.9168502278        2.4514488681       -0.9937097858
 O          1.1757832641       -0.4677630807       -0.9895484623
 O          2.8502736964        1.5404221461        1.4768520560
 O          0.7565276615        2.5131799172       -0.0172373926
 O          3.8873415675       -1.6475168024       -1.3932252189
 C          1.9407143642        0.6251343072        0.9605153292
 C          2.3802544242       -0.0316321110       -0.3587343517
 C          0.5781716745        1.2480087770        0.5571078753
 C          0.0750453265        0.2678221387       -0.5269141000
 C          3.3354067061       -1.2106687428       -0.1792895753
 H          1.7933655403       -0.1346004304        1.7333890613
 H          2.8596739872        0.7215827342       -1.0013436735
 H         -0.1267909050        1.2801710703        1.3927718108
 H         -0.3735449405        0.8305894119       -1.3541637692
 H          2.8107123748       -2.0312080249        0.3274930340
 H          4.1741976342       -0.8880853840        0.4413257310
 H          2.9784509597        2.2567767173        0.8329780819
 H          0.7194110348        3.1971598891        0.6664312235
 H          3.1702652528       -1.9085061977       -1.9888456793
  29
        -55.68830065
 O         -4.1512902540        0.7289046105        0.2425693630
 O         -2.4532500927        1.6732899337       -0.8541705792
 N         -0.8499271837       -0.6768694339       -0.1736819648
 N         -2.7172248703       -1.5561773092        0.6423971132
 C         -2.1772947178       -0.4770410969        0.1025956529
 C         -0.5646244683       -1.9421187455        0.2168270603
 C         -1.7331293855       -2.4685942734        0.7134158121
 C         -2.9144026326        0.7405025781       -0.2173639440
 H          0.4070376165       -2.3674590463        0.0817026595
 H         -1.9146873916       -3.4444405154        1.1137581880
 H         -4.6418265746        1.5400294669       -0.0001036427
 O          1.2610145416       -0.3700183741       -1.1077400092
 O          2.7020081767        1.6495314272        1.4128483206
 O          0.7536471224        2.5605191789       -0.1793013545
 O          3.7240808138       -1.9139532440       -1.0718978588
 C          1.8052714762        0.6859931712        0.9479439096
 C          2.3786828404       -0.0073851642       -0.2976262099
 C          0.5053805411        1.3114565150        0.3894129029
 C          0.0986669668        0.2894114885       -0.6963455765
 C          3.2392419269       -1.2265727133        0.0488953618
 H          1.5622332747       -0.0610459877        1.7115003439
 H          2.9840221231        0.7222106891       -0.8546732415
 H         -0.2870990109        1.3991310182        1.1455403452
 H         -0.3645869572        0.8095560738       -1.5440171515
 H          2.6467651121       -1.9567799630        0.6051511129
 H          4.0626375017       -0.8776981249        0.6869969414
 H          2.5251984567        1.8643200329        2.3405091716
 H          1.6091553763        2.8838176627        0.1656745405
 H          4.2347316698       -1.3120637130       -1.6314109237
  29
        -55.68821840
 O         -2.2823473611        1.6808253421       -0.6888972116
 O         -3.7474778052        0.8967125485        0.7909992518
 N         -0.7446265494       -0.7323953179       -0.3839370169
 N         -2.6003836857       -1.6887804510        0.3641119048
 C         -2.0336358241       -0.5397662571        0.0391453137
 C         -0.5111309050       -2.0642241710       -0.3068414271
 C         -1.6722479267       -2.6384389743        0.1453381394
 C         -2.7606141191        0.7280019210        0.1029155529
 H          0.4312480334       -2.4840287904       -0.5818323853
 H         -1.8923656064       -3.6709832618        0.3211596857
 H         -2.8168338094        2.4978504279       -0.6250799354
 O          1.3101099395       -0.2729307986       -1.4098925606
 O          2.6903038082        2.3012660272       -0.1684518855
 O          0.1898498919        2.1295424186        0.8390521495
 O          2.2993697285       -1.6593287531        1.0836004977
 C          2.3341188281        1.0317945930        0.2939229270
 C          2.5568955748       -0.0915871535       -0.7330636627
 C          0.8224203141        0.9083971065        0.6029704291
 C          0.2469172556        0.2787861440       -0.6877539633
 C          3.0575846027       -1.3833256295       -0.0753871974
 H          2.9380068996        0.8641153854        1.1871886911
 H          3.2813931400        0.2109385625       -1.4952703772
 H          0.6782729185        0.2059245677        1.4363621940
 H         -0.2459925178        1.0540095163       -1.2893003437
 H          4.1141847995       -1.2400016233        0.1772497241
 H          2.9696135338       -2.1981689063       -0.8047997527
 H          2.0935729816        2.5813022315       -0.8779660776
 H          0.6308596988        2.5912112181        1.5677276348
 H          2.6902532462       -2.4131303712        1.5471692030
  29
        -55.68820022
 O         -2.1884151270       -0.8074987755        2.2051210090
 O         -1.1286973326        1.0208642516        1.5106864682
 N         -1.0069374827       -0.4720798047       -1.1905147177
 N         -2.7688596828       -1.4889550464       -0.2943416349
 C         -1.7550993977       -0.6777665207       -0.0551748958
 C         -1.6001798083       -1.2242001365       -2.1597746422
 C         -2.6875987858       -1.8312186105       -1.5934457698
 C         -1.6319104306       -0.0624994634        1.2717824455
 H         -1.2078537810       -1.2712812589       -3.1536296041
 H         -3.4112751115       -2.4825884474       -2.0375949923
 H         -2.2002809521       -0.3666011932        3.0796244031
 O          1.3276406848       -0.7091257931       -1.0596910421
 O          2.7022777784        2.0706245149        0.1841380566
 O          1.0097102555        2.4345315382       -1.7384507197
 O          2.2533747365       -0.6428394671        2.4915711924
 C          1.5825829982        1.2361951944        0.3198313387
 C          2.0104827246       -0.2246256233        0.0887267187
 C          0.5317946732        1.5246957071       -0.7915718477
 C          0.2839300491        0.1495328911       -1.4449667558
 C          1.7167766360       -1.1346172394        1.2945663618
 H          1.1246847294        1.3361128701        1.3064771972
 H          3.0829613148       -0.2448246919       -0.1417825384
 H         -0.3926181223        1.9283626845       -0.3734925541
 H          0.3410106102        0.2662437226       -2.5349863521
 H          2.0813212066       -2.1434554624        1.0686235899
 H          0.6352313992       -1.1915869440        1.4432346626
 H          2.5698036655        2.8897568111        0.6820922657
 H          1.9762405370        2.5154740155       -1.6150282294
 H          3.2205483360       -0.6771679791        2.4544142938
  29
        -55.68816469
 O         -2.5518550089        0.8489860867       -1.5111504597
 O         -1.2706273186       -0.7681569999       -2.3580208621
 N         -0.9238730307       -0.3157169495        0.9197073926
 N         -2.5201160997       -1.7573766915        0.4144388455
 C         -1.7700933707       -0.7779193474       -0.0332270452
 C         -1.1611139966       -1.0564320871        2.0427930906
 C         -2.1495244236       -1.9358160478        1.7104896800
 C         -1.8181238935       -0.2328912401       -1.4171167659
 H         -0.6121888998       -0.8933839156        2.9459498932
 H         -2.6228393544       -2.6853501315        2.3098406984
 H         -2.6180635354        1.1951007629       -2.4259177981
 O          0.1685750777        1.1618416965       -0.5330290399
 O          2.8355179698        2.1742449928        0.7040622766
 O          1.7429915671        0.6030143700        2.5798960685
 O          1.3637288597       -1.4240439182       -1.3019573115
 C          2.3937480442        0.9295457004        0.2325838737
 C          1.5137354496        1.0124181583       -1.0172978017
 C          1.4602916435        0.2571833137        1.2622561045
 C          0.0579916784        0.7359566934        0.7990841515
 C          1.6743056272       -0.2065170444       -1.9442779095
 H          3.2901668566        0.3330682545        0.0610047002
 H          1.7340073396        1.9114012446       -1.6013720505
 H          1.5132153065       -0.8322636924        1.1558982342
 H         -0.2803924182        1.5804938195        1.4219089090
 H          2.7214521315       -0.2550626726       -2.2570055580
 H          1.0433980420       -0.0649867224       -2.8237329090
 H          2.1353840313        2.8382501604        0.6156386825
 H          2.3541668348        1.3641394746        2.5724193382
 H          0.4793693241       -1.7016415260       -1.5839803844
  29
        -55.68814043
 O         -2.0580677608        1.3934181620       -1.2652194099
 O         -2.9010580833       -0.3927202623       -2.2965670166
 N         -1.0928849403       -0.3335667219        0.7848167434
 N         -2.9193900461       -1.5374881571        0.4260209237
 C         -2.1318496915       -0.6012139892       -0.0622692808
 C         -1.2559586760       -1.1493166774        1.8607521186
 C         -2.3932404775       -1.8752298349        1.6230086893
 C         -2.3910116289        0.1129930674       -1.3188138183
 H         -0.5920739501       -1.1306879990        2.6989172743
 H         -2.8635616331       -2.6147279468        2.2373360559
 H         -2.2451688943        1.8536313328       -2.1080718457
 O          0.4035511887        0.4379442186       -0.8201641618
 O          2.5190423737        2.1243237246        0.7255875619
 O          1.2621052602        0.7597333954        2.6494311203
 O          3.7061073690       -0.9273144138       -1.6748927490
 C          2.3894761372        0.7509487817        0.4585829129
 C          1.8280320591        0.4508271000       -0.9395777583
 C          1.2680245896        0.2200696108        1.3720350056
 C          0.0137469643        0.5555557587        0.5299913025
 C          2.3171428562       -0.9065369904       -1.4772397073
 H          3.3315410501        0.2187056533        0.6204278069
 H          2.0857256549        1.2496699730       -1.6447568363
 H          1.3548528407       -0.8663120126        1.4696535213
 H         -0.3093150232        1.5907113262        0.7304373064
 H          1.7656461423       -1.1371856823       -2.3946493846
 H          2.0984830372       -1.6866699882       -0.7439338683
 H          3.3535108187        2.4614517226        0.3730644447
 H          1.5437772789        1.6894422290        2.5893136050
 H          3.9347908722       -0.4253509497       -2.4703661480
  29
        -55.68813590
 O         -2.4973004907        1.6133239232       -0.9375152729
 O         -4.3171816685        0.3791953859       -0.6038810279
 N         -0.8636082747       -0.5211567041        0.0857014119
 N         -2.7269089574       -1.6267334699        0.5583356803
 C         -2.2341690839       -0.5248761358        0.0197172947
 C         -0.5086042283       -1.6797185394        0.6989208732
 C         -1.6730849716       -2.3486268722        0.9781296459
 C         -3.1117659169        0.5066409194       -0.5283604144
 H          0.5154439389       -1.9371856372        0.8733789788
 H         -1.8117543341       -3.2965385342        1.4553270922
 H         -3.1357913853        2.2721345003       -1.2790196987
 O          1.0746250307       -0.1828530087       -1.1322131409
 O          3.2013954907        1.6075639955        1.0407522110
 O          0.7573744608        2.5310237820        0.7496534354
 O          2.9142084505       -2.1360182731       -0.3208502578
 C          2.2637660613        0.6114665583        0.7535221574
 C          2.3793087656        0.2064367476       -0.7239931604
 C          0.8089951884        1.1405611120        0.8525084134
 C          0.0957650068        0.4640424880       -0.3505762412
 C          3.3493936528       -0.9580862099       -0.9540934466
 H          2.3941600300       -0.2759385766        1.3810618956
 H          2.7120489739        1.0793285605       -1.3025181236
 H          0.3195188669        0.8411694370        1.7878093686
 H         -0.4213181481        1.2267679737       -0.9418162292
 H          4.3135473108       -0.6992082875       -0.5128109187
 H          3.4746098885       -1.1139865900       -2.0296664588
 H          3.3965983671        1.6270790581        1.9888647785
 H          1.6735397326        2.8625179756        0.6702784368
 H          2.1576994798       -2.4819701666       -0.8150166019
  29
        -55.68811501
 O         -2.1257674217       -0.7764520852       -2.3163334159
 O         -2.4290106049        1.2193525847       -1.3654217540
 N         -0.9796867046       -0.1747628444        0.9143444110
 N         -2.5573067095       -1.6622187420        0.4617619754
 C         -1.8770027968       -0.6368212119       -0.0001878001
 C         -1.1194946931       -0.9614607618        2.0200611377
 C         -2.0997843973       -1.8666677089        1.7208448723
 C         -2.1529319777        0.0408952356       -1.2854608187
 H         -0.5500118454       -0.8055049193        2.9113412875
 H         -2.5065279169       -2.6486108942        2.3278317276
 H         -2.4014987176       -0.3399301343       -3.1492544104
 O          0.2721660605        0.9446989755       -0.7081311819
 O          2.8996152517        2.0217471276        0.1915951663
 O          1.5782636254        1.5160947928        2.4359205880
 O          2.7168105697       -1.6407535740       -1.5113427924
 C          2.3807846762        0.7219737265        0.2538507952
 C          1.5403762775        0.3452254013       -0.9665592780
 C          1.3429967330        0.6163010629        1.4024586549
 C         -0.0077962577        0.8738044086        0.6683476269
 C          1.4373932659       -1.1721107299       -1.1685461276
 H          3.2291412051        0.0515288489        0.3943687739
 H          1.9286704402        0.7937722072       -1.8840653380
 H          1.3499633893       -0.3944532383        1.8208286716
 H         -0.4460525715        1.8336346087        0.9751410789
 H          0.7073474536       -1.3640450009       -1.9647579952
 H          1.0786517085       -1.6501990818       -0.2469896477
 H          2.2654764388        2.6094740190       -0.2472027553
 H          2.2207933131        2.1803296692        2.1189325541
 H          2.6698300559       -2.5823809239       -1.7300551056
  29
        -55.68811245
 O         -3.7097281654       -0.4941051142       -1.5782123707
 O         -2.5507797302        1.3766981743       -1.2247503936
 N         -0.8663434994       -0.1921006644        0.6184959970
 N         -2.4742981832       -1.7220108086        0.5180575317
 C         -2.0425385159       -0.5782170731        0.0262125536
 C         -0.5579119161       -1.1703357976        1.5115478332
 C         -1.5683487361       -2.0960899024        1.4413258166
 C         -2.7674438614        0.2029243923       -0.9779511440
 H          0.3154184359       -1.1442372241        2.1266730450
 H         -1.6936185740       -3.0003767952        2.0001319024
 H         -4.2153913213        0.0403049740       -2.2240823674
 O          0.5866561463        0.6971827721       -1.0094399219
 O          3.4650738517        1.1176819044        0.8186570446
 O          1.3686245400        2.6714400530        1.1208578121
 O          3.1459414884       -1.8883008012       -0.9362781527
 C          2.2483257348        0.4459344155        0.7025281525
 C          1.8683029536        0.1152213964       -0.7638490428
 C          1.0521673133        1.3100685960        1.1952242577
 C         -0.0671004021        0.9481487088        0.2108808401
 C          1.8388085322       -1.3883942221       -1.0604899248
 H          2.3390831725       -0.4837185867        1.2732616472
 H          2.5844197548        0.5845458825       -1.4462343870
 H          0.7897783079        1.1220098354        2.2364789466
 H         -0.7558127757        1.7823741042        0.0364998916
 H          1.4510474251       -1.5191482546       -2.0786944134
 H          1.1570931547       -1.8916130636       -0.3599619819
 H          3.2782850872        2.0580960776        1.0045648925
 H          1.3575768355        2.9646255968        0.1961843511
 H          3.1634881509       -2.8190309924       -1.2013091560
  29
        -55.68799295
 O         -2.3265622765        1.7251448723       -0.6408257509
 O         -4.2035270556        0.7484262200        0.0446340384
 N         -0.8718109708       -0.6820432715       -0.1268786608
 N         -2.7270273852       -1.5718693764        0.7076071879
 C         -2.2041045230       -0.4930138757        0.1475601780
 C         -0.5726001043       -1.9364947717        0.2834577884
 C         -1.7321357844       -2.4683797308        0.7956981429
 C         -3.0050734868        0.6875304526       -0.1417856896
 H          0.4026927417       -2.3544126343        0.1515801493
 H         -1.8991128383       -3.4374147553        1.2182037421
 H         -2.9477331257        2.4553067666       -0.8426231725
 O          1.2288956637       -0.4123003954       -1.1135986109
 O          2.6486665799        1.5975375419        1.5054616866
 O          0.8744117210        2.5283710387       -0.2688077563
 O          3.7736265514       -1.8853470093       -1.0818694574
 C          1.7829025335        0.6894239587        0.9117000618
 C          2.3587069129       -0.0195264122       -0.3312649326
 C          0.5016946745        1.3231773795        0.3317536627
 C          0.0712040213        0.2591618805       -0.7063207409
 C          3.2403478908       -1.2162336080        0.0294435912
 H          1.5242589815       -0.0519259588        1.6748299820
 H          2.9417922677        0.7036217191       -0.9196179485
 H         -0.2716830252        1.4693883096        1.0927461565
 H         -0.4001704487        0.7215267801       -1.5827118146
 H          2.6536494872       -1.9638139335        0.5679345131
 H          4.0342298984       -0.8490660395        0.6938430305
 H          2.6461779603        2.4154916564        0.9785710468
 H          0.0923224421        3.0262066414       -0.5419422449
 H          4.3045328229       -1.2722929248       -1.6098118510
  29
        -55.68798081
 O         -2.2258982629        1.6270163240       -0.9857152099
 O         -4.2277152558        0.7320516822       -0.6097303071
 N         -0.9662347567       -0.6816519940        0.1477219341
 N         -2.9814422357       -1.4877798255        0.6015962555
 C         -2.3212462032       -0.4822562930        0.0543665157
 C         -0.7976114448       -1.8658257508        0.7885290759
 C         -2.0539878515       -2.3491227799        1.0544318920
 C         -3.0175776798        0.6588938664       -0.5347250391
 H          0.1754125893       -2.2650768155        0.9807707505
 H         -2.3396278554       -3.2571657213        1.5436810589
 H         -2.7449449410        2.3667137284       -1.3617167263
 O          1.1717238775       -0.6689171885       -0.7143259874
 O          3.0102776092        1.8045443637        1.0995133561
 O          0.4531052817        2.3782242961        0.5780598265
 O          3.8223797838       -1.5538922317       -1.7023501705
 C          2.1976634535        0.6918178917        0.9128115731
 C          2.4080820722       -0.0228289773       -0.4372022636
 C          0.6771780268        1.0330967213        0.8874741027
 C          0.1251418857        0.1579790092       -0.2695126423
 C          3.5314198356       -1.0574815843       -0.4223282271
 H          2.4211049700        0.0070167430        1.7350597795
 H          2.6131665791        0.7229238715       -1.2197811185
 H          0.1911755461        0.7530748491        1.8284010195
 H         -0.2173024141        0.8251372586       -1.0714656312
 H          3.2582008896       -1.8723401669        0.2600024999
 H          4.4438929733       -0.5773459068       -0.0632495132
 H          2.7551118842        2.4948020121        0.4640609059
 H          0.5411279144        2.9207171565        1.3754657541
 H          3.0269019050       -1.9714294407       -2.0624223688
  29
        -55.68795122
 O         -2.5125714900        1.4411937050       -1.0986003243
 O         -3.7604332502       -0.3112116977       -1.6628525282
 N         -0.8843661949       -0.2870498468        0.5404622626
 N         -2.5026149340       -1.8015130157        0.3753840189
 C         -2.0847422031       -0.6206221145       -0.0381113014
 C         -0.5487749030       -1.3401298638        1.3337734671
 C         -1.5655506860       -2.2540379835        1.2287283519
 C         -2.8578047778        0.1632795947       -1.0038058782
 H          0.3539232439       -1.3798732294        1.9045624750
 H         -1.6741445854       -3.2024031875        1.7129020961
 H         -3.0569091592        1.9143020519       -1.7607199992
 O          0.6012393141        0.6916407550       -0.9971237125
 O          3.3774644756        1.4107046607        0.6503853653
 O          1.1797803870        2.5336278425        1.4876196475
 O          3.1999488903       -1.9043431431       -0.7384704062
 C          2.3032695237        0.5117468821        0.6774486087
 C          1.9080726056        0.1730446082       -0.7741236824
 C          1.0237244093        1.1619380948        1.2847739485
 C         -0.0650565107        0.8720589831        0.2260600047
 C          1.9575839511       -1.3394451480       -1.0626684084
 H          2.5750926047       -0.4077878450        1.2078049001
 H          2.5794622440        0.7030831744       -1.4591283066
 H          0.7504837459        0.7473868183        2.2564034692
 H         -0.7285792718        1.7342662440        0.1137508413
 H          1.6960727041       -1.5041036696       -2.1143483730
 H          1.2199495852       -1.8578076108       -0.4444808957
 H          3.7549628554        1.5085771868        1.5366853641
 H          1.7719837878        2.8904767407        0.8035990179
 H          3.8789209791       -1.5776146166       -1.3458960817
  29
        -55.68792809
 O         -4.2123095553        0.5096036845       -0.8375448584
 O         -2.2581076770        1.4615945692       -1.3246644087
 N         -0.9825280387       -0.6331181045        0.3180835977
 N         -3.0284630760       -1.4249806060        0.6332592108
 C         -2.3179333691       -0.4726169468        0.0567179649
 C         -0.8729291409       -1.7441359023        1.0894498360
 C         -2.1483678605       -2.2185235348        1.2696591543
 C         -2.8991288673        0.5899923909       -0.7600925749
 H          0.0772955910       -2.1059294366        1.4208099682
 H         -2.4788676245       -3.0765002000        1.8175321349
 H         -4.5950622720        1.2190135115       -1.3928108764
 O          1.1102352195       -0.6572690072       -0.6481824101
 O          3.1193952562        1.7468830905        1.0644391386
 O          0.5034655691        2.2979052155        0.9771594277
 O          3.7359129887       -1.1674319391       -2.0605842996
 C          2.3057875826        0.6291053381        0.9119253919
 C          2.3606780335       -0.0060101404       -0.4946143266
 C          0.7887409162        0.9339509205        1.0943441043
 C          0.1256783043        0.1814303329       -0.0890873042
 C          3.5037684350       -0.9955054173       -0.6824920483
 H          2.6404594532       -0.0948577832        1.6594708174
 H          2.4558977984        0.7854216537       -1.2535946522
 H          0.4147584397        0.5352957941        2.0450012197
 H         -0.2323056989        0.9244020022       -0.8162829346
 H          3.2252110667       -1.9429842474       -0.2073478987
 H          4.3920716631       -0.5781043127       -0.1901152807
 H          2.8047455884        2.4539887954        0.4774650512
 H          0.8095110863        2.7620268020        1.7722071072
 H          4.4155446302       -1.8439682374       -2.1895557300
  29
        -55.68783976
 O         -2.0888929485        1.7522508605       -0.8639011782
 O         -4.0931813526        1.0507612317       -0.2072299406
 N         -0.9478365417       -0.7613161348       -0.0537819213
 N         -2.9993825317       -1.4683131578        0.4019331972
 C         -2.2806382459       -0.4382506711       -0.0115926475
 C         -0.8527680841       -2.0472410728        0.3654508383
 C         -2.1315806495       -2.4682301700        0.6315640982
 C         -2.9066934303        0.8351733966       -0.3554749152
 H          0.0880904849       -2.5504783213        0.4174404996
 H         -2.4721214797       -3.4236247468        0.9733151537
 H         -2.5722855377        2.5774662516       -1.0738125608
 O          1.1978735985       -0.7077590423       -0.9347440370
 O          2.5575937544        2.2251223206        0.2653854038
 O          0.2345126100        1.8514946745        1.3523298897
 O          3.7467979572       -1.6944544018        0.1936869643
 C          2.3139400640        0.8586832397        0.4759911775
 C          2.3949242426        0.0588946358       -0.8483683908
 C          0.8368859606        0.6774104919        0.9258661025
 C          0.1818810185        0.0680450729       -0.3497712617
 C          3.6049146858       -0.8755254521       -0.9396435305
 H          2.9940036834        0.4296377944        1.2147806092
 H          2.4242514882        0.7787071134       -1.6794417740
 H          0.7616955168       -0.0567241449        1.7362106541
 H         -0.1297631799        0.8789796697       -1.0210056373
 H          4.5142079278       -0.2750874735       -0.9952459495
 H          3.5132159678       -1.4732920095       -1.8520994273
 H          3.4224888899        2.4811837633        0.6098459994
 H          0.7522405699        2.5964152020        0.9885200988
 H          3.0445628085       -2.3580297554        0.1932485295
  29
        -55.68775553
 O         -2.4091583551        1.1907414226       -1.0976515994
 O         -2.7440559156       -0.7183315549       -2.1935572240
 N         -0.7881429985       -0.2595457877        0.7693547375
 N         -2.0975863016       -2.0024033859        0.3449616626
 C         -1.7462877109       -0.7963240608       -0.0494956864
 C         -0.5263164715       -1.2047746065        1.7096219654
 C         -1.3558659945       -2.2614462480        1.4408827860
 C         -2.3337565666       -0.1280473749       -1.2154891289
 H          0.2004977127       -1.0802641437        2.4819193773
 H         -1.4610718578       -3.1873946114        1.9673114853
 H         -2.8096056505        1.6025538338       -1.8897653821
 O          0.3699181168        1.0676123240       -0.7887672358
 O          3.4821917099        1.0081299116        0.7990534148
 O          1.4352057311        2.6063177927        1.4658982588
 O          1.1918776397       -1.8133337291       -0.7671413571
 C          2.2083868835        0.4694387111        0.6226786806
 C          1.7026069785        0.5465680525       -0.8406134436
 C          1.1163812722        1.2434545386        1.3998881443
 C         -0.1219369262        1.0077527536        0.5272661053
 C          1.7629990553       -0.7996781069       -1.5666983941
 H          2.2379022013       -0.5785036820        0.9355376314
 H          2.3016044566        1.2609952614       -1.4159217424
 H          1.0063309396        0.9156266113        2.4320966975
 H         -0.8607533770        1.8113847795        0.6306306349
 H          2.8179476134       -1.0180290750       -1.7714092101
 H          1.2168850884       -0.7016840697       -2.5133976332
 H          3.3833451430        1.9299899960        1.1018828546
 H          1.3080872516        3.0191933505        0.5972343340
 H          1.2969280468       -2.6607135233       -1.2197795837
  29
        -55.68775454
 O         -2.3418899028        1.7549113884       -0.5865050388
 O         -4.1766288921        0.8626678657        0.3066096809
 N         -0.9433061248       -0.6890021033       -0.2626137320
 N         -2.7784187898       -1.5934110138        0.5980145925
 C         -2.2525151017       -0.4871660073        0.1010520580
 C         -0.6624839292       -1.9821921218        0.0266489474
 C         -1.8094988348       -2.5227286447        0.5553800321
 C         -3.0178654659        0.7475456892       -0.0380137181
 H          0.2924443592       -2.4128660279       -0.1871527899
 H         -1.9868541092       -3.5192714845        0.9030073107
 H         -2.9001454665        2.5548577302       -0.6671100367
 O          1.1187932670       -0.3807939788       -1.3334939690
 O          2.7187962772        1.3504507506        1.3659417311
 O          0.8001277526        2.5162044525       -0.1713065249
 O          4.3893225889       -1.1791495644        0.0916122683
 C          1.7864692617        0.5062420143        0.7675498381
 C          2.2842658074       -0.1485394049       -0.5377029870
 C          0.5076657144        1.2321786903        0.2910353195
 C         -0.0028059174        0.2762846420       -0.8075561666
 C          3.0733110122       -1.4444006304       -0.3169622537
 H          1.5224400849       -0.2708740682        1.4952071888
 H          2.9461158997        0.5469063518       -1.0743460807
 H         -0.2211074033        1.3558652516        1.0940241962
 H         -0.5092827358        0.8203171126       -1.6136993782
 H          3.1472554898       -1.9807370477       -1.2656052420
 H          2.5594824963       -2.0826659584        0.4150043627
 H          2.5490221659        2.2631302175        1.0713084484
 H          1.2391187463        2.4785747171       -1.0345639608
 H          4.3749186676       -0.6484192996        0.9022189256
  29
        -55.68774010
 O         -2.2226329434        1.8171779244       -0.6599751475
 O         -4.0609923292        1.0144733911        0.3008817339
 N         -0.9163703540       -0.7122178320       -0.2520533618
 N         -2.8885499611       -1.5516234023        0.3176849322
 C         -2.2399124046       -0.4465342552       -0.0078805801
 C         -0.7525789163       -2.0452242434       -0.0618031925
 C         -1.9841219536       -2.5455429149        0.2797037417
 C         -2.9250391142        0.8421902502       -0.0939102125
 H          0.1942703823       -2.5204644441       -0.2059180429
 H         -2.2659745011       -3.5546578451        0.4982366526
 H         -2.7378259510        2.6480928777       -0.7069849256
 O          1.1657009762       -0.4344337282       -1.2615012363
 O          2.5147150198        2.1613128499       -0.2163686798
 O          0.2125419659        1.9511583877        1.1434297103
 O          4.2479619875       -1.3517166262        0.5333043393
 C          2.2836136724        0.9028525990        0.3570588886
 C          2.4517865446       -0.2153326149       -0.6777248807
 C          0.8047170340        0.7432958530        0.7746858508
 C          0.1597728467        0.2118824988       -0.5288899482
 C          2.9806404849       -1.5150680097       -0.0437859564
 H          2.9748091656        0.7509551357        1.1962125961
 H          3.1205925015        0.1160334430       -1.4790949659
 H          0.7100461278       -0.0202773579        1.5556169464
 H         -0.2484651308        1.0521214225       -1.1042190325
 H          2.9815569623       -2.3009585731       -0.8081791852
 H          2.3213783426       -1.8208480904        0.7726957308
 H          1.7744501618        2.7469592910        0.0249386242
 H          0.3841020629        2.1421456972        2.0773833920
 H          4.9028811474       -1.1857391701       -0.1590087576
  29
        -55.68772386
 O         -2.1580413300        1.8403591814       -0.6561701354
 O         -4.1088984089        1.0586557944        0.0691300414
 N         -0.9534389831       -0.7248207853       -0.1792019654
 N         -2.9699990447       -1.5060834412        0.3097447933
 C         -2.2835939225       -0.4263582248       -0.0235892350
 C         -0.8255693812       -2.0506865523        0.0770851937
 C         -2.0838797901       -2.5152118989        0.3681185381
 C         -2.9365027150        0.8707065342       -0.1881930899
 H          0.1200744510       -2.5454102798        0.0075696580
 H         -2.3971323974       -3.5084185085        0.6149732861
 H         -2.6522389264        2.6800711958       -0.7482239604
 O          1.1383564817       -0.5417153208       -1.1706873668
 O          2.4339693168        2.1603837462       -0.1727302216
 O          0.2165430567        1.8200987179        1.3009689916
 O          4.4414790056       -1.1911865662        0.3083113417
 C          2.2803262242        0.8775755217        0.3730895581
 C          2.4475526070       -0.1985122932       -0.7081281097
 C          0.8303283640        0.6506725043        0.8523331615
 C          0.1559381274        0.1542952774       -0.4479408154
 C          3.1526474560       -1.4585133821       -0.1754364330
 H          3.0151367163        0.7286035625        1.1751497426
 H          3.0033912744        0.2197892471       -1.5550156177
 H          0.7957610734       -0.1524819767        1.5973795571
 H         -0.2103669528        1.0165469521       -1.0193116115
 H          3.1642259843       -2.2136503491       -0.9696660329
 H          2.5923631261       -1.8560779553        0.6748588279
 H          1.7159872524        2.7235749710        0.1685062986
 H          0.3989206644        1.9601639570        2.2417687111
 H          5.0243689126       -0.9362422277       -0.4212783716
  29
        -55.68762766
 O         -3.9016656188       -0.4077675520       -1.3206915862
 O         -2.5237677151        1.3415632166       -1.2662137071
 N         -0.8050133576       -0.2640820158        0.5316345700
 N         -2.5153208943       -1.6781597683        0.6208589353
 C         -2.0533944529       -0.5775875239        0.0593245786
 C         -0.4829378851       -1.2440827612        1.4172963091
 C         -1.5544243184       -2.0995568366        1.4634090047
 C         -2.8209059216        0.2166762491       -0.8999779423
 H          0.4459258204       -1.2644141285        1.9463621926
 H         -1.6869550683       -2.9842190891        2.0511701947
 H         -4.4253658169        0.1352674447       -1.9444643407
 O          0.8671810783        0.3456452316       -0.9991493885
 O          3.4257674892        1.5474970579        0.9369117600
 O          1.0765110794        2.7360155975        0.9962159172
 O          2.3277801669       -2.0477005933       -1.8422496857
 C          2.3563820076        0.6569676129        0.8591571573
 C          2.1843930136        0.0337385380       -0.5477313977
 C          0.9874225090        1.3456855744        1.1487350643
 C          0.0597382780        0.7988312321        0.0507721600
 C          2.4509710832       -1.4799256222       -0.5649344752
 H          2.5665485335       -0.1210301223        1.5973133123
 H          2.8695013788        0.5182539680       -1.2543942477
 H          0.6010230904        1.0877643869        2.1386944620
 H         -0.5823886534        1.5925166733       -0.3469300525
 H          1.7143866568       -2.0006805738        0.0506030553
 H          3.4546346550       -1.6537926140       -0.1534060655
 H          3.1960305139        2.3547613690        0.4446716082
 H          1.4271071761        3.1350559060        1.8069439819
 H          2.9398866922       -1.6143004063       -2.4539457939
  29
        -55.68758468
 O         -4.1504050044        0.7988505132       -0.0195845801
 O         -2.2243497967        1.7739490218       -0.5828762901
 N         -0.8945776657       -0.7586215526       -0.1000255883
 N         -2.8434858792       -1.5307025942        0.6307308157
 C         -2.2228934852       -0.4870449205        0.1079882290
 C         -0.6929361181       -2.0289706516        0.3187257486
 C         -1.9109440885       -2.4878403614        0.7646880759
 C         -2.8470508451        0.7930140210       -0.2000010012
 H          0.2640661301       -2.5001432139        0.2509951974
 H         -2.1596242179       -3.4458240378        1.1720102204
 H         -4.5523176655        1.6691544273       -0.2180334330
 O          1.2513750882       -0.5539526156       -0.9854663216
 O          2.6008941746        1.6876088604        1.4855595396
 O          0.7118806603        2.4683309077       -0.2268478624
 O          3.9931145011       -1.5939010055       -1.2374033789
 C          1.8222702581        0.6765767796        0.9334090094
 C          2.3932488973        0.0018644127       -0.3255810997
 C          0.4931306680        1.2390345222        0.3906357765
 C          0.0912069244        0.1501891246       -0.6415481711
 C          3.3971620866       -1.1189673457       -0.0590917453
 H          1.5844135354       -0.0994807096        1.6787394884
 H          2.8456497131        0.7701391800       -0.9677665239
 H         -0.2582359671        1.3211044033        1.1845578754
 H         -0.3381610230        0.6257126189       -1.5341822518
 H          2.8912251368       -1.9340436004        0.4763187247
 H          4.2159623014       -0.7404402272        0.5551273311
 H          3.4207639769        1.3202838788        1.8459354632
 H         -0.1446758447        2.8574202601       -0.4629552794
 H          3.2981944937       -1.8725795647       -1.8506607287
  29
        -55.68754447
 O         -2.3358039041        1.7582051332       -0.5756911026
 O         -4.1229051269        0.8911940498        0.4315391454
 N         -0.9495693101       -0.7070731648       -0.3149104959
 N         -2.7977503409       -1.6146797532        0.5149914766
 C         -2.2486650737       -0.4949818728        0.0745913922
 C         -0.6982592556       -2.0209200892       -0.1015736693
 C         -1.8531572742       -2.5637840968        0.4066194793
 C         -2.9919202087        0.7596018853        0.0064464809
 H          0.2446546219       -2.4598895996       -0.3479158696
 H         -2.0526996511       -3.5744551002        0.6967962598
 H         -2.8792083623        2.5710661019       -0.6104733700
 O          1.1308572966       -0.3925677566       -1.3230344334
 O          2.8235923708        1.5712368950        1.0314989470
 O          0.6264404384        2.4991441905       -0.0505662470
 O          4.2444930875       -1.2718410692        0.4097189378
 C          1.8950050229        0.5707223370        0.7273058373
 C          2.3130236702       -0.1426281720       -0.5689924908
 C          0.5115054603        1.1753165677        0.3681139206
 C          0.0194369978        0.2675086829       -0.7862547593
 C          3.0622126627       -1.4603654320       -0.3192106556
 H          1.7936817972       -0.1577573234        1.5370521607
 H          2.9551985768        0.5411999022       -1.1427040651
 H         -0.1924475362        1.1242989816        1.2093810617
 H         -0.4526460406        0.8797747692       -1.5642122529
 H          3.2505218565       -1.9432959435       -1.2851910453
 H          2.4430865248       -2.1248220752        0.2890402184
 H          2.8539918071        1.7356605636        1.9841932110
 H          1.5541916761        2.7784200585        0.0844301909
 H          4.8792802921       -0.7656157708       -0.1166621965
  29
        -55.68754048
 O         -2.3017331453        1.6948786532       -0.7623837321
 O         -4.2116932099        0.8111342208       -0.0347021893
 N         -0.9021229829       -0.6824216760       -0.0747517336
 N         -2.8042722933       -1.5381358637        0.6844629104
 C         -2.2460293633       -0.4809553638        0.1198452858
 C         -0.6317364081       -1.9224687956        0.4001814606
 C         -1.8196310504       -2.4354259398        0.8593530490
 C         -3.0155966050        0.7115066467       -0.2231235337
 H          0.3498887445       -2.3428170785        0.3558639144
 H         -2.0167768684       -3.3895316592        1.3023764922
 H         -2.8612776531        2.4694721584       -0.9747375290
 O          1.2140398818       -0.4800214285       -1.0234371712
 O          2.6747645723        1.6628471097        1.4474620049
 O          0.7447991561        2.4909074852       -0.1729284751
 O          3.8727613914       -1.7126509634       -1.2835623718
 C          1.8629314879        0.6427077577        0.9500766997
 C          2.3840722304       -0.0378842278       -0.3282060132
 C          0.5409036439        1.2583015012        0.4465205916
 C          0.0818943390        0.2363308104       -0.6144210584
 C          3.3046246855       -1.2361775156       -0.0923479324
 H          1.6444323999       -0.1147077402        1.7152951824
 H          2.9026028249        0.7072515272       -0.9481254913
 H         -0.2019684558        1.3475302678        1.2518552956
 H         -0.3571832148        0.7638000461       -1.4692075739
 H          2.7423638412       -2.0317867502        0.4153887372
 H          4.1446836318       -0.9375681327        0.5373829187
 H          3.4808574452        1.3029996122        1.8408851215
 H          1.3806800751        2.9971545004        0.3609353944
 H          3.1639674352       -1.9269721310       -1.9067543709
  29
        -55.68745380
 O         -2.3524994066        1.7895930595       -0.4942511304
 O         -4.2241066125        0.8033362216        0.1920800700
 N         -0.9418497352       -0.6837495003       -0.2480901655
 N         -2.7855020289       -1.6021031836        0.5809964469
 C         -2.2574298207       -0.4903826410        0.0954847730
 C         -0.6584206773       -1.9750462208        0.0421332083
 C         -1.8106965314       -2.5241707630        0.5524891070
 C         -3.0375182774        0.7298725492       -0.0548194646
 H          0.3027460440       -2.3985330617       -0.1566315365
 H         -1.9860132944       -3.5222860908        0.8966452787
 H         -2.9607282193        2.5489863507       -0.6080499370
 O          1.1163432493       -0.3675091329       -1.3150086582
 O          2.7157460319        1.3535438568        1.4026338096
 O          0.8920882516        2.4770955887       -0.1768409934
 O          4.3776575474       -1.2128862426        0.1248477280
 C          1.8019267057        0.5114610194        0.7840599469
 C          2.2905531135       -0.1134886048       -0.5396990092
 C          0.5125771176        1.2305465782        0.3280949408
 C         -0.0010540984        0.2856556863       -0.7823870735
 C          3.0896774101       -1.4146837926       -0.3879666421
 H          1.5620869323       -0.2782758701        1.5033205779
 H          2.9012130458        0.6282496104       -1.0747566825
 H         -0.2172548430        1.3244662383        1.1387022526
 H         -0.5009182016        0.8419269436       -1.5846632356
 H          3.1186002999       -1.9081398657       -1.3681492561
 H          2.5921966528       -2.0779600590        0.3240804585
 H          2.7202064537        2.2034654368        0.9293975211
 H          0.1143861688        3.0266502342       -0.3418740761
 H          4.9049349868       -0.6935555189       -0.4988745143
  29
        -55.68745306
 O         -2.5298459537        0.9398087819       -1.3789508154
 O         -1.7049449778       -0.8605110808       -2.4086055938
 N         -1.0675641426       -0.1530259029        0.9281429067
 N         -2.3080572059       -1.9201389544        0.4237662299
 C         -1.7909434500       -0.8023162905       -0.0283290867
 C         -1.1479441639       -0.9241980280        2.0515208279
 C         -1.9227199342       -2.0004105094        1.7218052556
 C         -1.9806023526       -0.2592135460       -1.3946162389
 H         -0.6817364549       -0.6599081068        2.9753788574
 H         -2.2288229917       -2.8268669366        2.3288167136
 H         -2.6616704777        1.3050342450       -2.2778049533
 O          0.1353333069        1.0452129661       -0.6655131198
 O          3.2628256817        0.7768321933        0.9007408959
 O          1.3513322227        2.5001578349        1.5885094546
 O          2.8118950851       -1.2466372996       -1.5564980005
 C          1.9633511449        0.3137219240        0.6881968381
 C          1.4538721413        0.5080853606       -0.7564419124
 C          0.9744950957        1.1559358927        1.5174546223
 C         -0.3009628279        1.0555632774        0.6688304398
 C          1.4775276187       -0.8001819647       -1.5501367595
 H          1.8698034784       -0.7433094308        0.9736327829
 H          2.0767905057        1.2492829120       -1.2711228888
 H          0.8458483247        0.7525909151        2.5278691332
 H         -0.9397598946        1.9372003099        0.7990216854
 H          1.1011000552       -0.6142474325       -2.5620255743
 H          0.8137480911       -1.5333834987       -1.0705167890
 H          3.8793886458        0.2502277223        0.3720077555
 H          2.3222149610        2.5370148131        1.6369257183
 H          2.8879447070       -2.0333654594       -2.1141377430
  29
        -55.68735828
 O         -2.2140092388        1.8305500658       -0.6630594633
 O         -4.1007795029        1.0031882438        0.1726551303
 N         -0.9182718097       -0.7004363369       -0.2197516301
 N         -2.8946481706       -1.5319310372        0.3478893700
 C         -2.2467483361       -0.4347012166       -0.0074670936
 C         -0.7488450473       -2.0227773619        0.0272535685
 C         -1.9830765242       -2.5189703330        0.3663078607
 C         -2.9383796318        0.8440206350       -0.1436056897
 H          0.2034361710       -2.4968247536       -0.0803734171
 H         -2.2618808574       -3.5206068981        0.6204644656
 H         -2.7446655524        2.6493309634       -0.7449309153
 O          1.1728556018       -0.4469198310       -1.2187034943
 O          2.3845074343        2.1939793077       -0.2342100878
 O          0.2130317623        1.9404224123        1.2586085245
 O          4.3600095972       -1.5065200633        0.2397907012
 C          2.2714308100        0.9311531590        0.3675958180
 C          2.4538629218       -0.2295577345       -0.6204930271
 C          0.7966990471        0.7752354250        0.7897760160
 C          0.1572721117        0.2169014455       -0.5140211074
 C          2.9712330189       -1.5251142160        0.0370375682
 H          2.9407957626        0.8476182553        1.2303122572
 H          3.1394434406        0.0385808836       -1.4322367265
 H          0.6967221083        0.0236629552        1.5805426470
 H         -0.2447346527        1.0382255398       -1.1194907536
 H          2.7810159749       -2.3468882513       -0.6576395918
 H          2.4332450096       -1.7184687235        0.9726672044
 H          3.3081958428        2.3930540370       -0.4388010902
 H          0.5871874232        2.6871674403        0.7579988171
 H          4.5871597842       -0.9400032441        0.9899524789
  29
        -55.68730832
 O         -2.2140334933        1.7322834656       -0.8410635717
 O         -4.1314717715        0.8312189397       -0.1690830040
 N         -0.8206909258       -0.6598779014       -0.0250735326
 N         -2.7934884739       -1.5519275388        0.4578711046
 C         -2.1784017251       -0.4655591809        0.0222346606
 C         -0.6025011254       -1.9245986318        0.4139734354
 C         -1.8332624983       -2.4608275212        0.6971312033
 C         -2.9307224458        0.7372697687       -0.3254377906
 H          0.3786995137       -2.3444753857        0.4745438760
 H         -2.0775315476       -3.4388906282        1.0567086012
 H         -2.7782869902        2.5066247417       -1.0437655301
 O          1.2611581954       -0.3771046525       -1.0437768377
 O          2.5187008491        2.3721551227       -0.0682199888
 O          0.2335984618        2.1010496474        1.2977568878
 O          3.4074073139       -2.3078629662       -0.7864317304
 C          2.3253758642        1.1014025783        0.4884161747
 C          2.5473827821       -0.0529812684       -0.4918397752
 C          0.8486055093        0.9178918941        0.9128857295
 C          0.2230573268        0.2782739417       -0.3583977611
 C          3.1686655734       -1.2966746248        0.1582518033
 H          2.9964167475        1.0476854019        1.3471391680
 H          3.1861593291        0.2492715377       -1.3294654306
 H          0.7696021908        0.2048759967        1.7419114489
 H         -0.2201248874        1.0524778456       -0.9956988815
 H          2.5146849430       -1.6622123442        0.9622030891
 H          4.1412054416       -1.0421959649        0.5826751905
 H          2.1773184200        2.4051899638       -0.9744615337
 H          0.7732874395        2.8456186985        0.9680125779
 H          2.6060845531       -2.4405900706       -1.3143533939
  29
        -55.68729344
 O         -4.1587741666        0.6820032178        0.2088970407
 O         -2.4160025788        1.7197693141       -0.7220245231
 N         -0.8270403088       -0.6661434431       -0.1671679590
 N         -2.6847292274       -1.5685749102        0.6464315026
 C         -2.1544808137       -0.4786758105        0.1190373937
 C         -0.5332659492       -1.9362469629        0.2003998679
 C         -1.6949438711       -2.4758140241        0.6991080033
 C         -2.8967193397        0.7421784113       -0.1725560453
 H          0.4375321546       -2.3573995908        0.0469745083
 H         -1.8677622885       -3.4576311116        1.0885685830
 H         -4.6509436307        1.4992524248       -0.0094924115
 O          1.2755616806       -0.3496891217       -1.1191151941
 O          2.5934208149        1.7086829280        1.4895787179
 O          0.8042100739        2.5475918379       -0.3086833830
 O          3.5827269933       -1.9998953665       -1.0669705221
 C          1.7893903593        0.7081061928        0.9419604635
 C          2.3884901132        0.0022850512       -0.2914222495
 C          0.5206770395        1.3465092220        0.3412076458
 C          0.1089815282        0.3011880348       -0.7121251147
 C          3.2163346224       -1.2413640846        0.0537773213
 H          1.4939683493       -0.0356074023        1.6936447155
 H          3.0044470434        0.7236586214       -0.8478611041
 H         -0.2691060247        1.4861889814        1.0920384881
 H         -0.3620420990        0.8025238318       -1.5665611883
 H          2.6335615093       -1.9172770185        0.6847317464
 H          4.1062808331       -0.9186289566        0.6112213974
 H          3.3000632360        1.3269481220        2.0275873254
 H          1.3730308652        3.0806946602        0.2727659275
 H          4.0452725756       -1.4403800924       -1.7065430334
  29
        -55.68727734
 O         -3.2564064952       -0.4897305547       -1.8029780425
 O         -1.0731874048       -0.4591225315       -2.2209802664
 N         -0.9099943641       -0.1270530751        0.8623792579
 N         -2.7446091054       -1.3621564844        0.7037759813
 C         -1.8731192067       -0.6338512849        0.0313988727
 C         -1.2339205922       -0.5505527132        2.1171205171
 C         -2.3568533079       -1.3232672370        1.9935813798
 C         -1.9934447125       -0.5016245773       -1.4275694272
 H         -0.6669119558       -0.2543208224        2.9747617822
 H         -2.9027855509       -1.8503935374        2.7480947807
 H         -3.3585632559       -0.4858217269       -2.7768928378
 O          0.5344394246        0.9883432818       -0.6815388580
 O          2.9675969382        2.1427593830        0.6088753808
 O          1.4956959246        1.2527147071        2.6665476773
 O          1.6352896008       -1.2067686184       -2.5781045785
 C          2.5457231670        0.8112176150        0.4878867659
 C          1.8726025348        0.5008983772       -0.8505367411
 C          1.4030140381        0.5205559444        1.4885164437
 C          0.1349797621        0.8653311234        0.6498211463
 C          1.9191575890       -0.9910447392       -1.2228597699
 H          3.4225728471        0.1931092156        0.6809849360
 H          2.3011662571        1.0728579039       -1.6781362611
 H          1.3913630725       -0.5443753064        1.7431024062
 H         -0.2804228605        1.8334282822        0.9732718514
 H          1.2227109691       -1.5521790100       -0.5855016937
 H          2.9318495823       -1.3686532547       -1.0670222465
 H          2.3543051440        2.7292641351        0.1410457071
 H          2.1065612950        1.9989708591        2.5156959420
 H          0.7180911271       -0.9274489458       -2.7442186278
  29
        -55.68724572
 O         -3.3457131160        0.0675730190       -1.7715532039
 O         -1.2427302648       -0.4859756666       -2.2489407046
 N         -1.0253071267       -0.1805599801        0.8610962099
 N         -2.9203520276       -1.3034409851        0.6325078252
 C         -2.0216495032       -0.5657060891        0.0118409006
 C         -1.3460968192       -0.6973232788        2.0833414004
 C         -2.5073901110       -1.3978195992        1.9162483800
 C         -2.1278087826       -0.3110368786       -1.4386984140
 H         -0.7388707114       -0.5116803975        2.9445418065
 H         -3.0691187068       -1.9616807361        2.6315133317
 H         -3.4610714464        0.1561572008       -2.7402499470
 O          0.3496471202        1.0350515323       -0.6429265526
 O          2.8724361428        1.9680765532        0.7624224440
 O          1.5471538298        0.7181905958        2.6622359340
 O          3.0926208646       -1.0607574530       -1.9543895229
 C          2.4541888605        0.6838658026        0.3750389139
 C          1.6926748266        0.6653702643       -0.9576012002
 C          1.3629474480        0.2423045696        1.3713041578
 C          0.0623113415        0.7679642535        0.6959755663
 C          1.7698142341       -0.7214909913       -1.6229330073
 H          3.2888243942       -0.0230409369        0.3534451497
 H          2.0573500688        1.4324370910       -1.6471354134
 H          1.3202222449       -0.8499418326        1.4268991215
 H         -0.2506690660        1.7089769259        1.1785650148
 H          1.1043844983       -0.7357483643       -2.4898655661
 H          1.4210228217       -1.4824725724       -0.9204137505
 H          3.7039754945        2.1982205590        0.3267217068
 H          2.0073348440        1.5752228886        2.6061101372
 H          3.3634675411       -0.5802627115       -2.7497203631
  29
        -55.68723845
 O         -1.7534520938        1.1677062553       -1.5005483887
 O         -3.0252830796       -0.5332501452       -2.1686216002
 N         -1.0210045964       -0.3084471611        0.8164908350
 N         -2.9065385452       -1.4517706599        0.5739678229
 C         -2.0813399058       -0.5991524000       -0.0013513941
 C         -1.2123645385       -1.0208219603        1.9571843036
 C         -2.3857675459       -1.7106192123        1.7896466669
 C         -2.3289372621       -0.0135294713       -1.3203303804
 H         -0.5462836477       -0.9601726293        2.7913059635
 H         -2.8823808865       -2.3731520486        2.4678459921
 H         -1.9511141116        1.5331181263       -2.3865932945
 O          0.6542139662        0.0684884847       -0.7430891747
 O          2.4283588981        2.3135681948        0.6974912762
 O          1.1220303768        1.0763795969        2.6755896511
 O          2.5696615337       -1.1923972384       -2.5701734706
 C          2.4440657268        0.9129187619        0.5996960653
 C          2.0490751710        0.4024290875       -0.7998067614
 C          1.2918347790        0.3928099016        1.4820871730
 C          0.1164595202        0.5057037178        0.4860384505
 C          2.8410953482       -0.8354658941       -1.2403395084
 H          3.4071673446        0.5043027938        0.9193404465
 H          2.1733722381        1.1946240960       -1.5486012897
 H          1.4588261560       -0.6624820810        1.7192674325
 H         -0.2046782567        1.5580521413        0.4074729995
 H          2.6158214548       -1.6667654630       -0.5596084687
 H          3.9104553813       -0.6191677290       -1.2053703197
 H          3.2327845857        2.6909201313        0.3165642367
 H          1.3170872075        2.0172593011        2.5234481833
 H          1.6238499924       -1.3726924002       -2.6610380972
  29
        -55.68723232
 O         -2.2862449993        1.6359103749       -0.7194443704
 O         -3.6771417978        0.9360614613        0.8746936416
 N         -0.7156500336       -0.7114834328       -0.3590462217
 N         -2.5335211206       -1.6847760910        0.4575051033
 C         -1.9920661710       -0.5324564979        0.1048763465
 C         -0.4644726698       -2.0428528398       -0.2910735612
 C         -1.6019130294       -2.6252417391        0.2093794931
 C         -2.7252696305        0.7333611762        0.1480720666
 H          0.4684179950       -2.4583614145       -0.6127031434
 H         -1.8030172537       -3.6590789807        0.3998344987
 H         -2.8067478456        2.4621854261       -0.6711032826
 O          1.4242433092       -0.2697573234       -1.2108441214
 O          2.6404303871        2.3039430640       -0.2939918569
 O          0.1083836795        2.4755761387        0.4699456464
 O          2.7773782144       -2.4963060089        0.0288951277
 C          2.1924228976        1.1936669296        0.4322035586
 C          2.4822512205       -0.1390932580       -0.2601358892
 C          0.6418894522        1.1951720236        0.5030609355
 C          0.2486773278        0.3118514308       -0.7249460126
 C          2.5682498081       -1.2992920404        0.7408086039
 H          2.6414976859        1.2725043039        1.4226884734
 H          3.4029820707       -0.1246733655       -0.8493548054
 H          0.2908054288        0.7083521015        1.4205156058
 H         -0.1985640097        0.9266288080       -1.5160600701
 H          1.6434590399       -1.3578026783        1.3310014779
 H          3.4074588784       -1.0899192980        1.4133836214
 H          2.5305126387        2.1435978536       -1.2441465928
 H          0.7950376672        3.0797822412        0.1241171498
 H          3.0280140615       -3.2003086438        0.6431873289
  29
        -55.68721680
 O         -2.4419585261        0.7137442759       -1.4664082304
 O         -1.4132927135       -1.0686056827       -2.3256974804
 N         -0.9812758457       -0.1236220350        0.9504672466
 N         -2.1195383444       -1.9857999796        0.5625108244
 C         -1.6563270013       -0.8782954117        0.0368346615
 C         -1.0271736046       -0.8178625771        2.1245970142
 C         -1.7432495519       -1.9527477476        1.8663352455
 C         -1.8107753269       -0.4370614679       -1.3704615365
 H         -0.5755730538       -0.4690068853        3.0271894512
 H         -2.0126977432       -2.7487467609        2.5287861974
 H         -2.5518676938        1.0118331562       -2.3934154043
 O          0.2775439595        0.9470174399       -0.6948133573
 O          3.2920728831        0.9076592736        1.1119985720
 O          1.3136398410        2.7420720230        1.3750296852
 O          1.4971038346       -1.1526727068       -2.5123398839
 C          1.9920266651        0.4582850001        0.9029436389
 C          1.5908519278        0.3714766207       -0.5925524828
 C          0.9174852159        1.4062536740        1.4892480449
 C         -0.2814656556        1.0955833104        0.5865861352
 C          1.6484826997       -1.0709441016       -1.1187561244
 H          1.9117046410       -0.5345062768        1.3593535979
 H          2.2533389305        0.9816665913       -1.2159323930
 H          0.7344527876        1.2374041874        2.5490116120
 H         -1.0010334595        1.9222220036        0.5357124891
 H          0.9008688671       -1.6881115702       -0.6060728316
 H          2.6461253790       -1.4596722655       -0.8961386728
 H          3.2716784776        1.8742302678        1.2381006469
 H          1.2877752888        3.0204785422        0.4460359134
 H          0.5539649095       -1.1200911956       -2.7413141037
  29
        -55.68711006
 O         -3.9600722911        0.7575739405        0.3900682329
 O         -2.2939398281        1.7378502150       -0.7209654304
 N         -0.7195786549       -0.6889207204       -0.2635166114
 N         -2.6232531155       -1.6351523878        0.3694127253
 C         -2.0449133123       -0.4974600327        0.0230946779
 C         -0.4723619143       -2.0087291783       -0.0863176751
 C         -1.6639794127       -2.5748679823        0.2999515743
 C         -2.7500367041        0.7699700092       -0.1351658181
 H          0.4892989704       -2.4329119465       -0.2870666887
 H         -1.8803271382       -3.5982486287        0.5271330605
 H         -4.4330516382        1.6019036039        0.2453112696
 O          1.3940101303       -0.2492567402       -1.1591124906
 O          2.6614448287        2.3165486121       -0.1531048172
 O          0.1289108284        2.3435122046        0.8616107308
 O          2.9008567630       -2.4493741950       -0.2846916280
 C          2.2633842922        1.1568656591        0.5270414268
 C          2.5455733065       -0.0741063645       -0.3384187372
 C          0.7192449844        1.0979793012        0.6932630177
 C          0.2627275009        0.3290839976       -0.5809866108
 C          2.8532568159       -1.3033581495        0.5319759986
 H          2.7658590412        1.0782590480        1.4957880155
 H          3.3729999006        0.1001412319       -1.0311023208
 H          0.4567284170        0.5186929237        1.5839367168
 H         -0.2024752649        1.0205870349       -1.2973122511
 H          2.0750062573       -1.4156330394        1.3008938060
 H          3.8166225681       -1.1249126304        1.0209456259
 H          2.7039516277        3.0604589840        0.4657455882
 H          0.3462925554        2.9070588579        0.1010732769
 H          3.3371158544       -3.1694554547        0.1923186533
  29
        -55.68709959
 O         -2.3975772660        1.3054394546       -1.2115857128
 O         -3.4067677518       -0.5549384848       -1.8971643776
 N         -0.8874572688       -0.2250124847        0.6785057986
 N         -2.3598755465       -1.8663193778        0.4017117328
 C         -1.9731816224       -0.6821897560       -0.0291464363
 C         -0.5923763040       -1.1993716617        1.5804215494
 C         -1.5200938968       -2.1934167471        1.4020612256
 C         -2.6528702678        0.0064546477       -1.1289082937
 H          0.2209980748       -1.1347734398        2.2697220734
 H         -1.6290690794       -3.1169901741        1.9318310722
 H         -2.8682418655        1.7170541590       -1.9644642191
 O          0.4652869430        0.8985652174       -0.8881225210
 O          3.4217506353        1.0850765245        0.8475393510
 O          1.3442962869        2.6192995738        1.3638778073
 O          2.8930287279       -1.8705538528       -0.9897847264
 C          2.1903676668        0.4408830366        0.7120058421
 C          1.7498396161        0.2840271192       -0.7668192746
 C          1.0278272361        1.2556803993        1.3411482971
 C         -0.1373311495        0.9825486229        0.3800199707
 C          1.6893907895       -1.1877758500       -1.2125755256
 H          2.2845327885       -0.5509898887        1.1669493983
 H          2.4329444541        0.8370173608       -1.4207179377
 H          0.8197710648        0.9839141307        2.3751567229
 H         -0.8417444565        1.8200710571        0.3479385012
 H          1.3910507434       -1.2241327518       -2.2680385847
 H          0.9336665816       -1.7202192782       -0.6287326126
 H          3.2567551108        1.9968024253        1.1550317741
 H          1.3066787377        2.9833024383        0.4649512085
 H          3.5950909144       -1.4887454171       -1.5357083801
  29
        -55.68709436
 O         -2.4066551255        1.3617932734       -1.1168589776
 O         -3.6120439137       -0.4167210084       -1.6884805909
 N         -0.7788580821       -0.3154308149        0.5709110912
 N         -2.3459984851       -1.8794111825        0.3679163524
 C         -1.9553636582       -0.6847782218       -0.0364197740
 C         -0.4285513693       -1.3550948153        1.3691136400
 C         -1.4146119277       -2.3004043584        1.2418746339
 C         -2.7271290569        0.0764290965       -1.0165162481
 H          0.4698680470       -1.3757633102        1.9452044662
 H         -1.5039958329       -3.2514504390        1.7246610824
 H         -2.9485594021        1.8136796078       -1.7949050535
 O          0.6022368117        0.7730885416       -0.9844832207
 O          3.4785197533        1.4245938517        0.6626712728
 O          1.2529985714        2.5432615738        1.5217463897
 O          1.7135829781       -1.9929849098       -0.4444946807
 C          2.3766516948        0.5625299059        0.6126703987
 C          1.9657257643        0.3753688357       -0.8607502185
 C          1.1167063820        1.1726123598        1.2889814584
 C         -0.0093092443        0.8809885263        0.2745506542
 C          2.1968220448       -1.0491290448       -1.3756677733
 H          2.6113570198       -0.4128472184        1.0532654543
 H          2.5499222195        1.0587780269       -1.4880159898
 H          0.8978057308        0.7332474007        2.2629975899
 H         -0.7065174788        1.7242248968        0.2294190666
 H          3.2749509492       -1.1785894948       -1.5303245968
 H          1.6757287476       -1.1451426899       -2.3354389623
 H          3.7956228520        1.5049547407        1.5744666960
 H          1.7373592299        2.9531984248        0.7869069025
 H          1.8853642664       -2.8818042495       -0.7841144063
  29
        -55.68709214
 O         -2.5061553025        1.6318376438       -0.8719279474
 O         -4.3161698943        0.3823664592       -0.5396631242
 N         -0.8480567549       -0.5235392801        0.0638855063
 N         -2.7007479535       -1.6284659507        0.5804432445
 C         -2.2203675542       -0.5241012040        0.0363234988
 C         -0.4794392123       -1.6870342352        0.6591937755
 C         -1.6373264894       -2.3552936914        0.9659921476
 C         -3.1103993657        0.5143138795       -0.4783767905
 H          0.5473595932       -1.9506080451        0.8045136997
 H         -1.7645207155       -3.3063245744        1.4401385205
 H         -3.1511361929        2.2960701554       -1.1900971147
 O          1.0919007497       -0.1669516876       -1.1596165125
 O          3.1124612560        1.5562712271        1.2332627892
 O          0.7966908727        2.5670476924        0.5214742409
 O          2.8867619207       -2.1517512536       -0.3291114460
 C          2.2091181158        0.5929191146        0.7749617137
 C          2.3906182567        0.2059743658       -0.7052264449
 C          0.7882799618        1.1943001873        0.7782842061
 C          0.0933275678        0.4698966394       -0.3974253506
 C          3.3483416099       -0.9693364749       -0.9354470691
 H          2.2324767878       -0.3118373559        1.3947745881
 H          2.7391609492        1.0865761911       -1.2630875262
 H          0.2629158182        0.9894205557        1.7223390441
 H         -0.4378630677        1.2055453182       -1.0096575919
 H          4.3139043223       -0.7425280038       -0.4801898335
 H          3.4866536485       -1.1089664208       -2.0117489179
 H          3.9750283489        1.1565452476        1.4050426354
 H          1.5825246275        2.9498650488        0.9487051454
 H          2.1461599550       -2.4905044649       -0.8511000126
  29
        -55.68703234
 O         -2.4088155023        1.2709651465       -1.3169664981
 O         -3.8032141551       -0.4474773655       -1.5291447423
 N         -0.8386549191       -0.2622453340        0.5607993141
 N         -2.4935738728       -1.7449992388        0.5894205005
 C         -2.0544629382       -0.6302830203        0.0361770015
 C         -0.5202760513       -1.2220648058        1.4703559871
 C         -1.5575235342       -2.1187998645        1.4802033699
 C         -2.8320537096        0.0526087569       -0.9994387538
 H          0.3859736808       -1.2090528268        2.0366400797
 H         -1.6819078330       -3.0022714862        2.0715130132
 H         -2.9650289134        1.6740737206       -2.0143539854
 O          0.8207596543        0.4348208021       -0.9493138087
 O          3.4012846876        1.4838250940        0.9439720630
 O          1.0966620430        2.7175822802        1.2282262605
 O          2.3860343732       -1.8352549536       -1.9906099897
 C          2.3115731215        0.6082474731        0.9236116678
 C          2.1352201616        0.0820892292       -0.5129823085
 C          0.9677522752        1.3294097454        1.2422426100
 C          0.0172243640        0.8310280319        0.1304158868
 C          2.3593089702       -1.4297281595       -0.6462071777
 H          2.4718328170       -0.2297236245        1.6134077309
 H          2.8399816632        0.5971421492       -1.1764561936
 H          0.5760126524        1.0808741384        2.2305101993
 H         -0.6274175843        1.6441026898       -0.2145160907
 H          1.5754006581       -1.9708926822       -0.0977772588
 H          3.3359097853       -1.6904927628       -0.2341320857
 H          3.5810319787        1.7788182188        1.8493889279
 H          1.6934174162        2.9838248698        0.5097293831
 H          1.5744945202       -1.5349825869       -2.4245362644
  29
        -55.68695651
 O         -2.4875074246        1.3435272200       -1.1343579064
 O         -3.2216189541       -0.5510625524       -2.0439027672
 N         -0.9420872735       -0.2101538632        0.7200789581
 N         -2.4030956772       -1.8509971141        0.3835045190
 C         -1.9944308307       -0.6690728956       -0.0313400922
 C         -0.6872756559       -1.1831339266        1.6364831834
 C         -1.6087470822       -2.1750621142        1.4233142930
 C         -2.6162561641        0.0259096600       -1.1641339685
 H          0.0924060894       -1.1151845743        2.3635031852
 H         -1.7451854227       -3.0954971058        1.9522789915
 H         -2.9125984224        1.7682598452       -1.9070824939
 O          0.4153087695        0.8332571664       -0.8685572508
 O          3.3678416546        1.0231344756        0.9355462461
 O          1.3064048066        2.5905790254        1.3486936191
 O          3.0903757592       -1.6177608311       -1.0969558660
 C          2.1441186355        0.3806310295        0.7273650144
 C          1.7278746113        0.2905403278       -0.7600188971
 C          1.0164189325        1.2218396088        1.3632689418
 C         -0.1577417009        0.9744366075        0.4061241214
 C          1.7758657536       -1.1498960639       -1.2801362874
 H          2.1571145973       -0.6247041571        1.1662516451
 H          2.3901613593        0.9149645548       -1.3700745602
 H          0.7910473954        0.9130594619        2.3908225849
 H         -0.8202777260        1.8443688970        0.3732482948
 H          1.4854294244       -1.1515073077       -2.3364305617
 H          1.0557859782       -1.7637749283       -0.7200852042
 H          4.0830198248        0.4769010129        0.5808885685
 H          2.2726163406        2.6935443953        1.4051813429
 H          3.1848779738       -2.4919693837       -1.5003033043
  29
        -55.68694925
 O         -2.4933437658        1.3990403855       -1.1308209614
 O         -3.5616412096       -0.4231521392       -1.8288631419
 N         -0.9204650396       -0.2382592961        0.6341698845
 N         -2.4710957262       -1.8126186809        0.3937842362
 C         -2.0583228374       -0.6326682620       -0.0258549889
 C         -0.6173737980       -1.2513314176        1.4897918032
 C         -1.5934257242       -2.2020595923        1.3378985937
 C         -2.7676233439        0.1034085954       -1.0761331368
 H          0.2320597360       -1.2358721156        2.1375837383
 H         -1.7134332255       -3.1351719195        1.8484212791
 H         -2.9852274634        1.8430996166       -1.8511911170
 O          0.5100095458        0.7367791617       -0.9401464381
 O          3.3811475036        1.1602899090        0.9040256689
 O          1.2533578318        2.5875480763        1.3237884928
 O          3.2193390930       -1.6873994043       -0.9558976411
 C          2.2101640010        0.4175863848        0.7203484608
 C          1.8241815380        0.2185906348       -0.7651229313
 C          1.0186432122        1.2085295513        1.3075076900
 C         -0.1116841475        0.9244355052        0.3053305584
 C          1.9000814320       -1.2539129219       -1.1845842070
 H          2.2973196681       -0.5591784000        1.2109725265
 H          2.4911993404        0.8064737167       -1.4054372696
 H          0.7597175053        0.8807772095        2.3216085089
 H         -0.7668153975        1.7956694309        0.2179448242
 H          1.6241381317       -1.3300720309       -2.2422736627
 H          1.1826278796       -1.8401343802       -0.5928087895
 H          4.1421510820        0.6454438840        0.6021603193
 H          2.2166472575        2.7286602498        1.3355959250
 H          3.3283727674       -2.5897558099       -1.2868201485
  29
        -55.68689084
 O         -2.4002441803       -2.2433044297       -1.4071883545
 O         -0.9704595766       -0.7327954541       -2.1904809291
 N         -1.1384888640        0.4543909118        0.6470065789
 N         -2.9167359421       -0.8660793690        0.7587428586
 C         -1.8661877154       -0.5291061090        0.0272613968
 C         -1.7801666240        0.7183996653        1.8169381001
 C         -2.8753682006       -0.1046039120        1.8641731711
 C         -1.6723256594       -1.1472278457       -1.2856675674
 H         -1.3987278953        1.4359718102        2.5132320891
 H         -3.6293405423       -0.1859180020        2.6192944697
 H         -2.3321899008       -2.6367133436       -2.3003712375
 O          0.6566043513        0.8621780396       -0.8819898902
 O          3.0239678364        1.9725427006        0.6724059184
 O          1.2287198721        1.5243877238        2.5444649151
 O          1.7205362763       -1.4907526878       -2.4109363045
 C          2.4866437521        0.6777036047        0.6065495070
 C          1.9745591205        0.3090521737       -0.7929170151
 C          1.1886116284        0.6930236968        1.4357639400
 C          0.1270205759        1.1202863512        0.3762935333
 C          1.9655235837       -1.2042507677       -1.0609280432
 H          3.1943036671       -0.0649534507        0.9877165355
 H          2.5528800832        0.7955525187       -1.5847048062
 H          0.9509396188       -0.3155665330        1.7906544247
 H         -0.0694977364        2.2008370178        0.4654153048
 H          1.2156516099       -1.6855593502       -0.4163941844
 H          2.9494794204       -1.6235793298       -0.8412267201
 H          3.8962849078        1.9999779982        0.2560356008
 H          1.8179252375        2.2734769436        2.3423206176
 H          0.8542685713       -1.1168834872       -2.6514125414
  29
        -55.68687102
 O         -2.4145679395        0.6538484161       -1.5291441325
 O         -1.3203267855       -1.1277074922       -2.3069119157
 N         -1.0258058314       -0.1057012623        0.9590508101
 N         -2.1663139303       -1.9688860296        0.5819385013
 C         -1.6649311434       -0.8855267643        0.0415445607
 C         -1.1376348037       -0.7573692054        2.1536042932
 C         -1.8525532952       -1.8938290157        1.9007400926
 C         -1.7632961582       -0.4808938728       -1.3826656241
 H         -0.7286221723       -0.3832134489        3.0663678132
 H         -2.1633221702       -2.6632088896        2.5764774461
 H         -2.4883235964        0.9335627849       -2.4651992838
 O          0.2556132120        0.9089715839       -0.6940475456
 O          3.2743401455        0.8361861056        1.1626225249
 O          1.3616550190        2.7001663115        1.3351844664
 O          1.5892521324       -1.0452854927       -2.5746778435
 C          1.9682536959        0.4423652098        0.9078398620
 C          1.5940535280        0.4051248236       -0.5935449762
 C          0.9011312526        1.3895364511        1.5025660482
 C         -0.2955884630        1.0952630846        0.5825329028
 C          1.7304871741       -1.0084407983       -1.1783623020
 H          1.8553208091       -0.5590212584        1.3368530243
 H          2.2308314625        1.0848517437       -1.1704908765
 H          0.6978581421        1.1683821694        2.5523604502
 H         -0.9968963572        1.9353925829        0.5072467653
 H          1.0089909473       -1.6789852168       -0.6950929066
 H          2.7444056506       -1.3562626817       -0.9624807058
 H          3.3354352805        1.8001480033        1.0462921382
 H          0.8267998396        3.3252642497        1.8441768870
 H          0.6459652007       -1.0428465574       -2.8035147356
  29
        -55.68679645
 O         -2.2723128828        1.1108899075       -1.4371995784
 O         -3.4190947064       -0.7604074330       -1.8026999737
 N         -0.8757775983       -0.1821683069        0.7154080348
 N         -2.4090787926       -1.7887950184        0.6290767628
 C         -1.9686786858       -0.6881743458        0.0521548853
 C         -0.6366712230       -1.0372016684        1.7455164847
 C         -1.5995945568       -2.0115753218        1.6806844645
 C         -2.6163907634       -0.1361021817       -1.1396214942
 H          0.1616366395       -0.9065924707        2.4430300067
 H         -1.7534358518       -2.8523648173        2.3248350195
 H         -2.7309266031        1.4302364080       -2.2408609511
 O          0.6546848040        0.6320757122       -0.8761009492
 O          3.4184466706        1.1033213043        1.2243725385
 O          1.3143808533        2.7445081747        1.1362027344
 O          2.1965995678       -1.5566688693       -2.2443319615
 C          2.1944734905        0.4922437920        0.9598623292
 C          1.9732744196        0.1768940650       -0.5400696981
 C          0.9829852527        1.3955606974        1.3064846358
 C         -0.0713247668        0.9493103806        0.2856810433
 C          2.1376114575       -1.3120686163       -0.8629237073
 H          2.1683157888       -0.4396663488        1.5338175246
 H          2.6791476205        0.7416538006       -1.1598615386
 H          0.6552320470        1.2990760225        2.3412767390
 H         -0.7548854153        1.7659871413        0.0317119699
 H          1.3174178543       -1.8805967431       -0.4015383211
 H          3.0889868961       -1.6598932719       -0.4555709205
 H          3.2757833808        2.0657965885        1.2979006839
 H          1.3915743423        2.9542125975        0.1920365897
 H          1.3900894202       -1.2223233914       -2.6612847699
  29
        -55.68672341
 O         -2.4240240540        0.7540399725       -1.4610516784
 O         -1.4044211965       -1.0162197583       -2.3552908738
 N         -0.9831451407       -0.1658604488        0.9472757783
 N         -2.1671746459       -1.9876404363        0.5028811685
 C         -1.6668238200       -0.8810320774        0.0093749520
 C         -1.0681009815       -0.8829942174        2.1053124700
 C         -1.8096203956       -1.9928117665        1.8122748360
 C         -1.8015461637       -0.4024733205       -1.3877944853
 H         -0.6297483833       -0.5652701385        3.0257270702
 H         -2.1091301564       -2.7951151433        2.4539163060
 H         -2.5191031983        1.0773293387       -2.3810522185
 O          0.2826079858        0.9228174116       -0.6737694167
 O          3.3034117380        1.2041428966        0.8469243118
 O          1.2262572058        2.6804974844        1.6501934323
 O          1.4792583075       -1.2249717682       -2.4711426409
 C          2.0852481560        0.5222055079        0.8477509260
 C          1.6007138360        0.3677464154       -0.6085777229
 C          0.9471604210        1.3187205672        1.5448292471
 C         -0.2534366768        1.0485453630        0.6160773243
 C          1.6547637015       -1.0943764722       -1.0851751906
 H          2.1798206067       -0.4684698502        1.3122877098
 H          2.2273082051        0.9658075074       -1.2791997818
 H          0.7598513673        0.9776320948        2.5627530834
 H         -0.9515067211        1.8950568441        0.6004830816
 H          0.9183420255       -1.6949974838       -0.5368526679
 H          2.6576459432       -1.4756534369       -0.8750585896
 H          3.6567968563        1.2640295013        1.7469758314
 H          1.6685533389        2.9933545801        0.8455413271
 H          0.5351843982       -1.1621387038       -2.6921346736
  29
        -55.68671775
 O         -2.4816675483        1.6505340588       -0.7447741900
 O         -4.2883239100        0.4042480713       -0.3790143374
 N         -0.8019411915       -0.5557389850       -0.0103982592
 N         -2.6284401269       -1.6519604754        0.6124716347
 C         -2.1747547018       -0.5429659701        0.0550809900
 C         -0.4049793927       -1.7289424130        0.5437473944
 C         -1.5482237293       -2.3917458470        0.9156512778
 C         -3.0795859400        0.5200283593       -0.3712700427
 H          0.6261317885       -2.0069422273        0.6192009663
 H         -1.6505967742       -3.3487715488        1.3836823456
 H         -3.1362527346        2.3322983021       -1.0001501730
 O          1.1506929654       -0.1356093652       -1.2360006366
 O          3.0649634941        1.5139559294        1.3048576025
 O          0.8158399339        2.6497199039        0.3499528723
 O          2.7270002986       -2.2259773481       -0.2928648006
 C          2.1103529918        0.6390612664        0.7896789773
 C          2.4161079730        0.1758252534       -0.6486122794
 C          0.7140692227        1.2842688589        0.6283840594
 C          0.0943097827        0.4604396994       -0.5220195482
 C          3.3510718557       -1.0401919697       -0.7188675631
 H          2.0599142059       -0.2340577724        1.4494188311
 H          2.8852844206        1.0005238912       -1.2034953810
 H          0.1145691472        1.2095224311        1.5379798477
 H         -0.4823940317        1.0990399163       -1.1994614481
 H          4.1877394367       -0.8582053989       -0.0404533680
 H          3.7323711565       -1.1478514735       -1.7385708765
 H          2.7303431108        2.4250270285        1.2133967814
 H          1.1460249259        2.7951741170       -0.5497736076
 H          2.1493654966       -2.5377454179       -1.0041983857
  29
        -55.68671070
 O         -3.4509659609       -0.0702580352       -1.6911397861
 O         -1.3033992670       -0.1438483850       -2.2690555456
 N         -0.9617882015       -0.2178280350        0.8363984143
 N         -2.8029482833       -1.4257812429        0.5866070986
 C         -1.9685344070       -0.5957862814       -0.0090364690
 C         -1.2161831632       -0.8340685976        2.0266450117
 C         -2.3441732247       -1.5857930974        1.8453078763
 C         -2.1690016329       -0.2333718828       -1.4235364587
 H         -0.6027005783       -0.6691746795        2.8875076073
 H         -2.8493063733       -2.2277306346        2.5366792184
 H         -3.6167084455        0.0876997694       -2.6430980052
 O          0.3650878358        1.1374359887       -0.6086190274
 O          2.9830650626        1.9955535123        0.5993206048
 O          1.6090206337        0.9389346564        2.6289658468
 O          2.8866364223       -1.2995205349       -1.7866133882
 C          2.4630529308        0.7211978926        0.3331776192
 C          1.6558261233        0.6387279360       -0.9636770884
 C          1.3976900888        0.3412567167        1.3908773193
 C          0.0691365770        0.8023706490        0.7140140636
 C          1.6040143182       -0.8008908483       -1.5087704847
 H          3.3068142923        0.0293785723        0.3347262577
 H          2.0381223525        1.3126516457       -1.7348224474
 H          1.3779908216       -0.7445176417        1.5303609543
 H         -0.3149224350        1.7047924468        1.2157787121
 H          0.9504591356       -0.8210645870       -2.3856955768
 H          1.1759050167       -1.4643195441       -0.7531738171
 H          2.3662469417        2.6752511439        0.2880438170
 H          2.2645483984        1.6534304161        2.5142381345
 H          3.2352440433       -0.8784155696       -2.5851690234
  29
        -55.68670728
 O         -2.3465817620        1.7514418694       -0.6357897115
 O         -4.1923643980        0.8766600509        0.2521337611
 N         -0.9570394629       -0.6923163805       -0.2531763880
 N         -2.8138989126       -1.5825064963        0.5754213354
 C         -2.2725448770       -0.4825184490        0.0799059968
 C         -0.6869194287       -1.9833755670        0.0562633350
 C         -1.8476775371       -2.5156792181        0.5626038873
 C         -3.0307125804        0.7540618695       -0.0818340761
 H          0.2725331369       -2.4175080117       -0.1286801825
 H         -2.0366049903       -3.5083952184        0.9151347502
 H         -2.8989463476        2.5538169897       -0.7299451371
 O          1.1168665589       -0.4190381841       -1.2859814811
 O          2.8279779304        1.3972206777        1.2130475147
 O          0.6823277283        2.5228598022       -0.0433654460
 O          4.4370632277       -1.1767637688        0.0142748946
 C          1.8365312450        0.5163703166        0.7774195521
 C          2.2939378203       -0.1590364116       -0.5244715364
 C          0.5127510711        1.2030458083        0.3600142978
 C          0.0079705894        0.2635978577       -0.7694565863
 C          3.0991590753       -1.4463172379       -0.3093555332
 H          1.6160165067       -0.2473400881        1.5392771632
 H          2.9340990942        0.5400089611       -1.0827326675
 H         -0.2145102114        1.2335980030        1.1754901441
 H         -0.4735900965        0.8390107616       -1.5687195269
 H          3.1158130761       -2.0083941840       -1.2456065420
 H          2.6271194405       -2.0635805311        0.4680415348
 H          2.5043377983        1.9286145755        1.9547819923
 H          1.4407060886        2.6048720322       -0.6416953436
 H          4.4732202843       -0.5786058695        0.7756059924
  29
        -55.68670620
 O         -2.2880338986        1.6474511620       -0.7492145452
 O         -3.7293643974        0.9436207817        0.7961921891
 N         -0.7257145355       -0.7046472331       -0.3406561517
 N         -2.5556175472       -1.6632314452        0.4671298160
 C         -2.0097635330       -0.5175169122        0.0976336394
 C         -0.4736192388       -2.0333187770       -0.2364465874
 C         -1.6187402925       -2.6070126485        0.2568714747
 C         -2.7498867859        0.7440240587        0.1058487115
 H          0.4639388873       -2.4536681783       -0.5371822177
 H         -1.8214391498       -3.6366207109        0.4677170142
 H         -2.8248614247        2.4645481863       -0.7267787873
 O          1.4098740778       -0.2939164525       -1.1998734002
 O          2.5586509516        2.3133728106       -0.3049950706
 O          0.1007912573        2.4320951017        0.5644978330
 O          2.8311252870       -2.4939793740       -0.0505099660
 C          2.2070537330        1.1802200650        0.4418710202
 C          2.4983878558       -0.1350885716       -0.2934879553
 C          0.6630266123        1.1661394553        0.5363950838
 C          0.2528701582        0.3074475309       -0.7029097735
 C          2.6549733145       -1.3074207940        0.6866643115
 H          2.6621292984        1.2040183015        1.4373058965
 H          3.3873901829       -0.0856820404       -0.9275981776
 H          0.3374641224        0.6520028658        1.4476936639
 H         -0.1842526259        0.9427063669       -1.4830051233
 H          1.7652570060       -1.3793180417        1.3275698448
 H          3.5302494659       -1.1018231901        1.3134322093
 H          3.5171607889        2.4403828536       -0.2996414596
 H          0.6626685713        3.0230610828        0.0303293425
 H          3.1138486720       -3.2053118076        0.5411298683
  29
        -55.68669565
 O         -2.5435550936        1.4095471834       -1.1001876970
 O         -3.7225875619       -0.3808173689       -1.6918335765
 N         -0.8877016963       -0.2672693690        0.5602404045
 N         -2.4708986688       -1.8186830674        0.3980669176
 C         -2.0736224895       -0.6360674137       -0.0286530037
 C         -0.5387615801       -1.3014074541        1.3730624988
 C         -1.5348363089       -2.2379325869        1.2698529036
 C         -2.8499407565        0.1208192648       -1.0135107607
 H          0.3582351796       -1.3125970884        1.9538182843
 H         -1.6300747885       -3.1800163814        1.7688147953
 H         -3.0809306658        1.8620715578       -1.7817831937
 O          0.5797952212        0.7167284859       -0.9952993411
 O          3.4311903881        1.2130967183        0.8676121646
 O          1.2881507532        2.5928003543        1.2721468714
 O          3.1802176301       -1.8777702277       -0.7911204530
 C          2.2541883503        0.4844985864        0.7104474991
 C          1.8926899866        0.2097885198       -0.7725668481
 C          1.0052660370        1.2202687087        1.2672525907
 C         -0.0867133959        0.8997423860        0.2264708248
 C          1.9527813617       -1.2881159542       -1.1253508620
 H          2.4189776403       -0.4688252947        1.2219603728
 H          2.5673387465        0.7722541836       -1.4273504446
 H          0.7344508316        0.8716966936        2.2667787694
 H         -0.7654075635        1.7459228240        0.0880028175
 H          1.7221806068       -1.4073502235       -2.1912723636
 H          1.1948404714       -1.8298321269       -0.5525834740
 H          3.2166838609        2.1606613533        0.8090285877
 H          0.6647912335        3.0737906712        1.8327404437
 H          3.8892742220       -1.4840022636       -1.3191450074
