29
imidazole_2_carboxylic_acid_ribose  charge=0 mult=1  seed=1_b3lyp_pcm
O     -2.64905500     2.47128800    -0.83903900
O     -0.55567200     1.67730800    -0.99043800
N     -1.50775700    -0.75985400     0.40232100
N     -3.54239700     0.12951500     0.21471700
C     -2.25415000     0.32364500    -0.01694600
C     -2.40086000    -1.65650100     0.92098900
C     -3.64611400    -1.09676400     0.79070200
C     -1.71021900     1.52870900    -0.65344200
H     -2.07833600    -2.59531100     1.33385700
H     -4.59390700    -1.51467300     1.08357300
H     -2.22302700     3.22289700    -1.27785000
O      0.57103100    -0.04834600     1.22209800
O      3.05714500    -0.78618800    -1.24768500
O      1.01878300    -2.40637100    -1.24411800
O      3.93948800     1.19790700     0.82490400
C      1.90146800    -0.16780000    -0.70521400
C      1.94042000    -0.02324400     0.82345000
C      0.66528900    -1.06492400    -0.95145400
C     -0.07325400    -1.01703700     0.41539700
C      2.59413900     1.25315600     1.30921000
H      1.73618200     0.80544000    -1.16267800
H      2.47152000    -0.88646600     1.24394700
H      0.04199200    -0.67202400    -1.75064600
H      0.03417600    -2.00751100     0.86069700
H      2.57168600     1.30738700     2.39985000
H      2.06529000     2.11728100     0.90062800
H      3.82793900    -0.30475200    -0.92175200
H      1.96905000    -2.41828800    -1.42662800
H      4.37443600     2.03816600     0.99581700
