15
calc_557d5df31f5d3868; angstrom; atom order from source job; valid
O 1.391801 1.820280 -0.000002
O -2.893107 0.279705 -0.000000
N 1.081870 -0.446664 0.000003
N -0.737439 1.003583 0.000001
C 0.633681 0.863887 0.000001
C 0.200583 -1.493343 0.000000
C 2.530703 -0.665817 -0.000001
C -1.139087 -1.334496 -0.000001
C -1.700828 -0.007670 -0.000000
H 0.655039 -2.472630 -0.000000
H 2.977087 -0.219171 -0.884943
H 2.977100 -0.219093 0.884895
H 2.716087 -1.734462 0.000045
H -1.075875 1.956198 0.000001
H -1.800325 -2.184524 -0.000003
