15
calc_557d5df31f5d3868; angstrom; first printed source-job orientation; unoptimized start
O 1.575080 -1.678750 0.009320
O -2.754390 -0.326120 -0.014070
N 1.137340 0.594300 0.005860
N -0.576010 -0.992040 0.004610
C 0.772470 -0.747930 0.007110
C 0.201910 1.606210 -0.003700
C 2.555440 0.908470 0.006520
C -1.108350 1.351600 -0.011960
C -1.560930 -0.048830 -0.007240
H 0.569220 2.628230 -0.005680
H 3.019170 0.460130 0.891150
H 3.015500 0.473200 -0.886480
H 2.730420 1.988230 0.014400
H -0.860110 -1.958500 0.005910
H -1.865290 2.123880 -0.022340
