37
UNCONVERGED state-matched split-site hydration start
N   2.113899000  1.048837000 -0.161674000
N   3.169038000  2.971308000 -0.494853000
C   2.029341000  1.755926000  1.023367000
C   2.807447000  1.834404000 -1.037893000
C   2.681777000  2.931854000  0.795802000
H   1.515128000  1.377567000  1.887171000
H   3.015681000  1.513274000 -2.045089000
H   2.826743000  3.748976000  1.481698000
P  -2.965899000  0.645000000  0.065378000
O   0.159376000 -0.218153000 -0.350190000
O   1.197416000 -3.456476000 -0.507620000
O   3.251537000 -1.919086000  0.269892000
O  -2.650701000 -0.897164000 -0.208416000
O  -4.307536000  0.875958000 -0.748370000
O  -1.959134000  1.463621000 -0.843260000
O  -3.007347000  1.007130000  1.493535000
C   0.822294000 -2.401134000  0.368524000
C  -0.314514000 -1.580954000 -0.276195000
C   1.983294000 -1.377556000  0.521370000
C   1.583558000 -0.252454000 -0.450733000
C  -1.615460000 -1.611161000  0.496926000
H   0.534617000 -2.803445000  1.337598000
H  -0.474562000 -1.953423000 -1.290198000
H   1.986392000 -0.981237000  1.535322000
H   1.891497000 -0.508306000 -1.467506000
H  -1.489981000 -1.193194000  1.495501000
H  -1.960392000 -2.639115000  0.581451000
H   1.352903000 -4.257759000  0.001271000
H   3.136571000 -2.632430000 -0.374721000
H  -5.100930000  0.799433000 -0.204538000
H  -1.646248965  2.270567192 -0.384413118
O  -1.087292741  3.712143320  0.435297934
H  -0.180268735  3.985531906  0.590752538
H  -1.618871543  4.407046736  0.830434895
O   2.269086620  5.263491520 -1.827512830
H   2.577641379  4.477600028 -1.370600888
H   3.071937037  5.718514540 -2.092060104
