43
calc_146ced27141c723d; angstrom; atom order from source job; valid
P 3.738102 -0.842250 0.288892
O 0.193805 1.225970 -1.157621
O -1.092804 3.407886 1.382434
O 1.206156 4.170331 0.234926
O 2.621547 0.269507 0.105990
O 5.151546 -0.089653 0.256929
O 3.643987 -1.664405 -1.051079
O 3.559912 -1.561905 1.558662
N -2.004460 0.917114 -0.434048
N -4.010474 0.042178 -0.917711
N -1.236531 -0.768484 1.177368
N -2.863438 -2.501882 1.520057
N -4.916334 -2.570667 0.446036
C -0.344549 2.361673 0.816633
C 1.107011 2.762119 0.434591
C -0.907685 1.849924 -0.523085
C 1.347759 2.042106 -0.910963
C 2.591311 1.191456 -1.000769
C -2.116187 -0.238852 0.321192
C -3.171617 1.015032 -1.152632
C -3.366432 -0.762086 0.007104
C -3.740273 -1.959086 0.654045
C -1.692942 -1.891668 1.727157
H -0.325098 1.537946 1.525010
H 1.811367 2.441915 1.196907
H -1.272485 2.697192 -1.112756
H 1.421436 2.810724 -1.686957
H 3.469351 1.837026 -0.961135
H 2.593849 0.637794 -1.939012
H -0.756324 4.234199 1.006651
H 1.645264 4.569445 0.991890
H -3.340394 1.835431 -1.830790
H -1.031698 -2.377524 2.435083
H -5.600343 -2.196285 -0.201333
H -5.114349 -3.422609 0.941721
H 5.520299 0.056722 -0.622175
H 4.164598 -2.513687 -1.094438
O 4.963571 -3.941365 -1.311348
H 4.674970 -4.648321 -0.723255
H 5.919758 -3.887348 -1.203457
O -6.562278 -0.972523 -1.512115
H -5.710943 -0.482705 -1.477746
H -6.644070 -1.298434 -2.413376
