  15
        -32.66337819
 O         -0.1958899610        2.6372331713       -0.0000209503
 O         -2.9330488735       -0.9876992730        0.0000973636
 N         -0.7058137829       -1.4126071875       -0.0000762117
 N          2.1622505036        0.5919060868        0.0001023133
 N         -1.5066721573        0.7751708708        0.0000313943
 N          1.7220862823       -1.5872577039       -0.0000280948
 C          0.7956255156        0.4681933048       -0.0000482620
 C          0.5583316974       -0.9052947950       -0.0001485986
 C         -0.2736972233        1.4166837599       -0.0001170100
 C         -1.7854513185       -0.5772274869        0.0000305612
 C          2.6557364252       -0.6574507498        0.0000806848
 H         -0.8614147067       -2.4133208082       -0.0000322125
 H          2.6731546933        1.4620673063        0.0002613746
 H         -2.3233055767        1.3788803282        0.0002782929
 H          3.7027836853       -0.8817155070        0.0002855395
