15
xanthine  charge=0 mult=1  seed=1_b3lyp_pcm
O     -0.19541000     2.64519900     0.00000000
O     -2.97473100    -0.98793200    -0.00000000
N     -0.72923200    -1.40158600     0.00000100
N      2.14657300     0.58623700    -0.00000000
N     -1.53390000     0.78525300    -0.00000000
N      1.70072800    -1.59755100     0.00000000
C      0.77330200     0.46505800     0.00000000
C      0.54399400    -0.89345500     0.00000000
C     -0.28354700     1.42456300     0.00000000
C     -1.82642700    -0.57293500    -0.00000000
C      2.64738600    -0.66404600    -0.00000000
H     -0.89482800    -2.39671200     0.00000100
H      2.67473600     1.44439600    -0.00000100
H     -2.34214100     1.39196900    -0.00000100
H      3.70593100    -0.85937800    -0.00000100
