  35
        -70.49531753
 P         -0.4514536163        2.3876968310        0.1053782420
 O          1.1906017672        0.2705014877        0.8415534102
 O          4.0189673223       -0.9618394679       -0.5372906167
 O          2.7947676678       -2.4899087655        1.1704294423
 O          0.9198662017        2.4780244021       -0.7350368330
 O         -0.0064050600       -1.4235810856       -1.6654259859
 O         -1.0220632604        3.8470494125       -0.1520911749
 O         -0.1335507087        2.4646103240        1.6379109203
 O         -1.3520513039        1.2949233987       -0.2873581791
 N         -0.5304117501       -1.3368101781        0.5572961768
 N         -2.1753448681       -1.6107886795       -1.1219371529
 N         -4.3859338479       -1.7188211891       -0.6010447920
 C          2.6274696377       -0.9003221958       -0.6828040877
 C          1.9127201702       -1.9198665686        0.2484870447
 C          2.1340927693        0.4739027908       -0.1982655942
 C          0.8369398626       -1.0862773233        0.9769600189
 C          1.4757129678        1.3062626417       -1.2960772481
 C         -1.5069340311       -1.2253588784        1.4923167257
 C         -0.8927922591       -1.4429174864       -0.8103940981
 C         -2.8127335787       -1.3441095387        1.1751933339
 C         -3.1272289419       -1.5537539832       -0.2016219511
 H          2.3097402272       -1.0638475871       -1.7138863098
 H          1.4464964889       -2.7259806461       -0.3234182106
 H          2.9710940910        1.0354177364        0.2359266982
 H          0.8784897427       -1.3220711620        2.0492317059
 H          0.6882786818        0.7096854057       -1.7664789838
 H          2.2075371626        1.6342210622       -2.0345686640
 H          4.3891039320       -1.6298694113       -1.1331184240
 H          3.6321424427       -1.9860411470        1.1379845200
 H         -1.1725250230       -1.0466422286        2.5035584672
 H         -3.5825678244       -1.2604707212        1.9202430929
 H         -5.1444114780       -1.6309210896        0.0526178069
 H         -4.5636182527       -1.8256882859       -1.5852788527
 H         -1.4180335017        3.9950270396       -1.0166504455
 H          0.3169839983        3.2715826341        1.9193628949
