35
cytosine_ribose_phosphate  charge=0 mult=1  seed=1_b3lyp_pcm
P      4.14274500    -1.07773000    -0.05955100
O      0.03031000     0.31323300    -0.35697200
O      0.51674500     3.73540000    -0.03628800
O     -1.97755200     3.09142500     0.71311300
O      2.83223000    -0.26573000    -0.45020500
O     -3.34873300     0.56710000    -2.02932200
O      4.54063500    -1.74369000    -1.44531000
O      3.68515200    -2.33406400     0.79630300
O      5.17470900    -0.30306900     0.64433700
N     -2.26598700    -0.02235800    -0.09601800
N     -4.24914200    -1.12682200    -0.80813600
N     -5.13299000    -2.83311100     0.42844400
C      0.41804900     2.46932000     0.60194300
C     -1.06065900     2.02936600     0.78303600
C      1.04603300     1.31098100    -0.21013000
C     -1.23386800     0.97059200    -0.32003900
C      2.26108000     0.70703000     0.45191700
C     -2.19240700    -0.84285900     0.98938100
C     -3.31801900    -0.17015900    -1.04502500
C     -3.11776600    -1.79690100     1.21773500
C     -4.17416000    -1.90823000     0.26031600
H      0.89747400     2.59467900     1.56997600
H     -1.17114700     1.55157600     1.75690500
H      1.33017200     1.68083800    -1.20216100
H     -1.47082800     1.44418700    -1.27144700
H      1.98009600     0.22087600     1.38649900
H      2.99681400     1.48437800     0.65263000
H      0.51426600     3.63575800    -0.99502900
H     -1.52487200     3.83177300     0.28293600
H     -1.34671900    -0.69568200     1.64321700
H     -3.05330000    -2.44417400     2.07714800
H     -5.12644000    -3.46180400     1.21128100
H     -5.86943000    -2.91482000    -0.25139700
H      4.87052900    -1.12574900    -2.10983200
H      2.97139100    -2.85952800     0.41245800
