44
calc_ffa6ab27e97bdf79; angstrom; atom order from source job; valid
P 4.809372 -0.806986 -0.298131
O 0.058756 0.019661 -0.747223
O 0.081685 1.490957 2.237228
O 2.395645 0.295510 1.986532
O 3.677534 0.021054 -1.073734
O 4.921721 -0.105306 1.121224
O 6.148826 -0.414749 -1.013229
O -6.172062 -2.382539 -0.381610
O 4.569483 -2.262471 -0.283014
N -1.969650 -0.610395 0.208578
N -3.116577 -2.535732 0.140453
N -3.767402 0.974020 -0.209734
N -5.836565 -0.124582 -0.479119
N -5.693191 2.191751 -0.585804
C -0.036769 0.209055 1.636484
C 1.368672 -0.215767 1.158040
C -0.850342 0.295008 0.315138
C 1.391236 0.277472 -0.299602
C 2.329570 -0.439904 -1.259465
C -3.278613 -0.270384 -0.039222
C -1.943998 -1.993079 0.301430
C -3.972374 -1.472331 -0.073325
C -5.378184 -1.450695 -0.311640
C -5.071721 1.009448 -0.428006
H -0.468992 -0.502954 2.334271
H 1.451316 -1.301886 1.173503
H -1.249353 1.304101 0.225222
H 1.606953 1.351676 -0.321227
H 2.053957 -0.191935 -2.282171
H 2.278191 -1.519908 -1.129569
H -0.492553 1.550913 3.006225
H 2.076287 1.128960 2.366256
H -1.026927 -2.528910 0.478344
H -6.830054 -0.040021 -0.643893
H -5.120389 3.022905 -0.647768
H -6.651087 2.244101 -0.883705
H 4.041791 0.080185 1.528764
H 6.433773 0.536002 -0.952819
O 6.944142 2.122281 -0.906943
H 7.589638 2.313274 -0.217372
H 7.341445 2.432600 -1.728245
O -3.139530 3.771921 -0.413738
H -3.074417 2.799387 -0.351977
H -2.650926 4.017385 -1.205420
