44
calc_ffa6ab27e97bdf79; angstrom; first printed source-job orientation; unoptimized start
P 4.787631 -0.838429 -0.281092
O 0.059197 0.095594 -0.772242
O 0.123686 1.672795 2.114846
O 2.390313 0.370149 1.970337
O 3.677911 0.000235 -1.076992
O 4.905758 -0.118329 1.128304
O 6.139423 -0.484239 -0.993333
O -6.100245 -2.482173 -0.285786
O 4.517909 -2.288371 -0.246762
N -1.946942 -0.570033 0.211424
N -3.035403 -2.530197 0.207082
N -3.795249 0.947133 -0.231247
N -5.832999 -0.218764 -0.449495
N -5.759060 2.097413 -0.622284
C -0.039095 0.357004 1.604496
C 1.351085 -0.127123 1.148213
C -0.856472 0.374952 0.283831
C 1.395082 0.329489 -0.320740
C 2.320385 -0.433990 -1.257639
C -3.267707 -0.276938 -0.032373
C -1.878443 -1.948087 0.342209
C -3.925136 -1.499549 -0.027561
C -5.333562 -1.525892 -0.250943
C -5.101588 0.938139 -0.437875
H -0.485836 -0.293164 2.352449
H 1.397397 -1.214347 1.191717
H -1.290766 1.365498 0.160095
H 1.639116 1.396593 -0.366694
H 2.054538 -0.205159 -2.287393
H 2.243931 -1.509152 -1.101893
H -0.499772 1.830011 2.829944
H 2.104654 1.231466 2.312455
H -0.944135 -2.451188 0.526355
H -6.830698 -0.166897 -0.602521
H -5.209263 2.941093 -0.714628
H -6.716763 2.112682 -0.925065
H 4.027398 0.096571 1.525264
H 6.447563 0.459389 -0.935249
O 7.007558 2.030020 -0.885989
H 7.648984 2.203341 -0.187430
H 7.424274 2.332601 -1.700916
O -3.257581 3.759478 -0.488102
H -3.160862 2.790846 -0.409667
H -2.775380 4.008070 -1.282752
