37
DFT refinement start; not an optimized result
P 3.344847 3.074641 -0.417797
O 0.248202 0.175267 1.500381
O 0.588049 -1.696335 -1.485953
O 2.620345 -0.190353 -1.000194
O 2.911681 2.598134 1.066621
O 4.309939 1.954946 -0.967659
O 4.323056 4.258831 -0.132612
O 2.196778 3.443444 -1.260695
N -1.543452 -1.174817 0.914231
N -3.596443 -1.123412 1.789941
N -1.979548 -2.637007 -0.993292
N -4.250088 -3.347984 -1.093080
N -5.870351 -2.733453 0.425850
C 0.214340 -0.589184 -0.733233
C 1.411323 0.377911 -0.575358
C -0.141395 -0.933733 0.735757
C 1.457391 0.669546 0.943420
C 1.596021 2.148108 1.297317
C -2.323229 -1.955299 0.109199
C -2.371528 -0.709053 1.898899
C -3.607346 -1.918667 0.669022
C -4.608639 -2.667345 0.011693
C -3.003772 -3.295011 -1.516799
H -0.635866 -0.061705 -1.185731
H 1.229574 1.301704 -1.136490
H 0.428061 -1.834378 1.033660
H 2.312994 0.120673 1.366376
H 1.399511 2.283145 2.362604
H 0.889423 2.739723 0.708386
H -0.197424 -2.278605 -1.581674
H 2.410021 -0.988963 -1.521836
H -2.006580 -0.060234 2.667917
H -2.787354 -3.864025 -2.410287
H -6.145671 -2.225848 1.248615
H -6.526365 -3.289052 -0.096207
H 3.884286 1.095309 -1.150992
H 5.107433 4.031703 0.383756
