37
calc_3b6d4e4b6795d760; angstrom; atom order from source job; valid
P 2.566194 1.686198 -0.327178
O 0.898094 -0.856016 0.794862
O 0.076038 -3.624187 1.410220
O 0.869858 -3.878677 -1.145039
O 2.984700 0.195420 -0.717546
O -0.435830 1.246888 2.035155
O -4.065890 2.578885 -0.343679
O 3.955425 2.451983 -0.375762
O 2.227493 1.715137 1.218789
O 1.561185 2.283460 -1.223119
N -1.399550 -0.288895 0.626180
N -2.264799 1.855587 0.832749
C -0.524138 -2.698194 0.516417
C 0.403867 -2.625376 -0.713344
C 1.506659 -1.663389 -0.226822
C -0.409838 -1.285255 1.109241
C 2.057627 -0.746240 -1.298424
C -2.369959 -0.541508 -0.324228
C -1.308344 0.956170 1.220271
C -3.300236 0.352715 -0.713907
C -3.285393 1.669207 -0.100774
C -4.341797 0.048380 -1.745878
H -1.536400 -3.008879 0.274537
H -0.133602 -2.184776 -1.553382
H -0.504353 -1.310366 2.191311
H 2.319206 -2.233448 0.228318
H 1.257502 -0.202824 -1.799417
H 2.617970 -1.318880 -2.034825
H -0.592186 -3.997897 1.992890
H 1.042737 -4.409856 -0.355736
H -2.356266 -1.526570 -0.758701
H -2.203180 2.768487 1.264068
H -4.237733 -0.969414 -2.115827
H -5.344204 0.164780 -1.332089
H -4.264128 0.733195 -2.591235
H 4.617421 2.152488 0.259393
H 1.335489 1.381951 1.459502
