33
calc_5beadd79f0a9afce; angstrom; atom order from source job; valid
O -1.667227 -0.047608 -1.240775
O -2.034051 -1.819546 1.852227
O -4.216338 -0.859234 0.444124
O -1.672916 2.765602 -1.541589
O 4.696500 -0.759441 -0.210517
N 0.153701 -1.256554 -0.411411
N 2.092528 -2.297523 -0.808244
N 0.966044 0.876507 0.411745
N 3.320045 0.934196 0.432682
N 2.081085 2.741966 1.166455
C -1.846114 -0.714331 1.007245
C -1.277366 -1.084427 -0.367577
C -3.130586 0.030768 0.625763
C -2.708512 0.755096 -0.647082
C -2.189880 2.154844 -0.372388
C 1.137576 -0.370459 -0.062308
C 0.796903 -2.386309 -0.853944
C 2.325067 -1.028802 -0.313196
C 3.544258 -0.351632 -0.055005
C 2.095130 1.499965 0.650979
H -1.169450 -0.027391 1.510497
H -1.701704 -2.037601 -0.693985
H -3.434402 0.724631 1.405800
H -3.531844 0.799667 -1.360632
H -3.020258 2.771859 -0.030932
H -1.428268 2.126230 0.410887
H -2.819780 -2.288525 1.550494
H -4.108967 -1.350713 -0.375127
H 0.234090 -3.241289 -1.192966
H -0.903085 2.264361 -1.823061
H 4.148466 1.476240 0.642043
H 1.197953 3.223865 1.166685
H 2.916832 3.302064 1.149032
