33
calc_5beadd79f0a9afce; angstrom; first printed source-job orientation; unoptimized start
O 1.677540 0.515620 0.164540
O -1.928630 0.778280 0.009700
O -0.722250 -1.397790 0.813930
O 3.391110 -0.815280 -1.664170
O 0.936320 6.361250 -2.796800
N 0.684330 2.657840 -0.154040
N 0.396210 4.874420 -0.176550
N 1.580820 2.314160 -2.386890
N 1.613590 4.335710 -3.618270
N 2.290030 2.327790 -4.577250
C -0.621050 0.578190 -0.528430
C 0.462560 1.290950 0.279260
C -0.185850 -0.872150 -0.415560
C 1.337720 -0.785460 -0.382700
C 1.973530 -0.935490 -1.766530
C 1.119340 3.085580 -1.375800
C 0.275980 3.773910 0.538600
C 0.892570 4.443850 -1.379220
C 1.137450 5.163330 -2.610470
C 1.814550 2.977530 -3.485520
H -0.627720 0.891540 -1.577420
H 0.201990 1.326040 1.344480
H -0.579150 -1.494800 -1.224110
H 1.773010 -1.528930 0.294330
H 1.748020 -1.917820 -2.192560
H 1.626220 -0.176460 -2.468060
H -2.130820 -0.020420 0.541150
H -0.063400 -1.288750 1.523680
H -0.129310 3.722990 1.540800
H 3.551090 0.009900 -1.164150
H 1.749430 4.784560 -4.507630
H 2.678880 1.417080 -4.347930
H 2.879970 2.854920 -5.207740
