15
calc_ffad74f5dfb539ac; angstrom; atom order from source job; valid
O -1.362831 1.886258 0.000001
O 2.857729 0.222519 -0.000001
N 0.724840 1.022796 -0.000001
N 1.109204 -1.236334 0.000001
C -1.149155 -0.479129 -0.000000
C -0.658612 0.890723 0.000000
C -0.241167 -1.468332 0.000000
C -2.625518 -0.712056 -0.000001
C 1.659178 0.015518 -0.000000
H -0.523140 -2.511440 0.000000
H 1.090642 1.963548 -0.000001
H 1.754936 -2.008127 0.000001
H -3.090026 -0.261296 0.877560
H -3.090026 -0.261292 -0.877560
H -2.848241 -1.777199 -0.000003
