15
calc_ffad74f5dfb539ac; angstrom; first printed source-job orientation; unoptimized start
O 1.637060 -1.650860 0.006520
O -2.716810 -0.352290 -0.027070
N -0.540420 -1.007400 -0.008470
N -1.095960 1.236080 -0.030610
C 1.197120 0.683390 0.009090
C 0.803090 -0.751840 0.002080
C 0.221070 1.599110 -0.012530
C 2.654530 1.003100 0.043080
C -1.525390 -0.062240 -0.022680
H 0.423570 2.665900 -0.012250
H -0.829080 -1.972350 -0.008420
H -1.825600 1.939790 -0.042630
H 3.116890 0.588580 0.944810
H 3.161970 0.586800 -0.832920
H 2.830550 2.084140 0.047250
