37
calc_9dfea3050c510391; angstrom; atom order from source job; valid
P 3.312984 1.734637 -0.005157
O 0.471216 -0.494150 0.589451
O -0.589814 -3.498067 1.301759
O 1.469000 -3.776147 -0.355547
O 3.340041 0.154358 0.146694
O -1.232173 -0.697024 -1.931119
O -4.750525 2.071076 -1.161891
O 4.773266 2.143100 0.478371
O 2.420103 2.325478 1.166174
O 2.871046 2.235710 -1.314940
N -1.848329 -0.344306 0.252932
N -2.988933 0.678599 -1.488561
C -0.617575 -2.591124 0.210170
C 0.753240 -2.559282 -0.505251
C 1.489014 -1.426364 0.219519
C -0.764788 -1.167355 0.787928
C 2.521485 -0.741876 -0.641788
C -2.696124 0.304526 1.130289
C -1.964321 -0.160868 -1.116310
C -3.695734 1.125743 0.754562
C -3.889348 1.354787 -0.666815
C -4.604345 1.808191 1.730352
H -1.429286 -2.841578 -0.470653
H 0.610014 -2.314792 -1.554233
H -0.969396 -1.263719 1.853055
H 1.970239 -1.832165 1.115569
H 2.047625 -0.192563 -1.452901
H 3.198398 -1.487078 -1.055063
H 0.060978 -4.180033 1.079739
H 1.346595 -4.318756 -1.140966
H -2.501716 0.099678 2.172685
H -3.091637 0.818195 -2.484771
H -4.339778 1.548936 2.753442
H -4.548472 2.892316 1.623918
H -5.643852 1.524244 1.560852
H 5.486350 1.821748 -0.087405
H 2.603730 1.973017 2.045931
