32
calc_122108fdc7a149c8; angstrom; atom order from source job; valid
O -1.470963 0.046984 -1.342185
O -1.914840 -1.767417 1.707788
O -3.951952 -1.108057 0.146235
O -1.549327 2.476082 0.411862
N 0.352909 -1.035592 -0.408499
N 2.397799 -1.940175 -0.538502
N 0.983389 1.234872 0.251425
N 3.351448 1.485058 0.466280
N 4.849776 -0.230822 0.083007
C -1.764391 -0.654875 0.878957
C -1.087789 -0.973291 -0.464539
C -3.075082 -0.026339 0.407380
C -2.659820 0.707644 -0.871109
C -2.379233 2.188975 -0.686468
C 1.234553 -0.038168 -0.078410
C 1.119253 -2.140023 -0.675943
C 2.488472 -0.616524 -0.162941
C 3.587411 0.208746 0.129448
C 2.092273 1.915453 0.506862
H -1.176761 0.089526 1.412227
H -1.421534 -1.954190 -0.816953
H -3.497309 0.650669 1.148639
H -3.434757 0.588899 -1.630961
H -1.956556 2.575289 -1.620132
H -3.329542 2.698090 -0.517139
H -2.715976 -2.223096 1.427365
H -4.854777 -0.792178 0.104553
H 0.658684 -3.070660 -0.968581
H -0.671118 2.067307 0.278847
H 1.957937 2.954966 0.782030
H 5.051956 -1.181595 -0.164972
H 5.605290 0.393276 0.300078
