38
calc_e3c204086afc6be0; angstrom; atom order from source job; valid
P -4.971191 -0.579483 0.269846
O -0.241667 0.240598 0.979442
O -0.275148 2.678474 -1.054310
O -2.577432 1.277216 -1.536848
O -3.823698 -0.138406 1.287257
O -5.124587 0.627538 -0.738918
O -6.304053 -0.375870 1.106573
O 5.782288 -2.310783 -0.513223
O -4.768673 -1.918044 -0.313789
N 1.715210 -0.176490 -0.236882
N 2.705186 -2.076259 -0.899343
N 3.636132 1.044599 0.600908
N 5.620699 -0.208360 0.370529
N 5.658434 1.941327 1.259093
C -0.137474 1.273188 -1.164623
C -1.487307 0.562751 -0.953966
C 0.686568 0.800148 0.049287
C -1.586748 0.510973 0.574815
C -2.456593 -0.576963 1.195750
C 3.054315 -0.030500 0.039260
C 1.575566 -1.434340 -0.799072
C 3.650461 -1.212675 -0.379405
C 5.059470 -1.363688 -0.219052
C 4.937107 0.917551 0.749258
H 0.336626 1.001888 -2.108815
H -1.446808 -0.449402 -1.358858
H 1.195212 1.655472 0.489638
H -1.914026 1.484691 0.952455
H -2.123528 -0.746969 2.216549
H -2.395604 -1.512428 0.641985
H -1.091324 2.938263 -1.500157
H -2.581349 1.121901 -2.489797
H 0.614912 -1.816359 -1.100411
H 6.622380 -0.245672 0.500940
H 5.141759 2.698525 1.672967
H 6.594562 1.795911 1.595414
H -4.253930 0.939941 -1.074567
H -6.589058 -1.171693 1.571816
