38
calc_e3c204086afc6be0; angstrom; first printed source-job orientation; unoptimized start
P 2.546357 2.953602 0.785536
O 0.982419 -1.457909 0.773431
O 2.146322 -1.984057 -2.132457
O 3.693272 -0.329307 -0.808167
O 2.420300 1.740100 1.841190
O 3.890544 2.731434 0.015364
O 2.877366 4.182754 1.713778
O -5.399845 0.035822 -0.283161
O 1.368970 3.079236 -0.088877
N -0.866897 -0.807918 -0.551923
N -2.390949 0.824651 -0.652684
N -2.316280 -2.704632 -0.173705
N -4.584370 -2.065265 -0.067528
N -3.936279 -4.279263 0.159498
C 1.428161 -0.970207 -1.501426
C 2.333402 -0.059980 -0.618800
C 0.389681 -1.519799 -0.499767
C 1.960117 -0.428778 0.829450
C 1.431929 0.750574 1.655034
C -2.083053 -1.396407 -0.360902
C -1.130038 0.532335 -0.718127
C -3.031126 -0.371050 -0.426830
C -4.412081 -0.693156 -0.267578
C -3.588767 -3.006555 -0.029393
H 0.932702 -0.408473 -2.296340
H 2.111621 0.993726 -0.814504
H 0.144095 -2.570607 -0.690247
H 2.845152 -0.839799 1.329661
H 1.153684 0.390145 2.647779
H 0.557165 1.187605 1.165983
H 2.807119 -2.348084 -1.519325
H 3.962287 -0.058328 -1.698376
H -0.366785 1.263808 -0.896164
H -5.548867 -2.357903 0.049829
H -3.202340 -4.965290 0.197552
H -4.895360 -4.551138 0.282345
H 4.693217 2.826118 0.545157
H 2.130061 4.591707 2.163245
