  32
        -63.74392448
 O          1.5635417037       -0.0180555219       -1.3460710832
 O          2.3189324996        1.7686105518        1.6657485244
 O          4.2497144454        0.7886665627        0.1446603405
 O          1.4346952804       -2.3590897244        0.3776759772
 O         -4.6448520586        0.7733696145        0.0869804628
 O         -2.0393549324       -2.9143409327        0.4567348078
 N         -0.0894305067        1.2809319018       -0.3660442524
 N         -0.9539650120       -0.9669631500        0.0733867667
 N         -2.0277468461        2.3875454995       -0.3778553518
 N         -3.2730480759       -1.0194718569        0.2511631117
 C          1.3253063410        1.0534061313       -0.4702110417
 C          1.9986337122        0.6751991936        0.8753396681
 C          3.2156704872       -0.1323387852        0.3799830928
 C          2.6966165593       -0.7823808193       -0.9182471567
 C          2.2974964023       -2.2485340251       -0.7407581754
 C         -1.0643124423        0.3679640324       -0.1294230754
 C         -0.7431125200        2.4817187416       -0.5083651064
 C         -2.2732837824        1.0588514437       -0.1422061884
 C         -3.5026240265        0.3456562619        0.0634462348
 C         -2.0838835427       -1.7097050582        0.2721228290
 H          1.7737331713        1.9821105559       -0.8558242254
 H          1.3260368364        0.0346052209        1.4526484000
 H          3.5087161336       -0.8874752148        1.1133130741
 H          3.4538302272       -0.7149016401       -1.7076002408
 H          1.7915999355       -2.5789190917       -1.6538670620
 H          3.2018276583       -2.8447759251       -0.5858967028
 H         -0.2224536114        3.3970358373       -0.6990664322
 H          3.1728474147        2.1265969573        1.3627326014
 H          5.1020534345        0.3372498591        0.0809033213
 H         -0.0430132625       -1.4526069019        0.1164594836
 H          1.2002965373       -3.2882942864        0.5161651345
 H         -4.1036225655       -1.5847217011        0.4005291195
  32
        -63.74236602
 O          2.2101535203        1.3979270782       -0.7437914331
 O          1.5989069794       -0.7404521341        1.9883449999
 O          4.0184596176       -0.0284913171        1.1924437819
 O          1.7238131519       -1.1741757389       -2.1841540160
 O         -4.5417911428        0.1018915830       -0.9133205533
 O         -2.5865163373       -1.3949529946        2.8868735916
 N         -0.0373394954        0.8657770460       -0.3566624094
 N         -1.2215761691       -0.3245281175        1.4260256150
 N         -1.7454837200        1.1820306330       -1.7516095212
 N         -3.4836220976       -0.5997559744        0.9610258426
 C          1.3048460081        0.9134400699        0.1960335587
 C          1.7698794517       -0.5049340508        0.6278075569
 C          3.2315870777       -0.5330466576        0.1455160621
 C          3.1817495570        0.4020095843       -1.0742546137
 C          2.8391564635       -0.3293429879       -2.3777012736
 C         -1.1240837123        0.3065176792        0.2256748464
 C         -0.4795163308        1.3758438803       -1.5492167419
 C         -2.1921330772        0.5074834443       -0.6445536555
 C         -3.4976538140        0.0268236958       -0.2880691163
 C         -2.4368296876       -0.8126143260        1.8275793358
 H          1.2918770968        1.5938089592        1.0620914560
 H          1.1911012671       -1.2520715363        0.0773801408
 H          3.5353935194       -1.5447634042       -0.1367188723
 H          4.1222101402        0.9418039487       -1.2132252137
 H          2.6246936315        0.4270313851       -3.1414212873
 H          3.7162665611       -0.9126973544       -2.6828671187
 H          0.1777857609        1.8858693079       -2.2213193448
 H          2.3894113408       -0.4201018571        2.4582514573
 H          4.9577628247       -0.1601594980        1.0073226385
 H         -0.4019940290       -0.5096359345        2.0050762339
 H          1.5261956058       -1.6312531140       -3.0132473678
 H         -4.3785749796       -0.9641907111        1.2742680074
  32
        -63.74227568
 O          1.5566694091       -0.0206010671       -1.3240845485
 O          2.3771666685        1.8679546654        1.5463846298
 O          4.3175506276        0.6841546121        0.1474763018
 O          1.4350483151       -2.3671522160        0.3582609237
 O         -4.6500164088        0.7603178539        0.0723848290
 O         -2.0396890882       -2.9260459926        0.4228296049
 N         -0.0931472591        1.2814480944       -0.3469158528
 N         -0.9547409099       -0.9722516300        0.0694714836
 N         -2.0332719728        2.3841443175       -0.3584300698
 N         -3.2753720619       -1.0312835579        0.2301807908
 C          1.3223404726        1.0550159665       -0.4561765916
 C          1.9988641778        0.6978405947        0.8848599304
 C          3.2094176609       -0.1342615179        0.4031093192
 C          2.7011214607       -0.7717195412       -0.9024471294
 C          2.3166787130       -2.2421933724       -0.7446069177
 C         -1.0681276605        0.3629731031       -0.1277934785
 C         -0.7487240961        2.4828666506       -0.4823791960
 C         -2.2776696308        1.0524319289       -0.1382860806
 C         -3.5073007253        0.3346047881        0.0523295976
 C         -2.0850908106       -1.7201675601        0.2495644443
 H          1.7697747483        1.9845459593       -0.8416187912
 H          1.3259049107        0.0722569699        1.4784933048
 H          3.4844284854       -0.9060948357        1.1318806495
 H          3.4751051700       -0.6806039776       -1.6723638966
 H          1.8297304456       -2.5721649491       -1.6678415601
 H          3.2268000771       -2.8252911764       -0.5777448255
 H         -0.2274177717        3.4004659553       -0.6599837528
 H          2.4508675666        1.7147057369        2.4993271258
 H          4.1866555496        1.5287114314        0.6162936245
 H         -0.0433129915       -1.4589975339        0.0975825262
 H          1.2098643984       -3.3000021579        0.4883911710
 H         -4.1058884487       -1.6005301339        0.3641966518
  32
        -63.74219775
 O          1.5186679417       -0.0239523136       -1.2863805859
 O          2.6993169903        2.1934735155        1.1239910486
 O          4.2571932169        0.1319977593        0.8104124094
 O          1.3981579532       -2.5359332542        0.0065783883
 O         -4.6575450133        0.7065382589        0.2345779692
 O         -1.9549977855       -2.9228040793        0.4194531056
 N         -0.1477183885        1.3321499349       -0.4496562074
 N         -0.9298719486       -0.9452697683        0.0156237487
 N         -2.1121891720        2.3848267083       -0.3530184096
 N         -3.2356164442       -1.0528101808        0.3225036538
 C          1.2760372581        1.1547920399       -0.5713534704
 C          1.9893602056        1.0398016839        0.8085681772
 C          2.9074601857       -0.2090213630        0.6563638359
 C          2.6734878419       -0.6882322152       -0.7894298253
 C          2.4391148390       -2.1933508871       -0.8894058724
 C         -1.0830027272        0.3886585807       -0.1717299395
 C         -0.8388858947        2.5163476179       -0.5460767849
 C         -2.3089508878        1.0485136834       -0.1168593245
 C         -3.5086749870        0.3054103738        0.1498639875
 C         -2.0322743756       -1.7169279984        0.2603864445
 H          1.6672702963        2.0349136911       -1.1047135226
 H          1.2390345271        0.8904008315        1.5912654760
 H          2.6016971477       -0.9898074049        1.3565579419
 H          3.5482540726       -0.4099532647       -1.3925364109
 H          2.1604737744       -2.4298385398       -1.9205675469
 H          3.3649902581       -2.7141084811       -0.6249715177
 H         -0.3510269174        3.4462523063       -0.7521987878
 H          3.6269737643        2.0678665462        0.8419858544
 H          4.5246721472        0.0421758491        1.7363085139
 H         -0.0201891579       -1.4262717291       -0.0512682719
 H          1.1734011343       -3.4713471591       -0.0928722370
 H         -4.0427846443       -1.6399793732        0.5107310573
  32
        -63.74199936
 O          1.5867254491        0.0306497530       -1.3677655139
 O          2.3710069969        1.8177748735        1.6158381906
 O          4.3435308823        0.6530682645        0.2479843324
 O          1.4245674515       -2.3474091599        0.3604201144
 O         -4.6547503084        0.7529710982        0.0880263132
 O         -2.0317981192       -2.9209826941        0.4742207705
 N         -0.1019680033        1.2806601283       -0.3668565960
 N         -0.9560734157       -0.9704929096        0.0822731275
 N         -2.0477135868        2.3757606015       -0.3843598975
 N         -3.2755489864       -1.0336657474        0.2606390491
 C          1.3178827310        1.0787620334       -0.4704075888
 C          1.9989998230        0.7041190598        0.8715736635
 C          3.2004064634       -0.1436889965        0.3889305565
 C          2.6949999437       -0.7630833326       -0.9233602376
 C          2.2731377186       -2.2259230052       -0.7674371927
 C         -1.0719210774        0.3627563498       -0.1257930620
 C         -0.7642895122        2.4771672055       -0.5150671149
 C         -2.2847967661        1.0469355453       -0.1423391194
 C         -3.5110687721        0.3292344461        0.0666398434
 C         -2.0828024191       -1.7175323394        0.2846561027
 H          1.7313503206        2.0299138080       -0.8415644424
 H          1.3140339214        0.0923730389        1.4678306721
 H          3.4601230278       -0.9086368234        1.1218070560
 H          3.4689693337       -0.7153357603       -1.6981024915
 H          1.7514533314       -2.5336134991       -1.6798266863
 H          3.1737393202       -2.8325386136       -0.6352521203
 H         -0.2501415751        3.3955507684       -0.7088624075
 H          3.3355269101        1.9393476994        1.5208800001
 H          4.2959405307        1.1881802121       -0.5581589387
 H         -0.0434768574       -1.4551558421        0.1314950393
 H          1.2009230478       -3.2790596446        0.4999978899
 H         -4.1032412318       -1.6022464563        0.4132421001
  32
        -63.74187069
 O          2.2279791051        1.4455094018       -0.6712210534
 O          1.6957982604       -0.6828593650        2.0399025414
 O          4.1425052696       -0.1102889924        1.0848369342
 O          1.5479830807       -1.0779627609       -2.1390534965
 O         -4.5066817092        0.0225655366       -0.9594890971
 O         -2.5861049299       -1.4076537806        2.8843062034
 N         -0.0260100350        0.8690616509       -0.3392980971
 N         -1.2162682920       -0.3304411175        1.4333623299
 N         -1.7177536194        1.1493195322       -1.7604116180
 N         -3.4655531882       -0.6488234104        0.9354232569
 C          1.3043614017        0.9330998184        0.2384373797
 C          1.7858367580       -0.4832837216        0.6634803608
 C          3.2275269409       -0.5260116924        0.1087525668
 C          3.1353514065        0.4211529590       -1.0931545355
 C          2.6860127496       -0.2770575424       -2.3817844658
 C         -1.1109689516        0.2930387676        0.2292738195
 C         -0.4586755349        1.3663481333       -1.5403163699
 C         -2.1688954786        0.4706714712       -0.6578645220
 C         -3.4713055182       -0.0306065924       -0.3182692213
 C         -2.4303831190       -0.8346962933        1.8210212511
 H          1.2559102582        1.6048928667        1.1092456466
 H          1.1765951392       -1.2350938746        0.1523541117
 H          3.5179578576       -1.5366753368       -0.1783040608
 H          4.0861393366        0.9226309180       -1.2914163383
 H          2.4619838052        0.4961932035       -3.1264090320
 H          3.5219222414       -0.8900572037       -2.7380632286
 H          0.1976404501        1.8879809150       -2.2044707635
 H          2.5899326652       -0.6119960484        2.4236663792
 H          4.1303071193        0.8555556825        1.1647339097
 H         -0.4102956929       -0.4898609284        2.0346933699
 H          1.3223554320       -1.5563638725       -2.9484907699
 H         -4.3592793027       -1.0254813036        1.2376206214
  32
        -63.74148189
 O          1.5574926388       -0.4902514499       -1.0671312826
 O          2.9397520082        2.4712578148        0.1817402182
 O          4.3759862130        0.3814739679       -0.5023444105
 O          1.0320317601       -0.9671113207        1.7897595066
 O         -4.4707210121        0.4888616373        0.8527734533
 O         -2.3971515505       -2.8812272334       -1.3541089529
 N         -0.0357084424        1.0328731588       -0.2589164919
 N         -1.1405968529       -1.0446354378       -0.9277193285
 N         -1.7667145918        2.0290247154        0.7359585798
 N         -3.3569131144       -1.1455997513       -0.2471811259
 C          1.3287986988        0.8436761796       -0.7236552542
 C          2.3459919354        1.2347894768        0.3879549370
 C          3.3345758836        0.0482289585        0.3776043735
 C          2.4647181973       -1.1041734321       -0.1490088349
 C          1.7421215268       -1.8693507399        0.9665346950
 C         -1.0808295071        0.1806896916       -0.3466365518
 C         -0.5174302710        2.1340546245        0.4075353365
 C         -2.1617416102        0.7988617927        0.2777697081
 C         -3.4224525665        0.1167217796        0.3531821034
 C         -2.3035095411       -1.7636376913       -0.8764108563
 H          1.4776291461        1.4693762741       -1.6155615077
 H          1.8210459519        1.2697848077        1.3465954956
 H          3.7075080382       -0.1561450632        1.3843767404
 H          3.0476522274       -1.8143570683       -0.7411393438
 H          1.0548932701       -2.5919119083        0.5075961077
 H          2.4967311590       -2.4144844073        1.5444366213
 H          0.0961950707        2.9866444150        0.6139264284
 H          3.7194916688        2.3451200165       -0.3882661118
 H          5.1278317915       -0.2141192079       -0.3842167761
 H         -0.3182025226       -1.4310125872       -1.3815735265
 H          0.7019755324       -1.4386368983        2.5663392593
 H         -4.2179908668       -1.6838383118       -0.2202418458
  32
        -63.74120048
 O          2.1251030090        1.3039873815       -0.7594696378
 O          1.4048774598       -0.7921982504        1.9936753750
 O          3.8546397419       -0.0989372573        1.3025362521
 O          3.7475838907       -1.4897552189       -2.5354375578
 O         -4.6754310966        0.2790380617       -0.9103545512
 O         -2.7883146580       -1.2031959737        2.9303728648
 N         -0.1370658660        0.8347958465       -0.3785289332
 N         -1.3760495921       -0.2419067750        1.4395429850
 N         -1.8304420448        1.1897570402       -1.7826140096
 N         -3.6509542787       -0.4156047119        0.9854212834
 C          1.2017812876        0.8549045209        0.1838756014
 C          1.6324899244       -0.5672889782        0.6407744961
 C          3.1150403839       -0.6091571717        0.2238013479
 C          3.1206896231        0.3093766143       -1.0079414970
 C          2.8113309105       -0.4706700934       -2.3010354251
 C         -1.2511523304        0.3502929732        0.2227086975
 C         -0.5568951811        1.3301931870       -1.5878161844
 C         -2.3080729292        0.5740391642       -0.6546983118
 C         -3.6364354188        0.1707520631       -0.2827542404
 C         -2.6139212536       -0.6575158605        1.8562112677
 H          1.1995417361        1.5451771702        1.0422958208
 H          1.0622333191       -1.3150439425        0.0804152713
 H          3.4322622565       -1.6216037729       -0.0438775439
 H          4.0685755564        0.8464011976       -1.1065788158
 H          1.8394219909       -0.9621848401       -2.2078008693
 H          2.7580942000        0.2355969919       -3.1357184427
 H          0.1239684479        1.7851005707       -2.2758281740
 H          2.1863416530       -0.4887697371        2.4908328942
 H          4.7963382025       -0.2827000767        1.1878862803
 H         -0.5641285335       -0.4535745658        2.0215882921
 H          4.5763251995       -1.1095338430       -2.8599295588
 H         -4.5626884506       -0.7235243604        1.3107986743
  32
        -63.74118076
 O          1.5750056207       -0.4742100462       -1.0803738022
 O          2.9986177701        2.4626441566        0.0823453910
 O          4.4380138567        0.2835797544       -0.4156459351
 O          0.9636293769       -0.8669584624        1.7923822886
 O         -4.4600113545        0.4519200218        0.8711631695
 O         -2.3764290582       -2.8863026889       -1.3753273477
 N         -0.0335020007        1.0317784825       -0.2546191367
 N         -1.1295405374       -1.0463061411       -0.9381900544
 N         -1.7674486844        2.0097346606        0.7527621026
 N         -3.3419739950       -1.1672213801       -0.2472792158
 C          1.3278025406        0.8584315111       -0.7323121401
 C          2.3578600667        1.2608872233        0.3632137103
 C          3.3188225647        0.0460725737        0.3924421856
 C          2.4323094966       -1.0948745746       -0.1163066199
 C          1.6630688491       -1.8067565663        1.0028258333
 C         -1.0738305598        0.1737878302       -0.3456013904
 C         -0.5201992154        2.1252557593        0.4211616935
 C         -2.1560202828        0.7803654543        0.2874250980
 C         -3.4122293517        0.0898486272        0.3636161035
 C         -2.2882244189       -1.7728924744       -0.8872294843
 H          1.4545769485        1.4856005996       -1.6266865373
 H          1.8372411969        1.3484302239        1.3217235266
 H          3.6997951599       -0.1368520192        1.3970939236
 H          3.0108365147       -1.8451108456       -0.6619594477
 H          0.9634675434       -2.5216481445        0.5497701079
 H          2.3937190533       -2.3576833227        1.6045499798
 H          0.0865590776        2.9822956602        0.6289824278
 H          3.9052589673        2.2620998579       -0.2203295913
 H          4.2011613995        0.1901017754       -1.3509914963
 H         -0.3096679508       -1.4271587746       -1.4009053025
 H          0.6432180010       -1.3020934360        2.5936522430
 H         -4.1994283444       -1.7112120181       -0.2201260131
  32
        -63.74091596
 O          1.5498899542       -0.0053611842       -1.3022791043
 O          3.1719488885        2.1691393394        0.5034903646
 O          3.8683436235       -0.1950729590        1.4303626412
 O          1.3737418130       -2.5585042941       -0.0854231346
 O         -4.6365633751        0.6720256120        0.3746555912
 O         -1.9263406841       -2.9548391902        0.3107467492
 N         -0.1618628542        1.3384925546       -0.4786086275
 N         -0.9209119706       -0.9608911404       -0.0641426826
 N         -2.1301703525        2.3723930417       -0.2630199235
 N         -3.2122868558       -1.0879716549        0.3389060768
 C          1.2638662312        1.2201765348       -0.6855638463
 C          2.0818135495        1.2993747213        0.6364710555
 C          2.6351147354       -0.1373811648        0.7932906102
 C          2.6587899540       -0.6353687438       -0.6672418654
 C          2.5235129023       -2.1475508281       -0.7981917832
 C         -1.0794815302        0.3782113207       -0.1952709782
 C         -0.8685976365        2.5200959263       -0.5080374491
 C         -2.3061060381        1.0286320190       -0.0628717202
 C         -3.4929855109        0.2737284120        0.2275364453
 C         -2.0107423239       -1.7445593481        0.2004607357
 H          1.5627369133        2.0507769405       -1.3431471473
 H          1.4363434482        1.5768845304        1.4734832324
 H          1.9430869435       -0.7551470167        1.3728528243
 H          3.5910320741       -0.3105946924       -1.1494642306
 H          2.4337547186       -2.3994298919       -1.8598210347
 H          3.4238480671       -2.6077008664       -0.3779652404
 H         -0.4048572354        3.4606840168       -0.7200955569
 H          2.9662484024        3.0504620766        0.8417826718
 H          4.3894857947        0.5816015634        1.1604009029
 H         -0.0169332434       -1.4420980873       -0.1797699606
 H          1.2418979458       -3.5099690201       -0.1929119536
 H         -4.0092826086       -1.6854069926        0.5376498528
  32
        -63.74055197
 O          1.5680639743       -0.4653290468       -1.0808798276
 O          3.0128198446        2.4418463736       -0.1457395862
 O          4.5008719343        0.2183478955       -0.2630231671
 O          0.9670421788       -0.8486337416        1.7963555422
 O         -4.4634692391        0.4311904503        0.8797700105
 O         -2.3734660253       -2.8772973122       -1.4041512069
 N         -0.0367102282        1.0312977568       -0.2362313769
 N         -1.1286582273       -1.0416198918       -0.9423393523
 N         -1.7755427207        1.9964057014        0.7761251959
 N         -3.3419300521       -1.1739849687       -0.2554381537
 C          1.3193083828        0.8645719832       -0.7367929933
 C          2.3677909514        1.2922635621        0.3159013309
 C          3.3009697064        0.0556497390        0.4317992104
 C          2.4210137558       -1.0829889614       -0.1142882304
 C          1.6405472923       -1.7982514846        0.9945130830
 C         -1.0755620314        0.1720816476       -0.3368233094
 C         -0.5288433645        2.1186355683        0.4452152057
 C         -2.1598005423        0.7695483136        0.3013492711
 C         -3.4149762510        0.0758967851        0.3690995548
 C         -2.2866441599       -1.7701136189       -0.9022094700
 H          1.4275870900        1.4864744074       -1.6375120010
 H          1.8694713636        1.4605906775        1.2786127464
 H          3.5842334212       -0.1326453223        1.4682231962
 H          3.0162581320       -1.8210116734       -0.6577097344
 H          0.9235307764       -2.4922028621        0.5367718787
 H          2.3605432093       -2.3716130429        1.5879115620
 H          0.0682193826        2.9818287743        0.6540010580
 H          3.7468772052        2.6671550471        0.4447864185
 H          4.3266936533        0.5039065206       -1.1725401593
 H         -0.3076047570       -1.4139384835       -1.4103639822
 H          0.6355916861       -1.2845184522        2.5928094617
 H         -4.1986366019       -1.7195488662       -0.2364372290
  32
        -63.74031619
 O          1.6011002236       -0.3213517760       -1.0428776200
 O          2.5924262369        2.4654215032        0.9379167320
 O          4.3273572304        0.8614452864       -0.2571010444
 O          1.1604683000       -2.8411668012       -0.1003797315
 O         -4.5946419431        0.8104519170        0.4446464425
 O         -2.2732993249       -3.0104587680       -0.2651181045
 N         -0.0680869793        1.1536942858       -0.3095762358
 N         -1.0633546134       -1.0948552803       -0.3065073827
 N         -1.9173379655        2.3292158772        0.1156470808
 N         -3.3606398877       -1.0506541149        0.0735584019
 C          1.3441937239        0.9618593213       -0.5607931665
 C          2.1938893403        1.1559562653        0.7270289765
 C          3.3569025194        0.1694726971        0.4831497160
 C          2.6720616253       -0.9446269912       -0.3220676321
 C          2.1191157913       -2.0664219612        0.5767233502
 C         -1.0794839260        0.2572353791       -0.1938538094
 C         -0.6438662263        2.3870458955       -0.1081071665
 C         -2.2343642957        0.9973696456        0.0637832707
 C         -3.4957837572        0.3301663466        0.2180049767
 C         -2.2297563298       -1.7965798674       -0.1724338305
 H          1.6418904779        1.7116701792       -1.3107501082
 H          1.6015309779        0.8527528950        1.5960995033
 H          3.7632189725       -0.2078034798        1.4257836083
 H          3.3394579776       -1.3617437822       -1.0827566469
 H          2.9456722875       -2.6849081521        0.9406811998
 H          1.5960007076       -1.6367128889        1.4343389514
 H         -0.0686527223        3.2893831804       -0.1233696924
 H          3.3932214662        2.6308220674        0.4080305365
 H          5.1739745277        0.3950163305       -0.2374992915
 H         -0.2014478873       -1.6381484444       -0.4474632067
 H          1.5753924800       -3.3314579715       -0.8245622736
 H         -4.2178474642       -1.5870880741        0.1667663883
  32
        -63.74014067
 O          2.1540095108        1.3690492444       -0.6767442101
 O          1.5057482315       -0.7035806861        2.0644060909
 O          3.9915148611       -0.1619789050        1.2088850598
 O          3.4716961708       -1.4998861254       -2.5921755145
 O         -4.6323940214        0.1616595203       -0.9575579296
 O         -2.7759895193       -1.1695601275        2.9535588288
 N         -0.1182802135        0.8393008720       -0.3673370048
 N         -1.3617101016       -0.2177758941        1.4588371228
 N         -1.7953770602        1.1205641221       -1.8058788510
 N         -3.6237873501       -0.4587610021        0.9724278436
 C          1.2055678922        0.8911859556        0.2285277342
 C          1.6543136600       -0.5255079345        0.6916002711
 C          3.1193930681       -0.5874959333        0.1993711507
 C          3.0769904255        0.3323509514       -1.0243593917
 C          2.6307126273       -0.4176445641       -2.2953585725
 C         -1.2306789182        0.3432807459        0.2276942447
 C         -0.5289470087        1.2964973552       -1.5946119758
 C         -2.2773740881        0.5200184395       -0.6718050522
 C         -3.6022133805        0.0943312579       -0.3108784610
 C         -2.5973353592       -0.6512423963        1.8670476303
 H          1.1538572937        1.5798494103        1.0856706982
 H          1.0531891387       -1.2825883146        0.1758461933
 H          3.4187069815       -1.6025097393       -0.0674811487
 H          4.0398786595        0.8207118858       -1.1982041170
 H          1.6343797154       -0.8406228001       -2.1431240713
 H          2.5759254189        0.2951415731       -3.1253994202
 H          0.1503730258        1.7538424239       -2.2825471185
 H          2.3850741411       -0.6423268559        2.4837447032
 H          3.9898100929        0.8054185681        1.2690632824
 H         -0.5626739492       -0.3866893508        2.0678658408
 H          4.3215790320       -1.1790394173       -2.9263973984
 H         -4.5334094906       -0.7804329416        1.2906125771
  32
        -63.73996972
 O          1.4403554047       -0.4899400978       -1.0042806742
 O          2.8320050549        2.5238377645        0.1542138883
 O          4.2803292159        0.4603774925       -0.6017662176
 O          2.6998035265       -2.3181794254        1.9400454495
 O         -4.5958006002        0.6748305910        0.8013831070
 O         -2.6000940154       -2.7499070918       -1.3939467326
 N         -0.1235049312        1.0716908820       -0.2189350373
 N         -1.2826855383       -0.9705729165       -0.9124093105
 N         -1.8415217111        2.1209565082        0.7431701072
 N         -3.5195955631       -0.9913613594       -0.2894885940
 C          1.2321490809        0.8589969532       -0.6997230142
 C          2.2754447291        1.2746784924        0.3790757319
 C          3.2915898887        0.1108569693        0.3316300103
 C          2.4166744820       -1.0619269681       -0.1328955421
 C          1.7509311280       -1.7805157410        1.0574445562
 C         -1.1962898423        0.2534801515       -0.3316894451
 C         -0.5848463426        2.1902204267        0.4366478348
 C         -2.2666013235        0.9049214592        0.2754290649
 C         -3.5533717750        0.2667815452        0.3205334203
 C         -2.4757960248       -1.6438342711       -0.8997891144
 H          1.3716930588        1.4568086101       -1.6122580863
 H          1.7852221940        1.3077076825        1.3570358924
 H          3.7153096029       -0.0877449245        1.3198720543
 H          2.9826988783       -1.7732217135       -0.7406523255
 H          1.1677811408       -1.0610478581        1.6389098911
 H          1.0684569654       -2.5492188423        0.6780772636
 H          0.0495967391        3.0251841299        0.6520072539
 H          3.5980227626        2.4153394286       -0.4384505350
 H          5.0785378960       -0.0679334455       -0.4692583898
 H         -0.4688045435       -1.3834962144       -1.3576897460
 H          3.0972623123       -3.1131816653        1.5565339033
 H         -4.4006634890       -1.4970959346       -0.2888452363
  32
        -63.73977432
 O          1.4437407803       -0.5003215656       -0.9941402236
 O          2.8540835438        2.5226311862        0.1017853455
 O          4.2731728252        0.4249812345       -0.6044427027
 O          2.7298987888       -2.2775053230        1.9163970298
 O         -4.5861327394        0.6600985858        0.8151835051
 O         -2.6015670841       -2.7413158268       -1.4257773832
 N         -0.1187856431        1.0684942975       -0.2228904084
 N         -1.2810111664       -0.9674189125       -0.9315481992
 N         -1.8336228733        2.1082050288        0.7553623839
 N         -3.5154722868       -0.9946949770       -0.2985498581
 C          1.2355814717        0.8533092970       -0.7081070664
 C          2.2843602602        1.2858305988        0.3597007659
 C          3.2855495967        0.1094193483        0.3411379724
 C          2.3960467638       -1.0628958367       -0.0940267339
 C          1.7156930552       -1.7429031006        1.1018092362
 C         -1.1921297782        0.2511704387       -0.3397109092
 C         -0.5782614481        2.1810901141        0.4441222399
 C         -2.2600858533        0.8962440186        0.2783107470
 C         -3.5465078153        0.2572990784        0.3240183345
 C         -2.4744193328       -1.6403948739       -0.9211516379
 H          1.3695947515        1.4365688595       -1.6303973174
 H          1.7955677301        1.3508578271        1.3367057576
 H          3.7168553216       -0.0727717681        1.3291238483
 H          2.9598999166       -1.8094341230       -0.6585808002
 H          1.1149627034       -1.0065806002        1.6543143257
 H          1.0493703962       -2.5278789927        0.7243747018
 H          0.0550711182        3.0161586158        0.6621937885
 H          3.6203096374        2.3902829153       -0.4851198612
 H          5.0245385432       -0.1769066960       -0.5210968516
 H         -0.4688461713       -1.3780186061       -1.3821153098
 H          2.3367092337       -2.8007153466        2.6286938420
 H         -4.3965577738       -1.5006122013       -0.2992044595
  32
        -63.73945724
 O          2.1616479286        1.3688080724       -0.6656485193
 O          1.5156875190       -0.7086528604        2.0695559147
 O          3.9885367007       -0.1622849401        1.1943780795
 O          3.5181755737       -1.4391886474       -2.5637765071
 O         -4.6220211445        0.1529887467       -0.9680201550
 O         -2.7784334577       -1.1732282645        2.9508941187
 N         -0.1133201875        0.8475557587       -0.3571131747
 N         -1.3606507856       -0.2157047276        1.4628804283
 N         -1.7855251157        1.1246159519       -1.8022083555
 N         -3.6199214698       -0.4641456676        0.9665649831
 C          1.2110209998        0.8924927158        0.2390608407
 C          1.6528314530       -0.5289550796        0.6962428132
 C          3.1134596669       -0.5971676253        0.1911693158
 C          3.0617057222        0.3210436887       -1.0328038345
 C          2.5934029862       -0.4142635755       -2.2958850622
 C         -1.2265713702        0.3478736953        0.2332561624
 C         -0.5204844941        1.3046667665       -1.5855414916
 C         -2.2702097815        0.5217445808       -0.6704588772
 C         -3.5949474303        0.0902695358       -0.3160080631
 C         -2.5967288116       -0.6532612702        1.8657664855
 H          1.1638103466        1.5785699567        1.0980725571
 H          1.0406720149       -1.2813698776        0.1871732585
 H          3.4175577592       -1.6101156020       -0.0751665864
 H          4.0324707194        0.7814632922       -1.2323263044
 H          1.5870206582       -0.8249608679       -2.1352802423
 H          2.5478354451        0.3110584000       -3.1165142531
 H          0.1603181100        1.7661228043       -2.2693468040
 H          2.3973396104       -0.6314298117        2.4815986411
 H          4.0160856561        0.8060836087        1.2196916746
 H         -0.5638731444       -0.3808766370        2.0757416994
 H          3.3086662605       -1.8530406365       -3.4128354309
 H         -4.5297360096       -0.7891226954        1.2808176019
  32
        -63.73940232
 O          2.1536296898        1.2629046928       -0.9004739412
 O          1.4854380355       -0.7874111002        1.9329768644
 O          3.9146599225        0.0565813271        1.3338675384
 O          2.1133702793       -1.3331912702       -2.3521692631
 O         -4.6184340557        0.2635775696       -0.8361335872
 O         -2.6268134732       -1.3868659130        2.8816399596
 N         -0.0724878357        0.8285640791       -0.3903789948
 N         -1.2593313016       -0.3433708190        1.4046036254
 N         -1.8066919599        1.2406476629       -1.7298626238
 N         -3.5431404270       -0.5176091285        0.9972985587
 C          1.2867861282        0.8530413734        0.1140969554
 C          1.7529106592       -0.5475483674        0.5888755766
 C          3.2501794618       -0.5154773951        0.2365541121
 C          3.2740641681        0.3742506239       -1.0168091039
 C          3.2032351289       -0.4382309128       -2.3214300799
 C         -1.1667722815        0.3061952958        0.2154106079
 C         -0.5298165420        1.3830153880       -1.5605672608
 C         -2.2482762685        0.5641809236       -0.6227291191
 C         -3.5638069292        0.1314789314       -0.2392532227
 C         -2.4823384475       -0.7899614998        1.8302496243
 H          1.3314588844        1.5669643561        0.9538838236
 H          1.2513655876       -1.3193411942       -0.0036944202
 H          3.6235457196       -1.5190609310        0.0160377767
 H          4.1688923841        1.0034599984       -1.0418153097
 H          3.1688894197        0.2562723494       -3.1645384706
 H          4.1054575031       -1.0489104038       -2.4002666704
 H          0.1274556201        1.8856343628       -2.2386735018
 H          2.2276406272       -0.4403324240        2.4605312077
 H          4.8688495350       -0.0795624924        1.2639033737
 H         -0.4289142926       -0.5665372234        1.9582553518
 H          1.3256947400       -0.8723383094       -2.6672926611
 H         -4.4437258902       -0.8500235132        1.3295233840
  32
        -63.73938888
 O          1.6353305154       -0.4145230582       -0.9516128259
 O          2.9482227740        2.6413860608        0.0061430948
 O          4.4526259681        0.4731954967       -0.3466534920
 O          0.8429838895       -2.5710007376        0.8234036342
 O         -4.4991458509        0.5830769866        0.7765588755
 O         -2.3253222640       -2.9365516380       -1.0678051362
 N         -0.0361844503        1.0880729298       -0.2331997600
 N         -1.0950930570       -1.0586496098       -0.7549334074
 N         -1.8165723293        2.1411875772        0.6053425368
 N         -3.3403562878       -1.1207861317       -0.1613986979
 C          1.3339426132        0.9255763341       -0.6970244848
 C          2.3469035628        1.4432179160        0.3695221269
 C          3.3487730996        0.2638673142        0.4880288049
 C          2.4900036741       -0.9336839489        0.0744324180
 C          1.6838330651       -1.5261152809        1.2434776540
 C         -1.0688285513        0.2115199537       -0.2822735732
 C         -0.5600286181        2.2404299959        0.3082611056
 C         -2.1774080362        0.8682432556        0.2475035255
 C         -3.4348542063        0.1796573618        0.3385378743
 C         -2.2529416731       -1.7846130132       -0.6813348018
 H          1.4384240115        1.4924987136       -1.6330892789
 H          1.8233400667        1.5950099064        1.3195841792
 H          3.7447753720        0.1730811851        1.4998697576
 H          3.0815047557       -1.7201288715       -0.4021360213
 H          2.3777949376       -1.8569718843        2.0227658925
 H          1.0244771245       -0.7634275999        1.6657140851
 H          0.0310602641        3.1215238329        0.4504911105
 H          3.8543078129        2.4500064686       -0.3043185541
 H          4.2180537860        0.2842852008       -1.2684326936
 H         -0.2376342716       -1.5220774466       -1.0426558889
 H          1.3655016316       -3.3659949187        0.6463078206
 H         -4.1960690106       -1.6663877976       -0.1200015883
  32
        -63.73938843
 O          1.6423477891       -0.3791146084       -0.9863934184
 O          2.8755715634        2.6456613216        0.2132062389
 O          4.4562687454        0.5669096220       -0.3132534007
 O          0.9582398335       -2.6903603470        0.5634303790
 O         -4.5378267432        0.6619556588        0.6816794322
 O         -2.3273153612       -2.9774753409       -0.8589800983
 N         -0.0479061387        1.0936963956       -0.2331432068
 N         -1.0948942859       -1.0888476188       -0.6305255269
 N         -1.8476801051        2.1956798834        0.4944209328
 N         -3.3631517615       -1.1004030684       -0.1183237813
 C          1.3343591690        0.9427156417       -0.6615544942
 C          2.3139336868        1.3997164677        0.4614861984
 C          3.3552442948        0.2507245290        0.4910774067
 C          2.5437139166       -0.9403906443       -0.0230629052
 C          1.7819226998       -1.6796635682        1.0898822808
 C         -1.0776838979        0.2125948426       -0.2498361067
 C         -0.5842419149        2.2765695564        0.2240138741
 C         -2.1998371532        0.9030843347        0.2061388595
 C         -3.4636651232        0.2274950872        0.3005862978
 C         -2.2608648798       -1.8015327875       -0.5513564748
 H          1.4652967231        1.5678527263       -1.5570428623
 H          1.7702154459        1.4510134814        1.4113396994
 H          3.7490074412        0.0905938917        1.4953349114
 H          3.1653880107       -1.6505487327       -0.5759213480
 H          2.4991397040       -2.0806025787        1.8126492690
 H          1.1128216482       -0.9875148102        1.6074545575
 H          0.0091766091        3.1608107652        0.3346484570
 H          3.7924010296        2.5149108600       -0.0972415070
 H          4.2328375022        0.4566523897       -1.2503504014
 H         -0.2320704926       -1.5932108814       -0.8297261138
 H          1.4953737120       -3.4415417443        0.2746021710
 H         -4.2237451590       -1.6379853639       -0.0744984438
  32
        -63.73931412
 O          2.0223219016        0.9545107009       -1.1074386147
 O          1.3027969371       -0.9120511346        1.8534004552
 O          3.7760664317       -0.2666878034        1.4748338446
 O          3.2718792277       -1.2859076805       -2.5741166860
 O         -4.7610225147        0.5330625978       -0.7332081781
 O         -2.7679852530       -1.3439779101        2.8749216179
 N         -0.1739620850        0.7712809182       -0.4346515189
 N         -1.3826923518       -0.3589872383        1.3756887392
 N         -1.9219498868        1.3385094106       -1.6992653391
 N         -3.6849783269       -0.3700598233        1.0425009245
 C          1.2000560901        0.7087464546       -0.0018122409
 C          1.6366399838       -0.6836622617        0.5227510110
 C          3.1618936609       -0.6438624465        0.2691024261
 C          3.3246898897        0.4293795290       -0.8332456018
 C          3.9234329039       -0.1202802373       -2.1335623597
 C         -1.2812396061        0.3097693883        0.1986259562
 C         -0.6343570868        1.3887405032       -1.5741353423
 C         -2.3702426756        0.6641333067       -0.5934248481
 C         -3.6995266408        0.3125627442       -0.1758158472
 C         -2.6184444832       -0.7323872530        1.8325949882
 H          1.3658006161        1.4631518919        0.7892543796
 H          1.1653462788       -1.4579680250       -0.0909503840
 H          3.5210075184       -1.6136611023       -0.0837775308
 H          3.9575899773        1.2418008789       -0.4518696465
 H          3.8891764682        0.6666700985       -2.8929111659
 H          4.9630295280       -0.4020300815       -1.9576824506
 H          0.0331044766        1.8547884020       -2.2674334613
 H          2.0614054584       -0.6446154877        2.4074815026
 H          4.6907541613       -0.5749905284        1.5077482571
 H         -0.5505776484       -0.6396660271        1.9016476809
 H          2.4085899083       -1.0497013169       -2.9381507857
 H         -4.5953855658       -0.6488775030        1.3967673469
  32
        -63.73919466
 O          1.4805866508       -0.4460986346       -1.0545186998
 O          2.9479304820        2.5105998066       -0.0074706987
 O          4.3583955345        0.3114664226       -0.4904526944
 O          2.4051969304       -2.1393507808        2.0945704007
 O         -4.5543876660        0.5750040850        0.8515945665
 O         -2.5356910156       -2.7498170200       -1.4738975338
 N         -0.1049848459        1.0773267705       -0.2222158805
 N         -1.2435139787       -0.9611529768       -0.9637161610
 N         -1.8280025136        2.0703554567        0.7897461421
 N         -3.4683283821       -1.0419415170       -0.3020687531
 C          1.2457036534        0.8967064368       -0.7317802625
 C          2.3093271320        1.3223220937        0.3252483091
 C          3.2657571340        0.1009668324        0.3585893728
 C          2.3478095230       -1.0396377168       -0.0849839639
 C          1.5583682470       -1.6353123215        1.0979549203
 C         -1.1669803788        0.2452752880       -0.3456738463
 C         -0.5772616780        2.1701277082        0.4688394068
 C         -2.2388225807        0.8604358863        0.2946550366
 C         -3.5137758866        0.1983231768        0.3427775585
 C         -2.4242030525       -1.6567918458       -0.9491575058
 H          1.3487774178        1.5015845791       -1.6437406140
 H          1.8226340367        1.4488931941        1.2981406548
 H          3.6733755784       -0.0696725983        1.3562305659
 H          2.8996821412       -1.8281723458       -0.6037079455
 H          0.9655239395       -0.8515465865        1.5774335338
 H          0.8728324601       -2.4044231041        0.7224809427
 H          0.0414147914        3.0141402595        0.6938337262
 H          3.8490909535        2.2973073422       -0.3186525085
 H          4.0911646045        0.1948488770       -1.4152403758
 H         -0.4332966585       -1.3506516352       -1.4356271853
 H          2.8308505956       -2.9539204057        1.7907321983
 H         -4.3395988400       -1.5646127504       -0.2985395108
  32
        -63.73902231
 O          2.2143441620        1.2378496575       -0.6201567301
 O          1.5449974212       -0.8568600140        2.1015400332
 O          3.9758402613       -0.2197777252        1.3115489605
 O          2.4804182439        0.3804843963       -3.3029644902
 O         -4.5682677622        0.0117191146       -0.9444184964
 O         -2.7667514208       -1.0779382796        3.0646479407
 N         -0.0499794066        0.6642569193       -0.3553196899
 N         -1.3255349211       -0.2414282843        1.5265067159
 N         -1.7012927228        0.8496126019       -1.8370714708
 N         -3.5861038442       -0.4790505858        1.0352559440
 C          1.2636036570        0.7449132342        0.2629904492
 C          1.7239269656       -0.6651273763        0.7366920870
 C          3.1912670895       -0.7158843554        0.2606470545
 C          3.1590554602        0.2204565615       -0.9598197413
 C          2.7600470178       -0.5096108883       -2.2557830761
 C         -1.1766123116        0.2330646853        0.2607266919
 C         -0.4338230853        1.0204239349       -1.6242025554
 C         -2.2094657817        0.3548033396       -0.6632063833
 C         -3.5436270706       -0.0217697158       -0.2854704197
 C         -2.5702226673       -0.6307433271        1.9494230081
 H          1.1872828271        1.4330131849        1.1181832459
 H          1.1346131663       -1.4291323325        0.2191652912
 H          3.4866420183       -1.7325338395       -0.0157728129
 H          4.1075024027        0.7463228988       -1.1005598772
 H          3.5592955130       -1.2090034144       -2.5313648277
 H          1.8368929605       -1.0732560959       -2.1016646223
 H          0.2671222421        1.3835749176       -2.3476636049
 H          2.3438810236       -0.5452176375        2.5644015924
 H          4.9154355304       -0.3656967013        1.1380067962
 H         -0.5284256340       -0.4027058132        2.1405326536
 H          3.2707320770        0.8960704099       -3.5190592547
 H         -4.5035350676       -0.7644873921        1.3652242774
  32
        -63.73879108
 O          2.1600700236        1.0769982062       -0.8307203730
 O          1.3755399018       -0.7732240249        2.0942796838
 O          3.8312786310       -0.0719000383        1.4163797415
 O          3.3999061556       -0.1614788992       -3.3634321886
 O         -4.6563201573        0.2257473908       -0.8731832274
 O         -2.7823844222       -1.1278161780        3.0217728405
 N         -0.1054123677        0.7162473058       -0.3800153442
 N         -1.3596329273       -0.2592197748        1.4861771449
 N         -1.8012609094        1.0513328847       -1.7880582763
 N         -3.6390615812       -0.4109460419        1.0467803494
 C          1.2408671433        0.7440646706        0.1643297726
 C          1.6449741352       -0.6408721061        0.7370154623
 C          3.1393263256       -0.7088114373        0.3747277878
 C          3.1830336631        0.0766658419       -0.9446489549
 C          2.9622672398       -0.7970427953       -2.1908259905
 C         -1.2261845376        0.2784558307        0.2456227155
 C         -0.5249215585        1.1756019006       -1.6038500648
 C         -2.2834163708        0.4875951258       -0.6353346793
 C         -3.6177339345        0.1235971971       -0.2437420950
 C         -2.6029907832       -0.6327550040        1.9241459982
 H          1.2721311424        1.5067486067        0.9590506318
 H          1.0934782623       -1.4253651942        0.2086850999
 H          3.4753586225       -1.7416266991        0.2463019494
 H          4.1268551068        0.6181778528       -1.0614439805
 H          3.5597437950       -1.7072887921       -2.1150919216
 H          1.9012006948       -1.0689585535       -2.2662942589
 H          0.1565021803        1.6000863364       -2.3095915689
 H          2.1323367638       -0.4200873772        2.5965375205
 H          4.7848473429       -0.2011802619        1.3238904211
 H         -0.5503574854       -0.4536492874        2.0790201015
 H          2.9121799204        0.6646911682       -3.4866915671
 H         -4.5547908952       -0.6892127576        1.3875408696
  32
        -63.73873345
 O          2.2237609332        1.2674335719       -0.5679517543
 O          1.6078794427       -0.8265654611        2.1320096265
 O          4.0758807582       -0.2755094586        1.2440479740
 O          2.4032372456        0.4289084626       -3.2904411281
 O         -4.5518803910       -0.0379160127       -0.9714628571
 O         -2.7768435853       -1.0753886214        3.0640457675
 N         -0.0450936919        0.6599016418       -0.3476209662
 N         -1.3296829422       -0.2428149708        1.5299693046
 N         -1.6857514183        0.8233245010       -1.8432210073
 N         -3.5833741439       -0.5060749991        1.0205721038
 C          1.2581290835        0.7509404200        0.2895820440
 C          1.7345016536       -0.6569257596        0.7561174001
 C          3.1956330731       -0.7026793188        0.2431413642
 C          3.1345769465        0.2369431360       -0.9668413214
 C          2.6729521873       -0.4742334435       -2.2517933368
 C         -1.1733992728        0.2223711096        0.2615669179
 C         -0.4218698171        1.0073612637       -1.6216036715
 C         -2.1991962096        0.3292219254       -0.6715278043
 C         -3.5333075421       -0.0575246792       -0.3031229152
 C         -2.5753211211       -0.6388106865        1.9457198570
 H          1.1534387278        1.4301874143        1.1488251591
 H          1.1342371725       -1.4259743530        0.2570299678
 H          3.5006104495       -1.7151819045       -0.0234475515
 H          4.0887468344        0.7399953615       -1.1464158554
 H          3.4378328747       -1.2036359549       -2.5438647015
 H          1.7331745068       -1.0024439542       -2.0752507543
 H          0.2797220638        1.3745559091       -2.3426362618
 H          2.4924660651       -0.7534392533        2.5383219115
 H          4.0610049837        0.6914820660        1.3140361046
 H         -0.5421268856       -0.3837935728        2.1587112724
 H          3.2165092462        0.8807906826       -3.5577976985
 H         -4.5013266066       -0.7968401930        1.3445628590
  32
        -63.73872913
 O          1.6333515163       -0.3303843432       -1.0172974562
 O          2.8150045098        2.6299951458        0.2230146908
 O          4.5270710069        0.5889919434       -0.0624931409
 O          1.0653186361       -2.7897045824        0.2101081355
 O         -4.5775526346        0.7192290044        0.5890418094
 O         -2.3152821279       -3.0097206475       -0.6254709304
 N         -0.0676930570        1.1120484741       -0.2363936725
 N         -1.0910816936       -1.1074690500       -0.4888938760
 N         -1.8933267529        2.2457017802        0.3700829240
 N         -3.3773628658       -1.0915117103       -0.0489529429
 C          1.3264749584        0.9696083684       -0.6298495579
 C          2.2754795526        1.3791539701        0.5218808367
 C          3.3274591597        0.2351270472        0.5560581915
 C          2.5909147621       -0.9257414906       -0.1344492799
 C          1.8934817509       -1.8611150993        0.8666136561
 C         -1.0887382670        0.2200262228       -0.2119036209
 C         -0.6254006699        2.3190203005        0.1220969647
 C         -2.2273530655        0.9328124933        0.1660222626
 C         -3.4921012002        0.2613809218        0.2717326536
 C         -2.2596171785       -1.8145384033       -0.3998704415
 H          1.4848866188        1.6473097998       -1.4829660126
 H          1.7139839198        1.4004142960        1.4663578562
 H          3.5975271910       -0.0313917246        1.5799148397
 H          3.2710454188       -1.5013239455       -0.7698114481
 H          2.6483244763       -2.3618996158        1.4806028897
 H          1.2334979632       -1.2836269003        1.5194479211
 H         -0.0422737029        3.2148193972        0.1811540781
 H          3.4728519182        2.8794684647        0.8893933383
 H          4.3589941476        0.9726610339       -0.9364890744
 H         -0.2280916027       -1.6394488929       -0.6365963754
 H          1.6021187690       -3.4276772758       -0.2812947096
 H         -4.2375213491       -1.6289128437        0.0043182551
  32
        -63.73866605
 O          1.6020833419       -0.3034883462       -1.0496917871
 O          2.6330605347        2.4839498873        0.8975387271
 O          4.3262056575        0.7980661090       -0.2306667280
 O          1.1781260583       -2.8408400450       -0.1772728120
 O         -4.5852276312        0.7825203010        0.4466911045
 O         -2.2175294708       -3.0123596775       -0.2556802717
 N         -0.0651663028        1.1753391905       -0.3254262174
 N         -1.0401705175       -1.0803985590       -0.3429775069
 N         -1.9208904527        2.3307809621        0.1243223631
 N         -3.3302421789       -1.0648481206        0.0783054799
 C          1.3489147919        0.9828418999       -0.5738498740
 C          2.1943727640        1.1828316290        0.7169769663
 C          3.3265434868        0.1526025503        0.5110295233
 C          2.6154077034       -0.9557682209       -0.2782945717
 C          2.0057849198       -2.0316877268        0.6316830826
 C         -1.0698105764        0.2710046947       -0.2217167779
 C         -0.6485467454        2.4012864387       -0.1041078545
 C         -2.2287242592        0.9973786116        0.0549839386
 C         -3.4817828022        0.3159871202        0.2155512494
 C         -2.1948425043       -1.7957178025       -0.1841302202
 H          1.6485422333        1.7263630878       -1.3284732728
 H          1.5857215192        0.9234073440        1.5890927675
 H          3.7111304696       -0.2147383683        1.4672636956
 H          3.2714294975       -1.4382953590       -1.0082892596
 H          2.8176022591       -2.6167135267        1.0746341506
 H          1.4193904744       -1.5618402826        1.4325954721
 H         -0.0794928998        3.3076635607       -0.1090793860
 H          3.4442588545        2.6096837241        0.3728687089
 H          5.1351561580        0.2691521939       -0.2517030378
 H         -0.1828599464       -1.6043092302       -0.5640856867
 H          0.8740999525       -3.6127042199        0.3192477753
 H         -4.1799612604       -1.6109140373        0.1840128088
  32
        -63.73860483
 O          1.5875198448        0.0353962358       -1.3331843934
 O          3.2250813727        2.1159328493        0.4787011161
 O          3.6804585926       -0.2661599719        1.5771334853
 O          1.3594093269       -2.6415955519       -0.2261496839
 O         -4.6163340823        0.6633823073        0.3856438030
 O         -1.8780092138       -2.9411335474        0.3913905387
 N         -0.1563252371        1.3508766533       -0.5206441286
 N         -0.8923734838       -0.9525778164       -0.0636557124
 N         -2.1316700418        2.3691488597       -0.2973932824
 N         -3.1776146120       -1.0853489446        0.3835812716
 C          1.2734176766        1.2546578583       -0.7186872144
 C          2.0713790940        1.3346206421        0.6147982339
 C          2.5238791374       -0.1289733111        0.8210735927
 C          2.6511771319       -0.6134021321       -0.6377085995
 C          2.5243612308       -2.1249304629       -0.8362939576
 C         -1.0626289448        0.3840544047       -0.2198161819
 C         -0.8740663508        2.5256044741       -0.5558608710
 C         -2.2929637714        1.0265468758       -0.0805266311
 C         -3.4714044229        0.2696205485        0.2380496089
 C         -1.9735924162       -1.7369382904        0.2400087809
 H          1.5627175563        2.0895244679       -1.3736954906
 H          1.4320891720        1.6854131586        1.4297097918
 H          1.7355661720       -0.6899711168        1.3323174453
 H          3.6128218342       -0.2768968364       -1.0491644252
 H          2.4326806703       -2.3166556073       -1.9083837905
 H          3.4258802524       -2.6064561491       -0.4559702231
 H         -0.4205243507        3.4680667417       -0.7813951895
 H          3.0554159606        3.0410040323        0.7009338136
 H          4.2908884294        0.4540204492        1.3434587806
 H         -0.0065344642       -1.4478750393       -0.2443310901
 H          1.5734925625       -3.0343049666        0.6295811856
 H         -3.9662429268       -1.6848641770        0.6079533653
  32
        -63.73859617
 O          1.6302421454       -0.4010857095       -0.9519458949
 O          2.9751914247        2.6020290622       -0.2461925967
 O          4.5232447462        0.4297080289       -0.1276229397
 O          0.8377291692       -2.5901941746        0.7692383880
 O         -4.4997760945        0.5648506375        0.7954229922
 O         -2.3174066448       -2.9352052449       -1.0754639542
 N         -0.0416802297        1.0949309528       -0.2258842787
 N         -1.0932692111       -1.0543372392       -0.7542168114
 N         -1.8278774000        2.1377870601        0.6149997334
 N         -3.3365350161       -1.1300767352       -0.1535153262
 C          1.3243006450        0.9365900825       -0.7102240545
 C          2.3501542985        1.4861961542        0.3109992880
 C          3.3132482675        0.2874540174        0.5519641204
 C          2.4768393699       -0.9143693259        0.0806215849
 C          1.6591165953       -1.5433423486        1.2220304469
 C         -1.0708939181        0.2135311063       -0.2759642764
 C         -0.5730213118        2.2446036617        0.3142341297
 C         -2.1817974266        0.8628419408        0.2581573977
 C         -3.4356260531        0.1676007017        0.3516384672
 C         -2.2478395019       -1.7856928765       -0.6817747143
 H          1.4121653900        1.4907612561       -1.6558607286
 H          1.8376878594        1.7415792549        1.2484648613
 H          3.5806111676        0.1944990205        1.6060676264
 H          3.1012284359       -1.6749770691       -0.3960507943
 H          2.3448597608       -1.8831254321        2.0050931694
 H          0.9839092924       -0.7968381465        1.6492620609
 H          0.0060140480        3.1346276016        0.4478617335
 H          3.7277300054        2.8711287293        0.3025421413
 H          4.3632774700        0.5972225598       -1.0688746536
 H         -0.2343083681       -1.5127473144       -1.0463904499
 H          1.3772089610       -3.3670769932        0.5651308111
 H         -4.1893220261       -1.6802861464       -0.1122115062
  32
        -63.73849663
 O          1.6047690252       -0.3028510201       -1.0387671665
 O          2.6087918841        2.4858052165        0.8311591599
 O          4.3927346922        0.7634860080       -0.1842224488
 O          1.1783529405       -2.8416945403       -0.1805121729
 O         -4.5995192601        0.7972027715        0.4305600129
 O         -2.2563031580       -3.0169162074       -0.2435812326
 N         -0.0722841909        1.1591716540       -0.3066599012
 N         -1.0548694626       -1.0955056636       -0.2921670414
 N         -1.9313014976        2.3269681555        0.0973241635
 N         -3.3536862609       -1.0612506222        0.0841780438
 C          1.3435027354        0.9732895716       -0.5454552481
 C          2.1774157551        1.1624620917        0.7438363317
 C          3.3406001381        0.1659242361        0.5199418644
 C          2.6773277301       -0.9292384174       -0.3230640326
 C          2.1257468859       -2.0845234914        0.5313917852
 C         -1.0796326110        0.2569380525       -0.1919737863
 C         -0.6576399200        2.3911879101       -0.1216099888
 C         -2.2394574796        0.9927762661        0.0558373224
 C         -3.4980124015        0.3197817229        0.2125161634
 C         -2.2185815671       -1.8027344911       -0.1576657983
 H          1.6486264396        1.7373667480       -1.2782344443
 H          1.5767139073        0.8610271067        1.6088229358
 H          3.7186414218       -0.2431839563        1.4656686187
 H          3.3776350764       -1.3046002583       -1.0753558716
 H          2.9554065425       -2.7067160633        0.8808418593
 H          1.5903547540       -1.6901097860        1.3986358157
 H         -0.0893149816        3.2975505353       -0.1534907942
 H          2.8358377604        2.7147381811        1.7443256560
 H          4.3110571087        1.7310665480       -0.0995065776
 H         -0.1933324878       -1.6349249130       -0.4522264141
 H          1.6015209998       -3.2909620361       -0.9260079992
 H         -4.2079230927       -1.6022689853        0.1784969457
  32
        -63.73846109
 O          1.5779798599       -0.4383088451       -1.1268258573
 O          3.5491633524        1.7487114068       -1.0779572703
 O          4.0772634729        0.4800881750        1.2064485790
 O          0.6115185338       -1.3050247954        1.5132060416
 O         -4.3176647170        0.3795204815        1.1173887770
 O         -2.3093295995       -2.9004417002       -1.2764288505
 N         -0.0237926703        1.1096114933       -0.3888274304
 N         -1.1084762121       -1.0015964029       -0.9808178234
 N         -1.7024679506        2.0278975055        0.7642991689
 N         -3.2498980955       -1.1979594183       -0.1052701690
 C          1.2673154270        0.9214809922       -1.0459156907
 C          2.4280167650        1.5634665660       -0.2602325615
 C          2.7659760009        0.4440248835        0.7486898701
 C          2.4069131025       -0.8414599465       -0.0322679804
 C          1.7214475836       -1.8844255204        0.8530852118
 C         -1.0424619902        0.2150175671       -0.3863573785
 C         -0.4944640349        2.1877396661        0.3264188725
 C         -2.0861330792        0.7844401806        0.3355607248
 C         -3.3080097829        0.0518717517        0.5176035060
 C         -2.2241399521       -1.7759755871       -0.8144935010
 H          1.1996696142        1.3000506293       -2.0741694632
 H          2.1392515337        2.4855629486        0.2461206323
 H          2.1143908088        0.5266017074        1.6239621742
 H          3.3103100944       -1.2893761065       -0.4607043766
 H          1.3947700303       -2.7273405994        0.2309432024
 H          2.4682494124       -2.2329404530        1.5734216982
 H          0.0722416401        3.0797941891        0.4878530957
 H          3.4947142246        2.5853003706       -1.5599936024
 H          4.6550418927        0.7241882375        0.4627243877
 H         -0.2897814715       -1.3857917826       -1.4434598166
 H          0.3624830590       -1.8699058148        2.2557626169
 H         -4.0793209907       -1.7751587023       -0.0005085977
  32
        -63.73845967
 O          1.4811058363       -0.4549669392       -1.0425424009
 O          2.9518586704        2.5079205278       -0.0121950695
 O          4.3429186720        0.3040924885       -0.5026190028
 O          2.4846348885       -2.1655090118        2.0202641223
 O         -4.5550884874        0.5837425304        0.8445952844
 O         -2.5381525459       -2.7525125169       -1.4654247135
 N         -0.1041670936        1.0775261694       -0.2267706981
 N         -1.2431506551       -0.9639707514       -0.9598282002
 N         -1.8274746297        2.0760967956        0.7792521003
 N         -3.4694669141       -1.0388448780       -0.3016918222
 C          1.2478382383        0.8917554092       -0.7313115223
 C          2.3093465607        1.3237819346        0.3257594171
 C          3.2630695538        0.1004010772        0.3645162291
 C          2.3384575261       -1.0405868158       -0.0620799147
 C          1.5515255684       -1.6232463370        1.1200941198
 C         -1.1666937601        0.2458278549       -0.3482951228
 C         -0.5763603280        2.1737918949        0.4589384659
 C         -2.2387050524        0.8644002986        0.2887825852
 C         -3.5145576051        0.2040701365        0.3379427118
 C         -2.4252486199       -1.6573942338       -0.9456118872
 H          1.3545348005        1.4890003994       -1.6476715367
 H          1.8211321167        1.4597729273        1.2963693490
 H          3.6855446723       -0.0671259516        1.3556375999
 H          2.8903221860       -1.8469807294       -0.5508776375
 H          0.9585446209       -0.8319898698        1.6001811904
 H          0.8680641731       -2.3929551275        0.7400469604
 H          0.0427943208        3.0182807735        0.6808654851
 H          3.8447683732        2.2858304556       -0.3411077481
 H          4.0698941864        0.1480830794       -1.4197612031
 H         -0.4322618009       -1.3562952926       -1.4284940739
 H          2.0230210044       -2.6220026311        2.7373809417
 H         -4.3419561996       -1.5595459710       -0.2997460461
  32
        -63.73845186
 O          1.4816551471       -0.4220132733       -1.0667525858
 O          2.9682894997        2.4874966538       -0.2325716063
 O          4.4273009752        0.2494466199       -0.3012804692
 O          2.3312489256       -2.1436752601        2.0845671091
 O         -4.5481769662        0.5433874832        0.8679701772
 O         -2.5109111530       -2.7506995158       -1.4846809594
 N         -0.1055613683        1.0874313821       -0.2161818561
 N         -1.2315041111       -0.9544321457       -0.9683218002
 N         -1.8358912859        2.0623439829        0.8022697381
 N         -3.4531084525       -1.0583213728       -0.2985441973
 C          1.2416922262        0.9164103653       -0.7441986208
 C          2.3166329373        1.3631232509        0.2763291218
 C          3.2367004388        0.1160735920        0.4143967632
 C          2.3297135350       -1.0193208397       -0.0854435160
 C          1.5116503447       -1.6366481478        1.0667098735
 C         -1.1620818557        0.2482072237       -0.3425282765
 C         -0.5871160101        2.1741444114        0.4781409610
 C         -2.2373898959        0.8509321824        0.3037930250
 C         -3.5066917265        0.1777453648        0.3530710069
 C         -2.4062338551       -1.6601851932       -0.9536456169
 H          1.3297784838        1.5189923851       -1.6594024065
 H          1.8441745717        1.5799953667        1.2437804357
 H          3.5309696106       -0.0602748518        1.4513817049
 H          2.9062992053       -1.7922823986       -0.6005771038
 H          0.8986876883       -0.8622740402        1.5369127992
 H          0.8443879625       -2.4085641669        0.6644597997
 H          0.0186653042        3.0275738515        0.7011015490
 H          3.7656464777        2.6705791475        0.2872363597
 H          4.2399452422        0.4654519921       -1.2273467666
 H         -0.4194193279       -1.3329837669       -1.4462586247
 H          2.7930894365       -2.9363905275        1.7759315989
 H         -4.3197806986       -1.5886146066       -0.2949094032
  32
        -63.73817426
 O          1.9154835895       -0.0381196678        1.3254220666
 O          1.9009919875       -0.9935784967       -2.0962854778
 O          3.9771984443       -1.3923342377       -0.5237789314
 O          2.7907452297        2.5972451255        0.1044983793
 O         -4.5628781547        1.2785334369        0.0478343744
 O         -3.3933089982       -3.0951229451       -0.1312718306
 N         -0.0800289534        0.2377534843        0.1589402532
 N         -1.6889074835       -1.6118624090        0.0105482076
 N         -1.5320249627        1.9311804438        0.1950575260
 N         -3.8959895981       -0.8828081210       -0.0366636786
 C          1.1983947272       -0.4293334569        0.1870409052
 C          2.0693124481       -0.0927706764       -1.0533540984
 C          3.4887644856       -0.0769824820       -0.4534912126
 C          3.2384091313        0.3905085566        0.9895691599
 C          3.4113022283        1.9034772833        1.1674763771
 C         -1.3184205273       -0.3065459154        0.0914247767
 C         -0.2814719787        1.5967378464        0.2197699633
 C         -2.2241244387        0.7507770749        0.1105424828
 C         -3.6348912961        0.4891721324        0.0432364530
 C         -3.0206237984       -1.9381150478       -0.0582910354
 H          1.0114543874       -1.5119079155        0.2248423894
 H          1.8030423048        0.9033476748       -1.4171804854
 H          4.1340664757        0.6215029579       -0.9919151169
 H          3.9066220098       -0.1176572597        1.6922839685
 H          2.9608138675        2.1830595461        2.1273227766
 H          4.4848306173        2.1194304127        1.1942008934
 H          0.5368880078        2.2845077636        0.2800143539
 H          2.5207494120       -1.7333927128       -1.9605863150
 H          4.9301438588       -1.4100635968       -0.3641386958
 H         -1.0225133204       -2.3740825630       -0.0137245880
 H          3.0304489043        3.5333222375        0.1562314706
 H         -4.8783296600       -1.1368664515       -0.0904415869
  32
        -63.73813540
 O          1.9825296730        1.4011244331        0.2305981078
 O          1.7927338704       -2.1211858413        0.6286342530
 O          3.9842009022       -0.7645787350        1.1652334756
 O          2.6520722263        0.6181311752       -2.5903387871
 O         -4.5875827925        0.3041968029       -1.1046932132
 O         -3.2343887717       -1.3171237774        2.9035243725
 N         -0.0865035253        0.4010954156       -0.1462710180
 N         -1.6039565176       -0.5225382714        1.5479664028
 N         -1.6011147426        0.9062417168       -1.7037736729
 N         -3.8307093510       -0.4738504020        0.8815256646
 C          1.2136084323        0.2572399922        0.4654802621
 C          1.9933934451       -0.9588859816       -0.1042118238
 C          3.4456801328       -0.4449246386       -0.0922968551
 C          3.2694267173        1.0683962480       -0.3004715062
 C          3.4032990075        1.4874254901       -1.7689370979
 C         -1.2936255079        0.0438956755        0.3517905642
 C         -0.3429869805        0.9093732302       -1.3965622999
 C         -2.2394846342        0.3630310420       -0.6190999878
 C         -3.6307084028        0.0983754496       -0.3791334007
 C         -2.9135336302       -0.8066166920        1.8456345535
 H          1.0620987543        0.1307350568        1.5476129311
 H          1.6661352110       -1.1374790055       -1.1329021629
 H          4.0250916030       -0.8924671953       -0.9035292750
 H          3.9960640423        1.6362205029        0.2895326664
 H          3.0408521220        2.5185349994       -1.8595125323
 H          4.4651432550        1.4520223407       -2.0369237441
 H          0.4430577597        1.2591973144       -2.0317709348
 H          2.4656358403       -2.1519086982        1.3332924477
 H          4.9464467465       -0.6740376353        1.1564619556
 H         -0.9025703149       -0.7936921633        2.2260194166
 H          2.8397356109        0.8160173439       -3.5186691141
 H         -4.7961176888       -0.6897244443        1.1130948226
  32
        -63.73801812
 O          1.6274440289       -0.3949681333       -0.9608532286
 O          2.9093128580        2.6435781066        0.1330210883
 O          4.4405645483        0.5245474142       -0.3641170984
 O          1.0147083430       -2.6863876965        0.6244392087
 O         -4.5364614108        0.6484908572        0.6840124618
 O         -2.3312958103       -2.9597825421       -0.9344552185
 N         -0.0453349770        1.0939674744       -0.2180335882
 N         -1.0913420249       -1.0823830799       -0.6523813940
 N         -1.8434157008        2.1821745705        0.5321088399
 N         -3.3615391340       -1.0991288936       -0.1476100545
 C          1.3302028989        0.9368001377       -0.6648359940
 C          2.3314697544        1.4159560691        0.4291349118
 C          3.3563266640        0.2520202444        0.4777494608
 C          2.5139471796       -0.9409733521        0.0206579899
 C          1.7614952473       -1.6214405268        1.1702254431
 C         -1.0754321115        0.2138058797       -0.2516809428
 C         -0.5802423096        2.2682541713        0.2611316641
 C         -2.1964520166        0.8952882870        0.2202479582
 C         -3.4619863957        0.2205152434        0.2975170074
 C         -2.2614549090       -1.7911909123       -0.6004249380
 H          1.4482498604        1.5372662713       -1.5786387594
 H          1.8046428129        1.5066073228        1.3852846582
 H          3.7717817577        0.1220868822        1.4774545350
 H          3.1024884411       -1.7003456834       -0.5010905365
 H          2.5005570167       -1.9814092262        1.8919516083
 H          1.0958080523       -0.9020226445        1.6673843100
 H          0.0123889794        3.1512756575        0.3845375708
 H          3.8130534250        2.4840105979       -0.2016900322
 H          4.1963117184        0.3646560095       -1.2885981142
 H         -0.2320556308       -1.5699719593       -0.8998719287
 H          0.7735818173       -3.3115601339        1.3196553268
 H         -4.2243156505       -1.6346396651       -0.1228641713
  32
        -63.73797516
 O          1.6029828364       -0.4732659054       -1.1077914617
 O          3.5268857277        1.7733351699       -1.1783960341
 O          4.1280150883        0.5024405447        1.1330111082
 O          0.5571840600       -1.1359468002        1.5945198321
 O         -4.2969551446        0.3519608312        1.1479608299
 O         -2.3559976458       -2.8654262679       -1.3830417995
 N         -0.0036523300        1.0726623250       -0.3635802153
 N         -1.1241309229       -0.9976418099       -1.0258340417
 N         -1.6531751016        1.9682631468        0.8455768687
 N         -3.2630367979       -1.1930163755       -0.1433115367
 C          1.2676367073        0.8854484548       -1.0515220117
 C          2.4458677939        1.5456389314       -0.3208619495
 C          2.7919488131        0.4736751471        0.7386104529
 C          2.3853224702       -0.8453394462        0.0360692503
 C          1.6360298767       -1.8021434261        0.9664839908
 C         -1.0375649862        0.1963398402       -0.3888550941
 C         -0.4460988967        2.1254182720        0.4052323997
 C         -2.0643282943        0.7521898148        0.3659568981
 C         -3.2968679123        0.0331428398        0.5282260918
 C         -2.2520751491       -1.7600474774       -0.8808410394
 H          1.1658638769        1.2447257788       -2.0840094761
 H          2.2058975738        2.5099024982        0.1227865349
 H          2.1693258215        0.6120440239        1.6286482721
 H          3.2714586147       -1.3706062414       -0.3361260731
 H          1.2667525494       -2.6525904417        0.3788265282
 H          2.3594390859       -2.1596775410        1.7057909342
 H          0.1419781224        2.9962338902        0.6016507825
 H          3.6696569112        1.0061878171       -1.7550518974
 H          4.6415294254        0.9831667267        0.4584759554
 H         -0.3179955886       -1.3815634727       -1.5094907839
 H          0.2850290516       -1.6440913881        2.3693609141
 H         -4.1013103112       -1.7600974901       -0.0546330025
  32
        -63.73791456
 O          1.3620771111       -0.8248731761       -0.4657890209
 O          2.5790468282        2.4873905390        0.1780682575
 O          4.1499516464        0.7406833326       -1.0375306391
 O          2.5952148952       -1.7083454548        2.0888933859
 O         -4.6778154341        0.8739279077        0.6967483923
 O         -2.8557291730       -2.6716168287       -1.4568317265
 N         -0.1358570985        0.8982296217       -0.0570694921
 N         -1.4192937815       -1.0234034912       -0.8581450502
 N         -1.8060933695        2.0736528210        0.8363133816
 N         -3.6860634814       -0.8518880303       -0.3817707523
 C          1.1906512771        0.5688676070       -0.5109227967
 C          2.3025529603        1.1470707926        0.3958240797
 C          3.4683575678        0.1918725516        0.0622366058
 C          2.7533147583       -1.1308747807       -0.2853173827
 C          2.9078215812       -2.1976223514        0.8072803666
 C         -1.2677980055        0.1793613855       -0.2486667935
 C         -0.5326819225        2.0384839297        0.6033084477
 C         -2.3092368653        0.9098551710        0.3140654439
 C         -3.6474736403        0.3877238678        0.2654354242
 C         -2.6657107767       -1.5889152354       -0.9330702770
 H          1.3254067274        0.9441324793       -1.5410369824
 H          2.0053133225        1.0281096778        1.4423642657
 H          4.1256481803        0.0630721251        0.9251361548
 H          3.1384902578       -1.5249037638       -1.2336124585
 H          2.2879958094       -3.0611626494        0.5488397215
 H          3.9527380979       -2.5110126631        0.8483673767
 H          0.1597050429        2.8094961074        0.8718806108
 H          3.2113277598        2.5543450459       -0.5600433183
 H          5.0536775302        0.4022636341       -1.0855145402
 H         -0.6157472284       -1.5302259719       -1.2143971515
 H          1.6358769987       -1.6569799629        2.1880748041
 H         -4.6062319487       -1.2775204527       -0.4475214407
  32
        -63.73776457
 O          2.0273635772        0.9922736756       -0.7509212060
 O          1.1717008498       -1.5814752738        1.5065611752
 O          3.7100577687       -1.5280796204        0.9532566868
 O          4.6634482105        1.7990000527       -1.8841745884
 O         -4.8213028215        0.7211319903       -0.7379338217
 O         -2.9920016663       -1.7741035606        2.5699879529
 N         -0.2354747237        0.6879916186       -0.3393137313
 N         -1.5303704787       -0.6409991490        1.2588561656
 N         -1.9201083916        1.5115339501       -1.5423792044
 N         -3.8230209500       -0.4800516011        0.9011762686
 C          1.1003680910        0.4444925529        0.1386640952
 C          1.4315971266       -1.0712699856        0.2375227462
 C          2.9417824356       -1.1210665434       -0.1441879797
 C          3.2733867329        0.3436741012       -0.5068550505
 C          4.1670078315        0.4951799051       -1.7384375441
 C         -1.3782536355        0.1942211635        0.1985200027
 C         -0.6340864775        1.4765450951       -1.3909623931
 C         -2.4291613894        0.7127916781       -0.5511996400
 C         -3.7823337193        0.3713342830       -0.2062088377
 C         -2.7930350507       -1.0168942801        1.6378778681
 H          1.2064385181        0.8956525947        1.1427692023
 H          0.8242718027       -1.6224331032       -0.4874287642
 H          3.0942251743       -1.7640331871       -1.0128328503
 H          3.7660970433        0.8063318240        0.3610896476
 H          5.0440229672       -0.1442863004       -1.6237395650
 H          3.6007104960        0.1871905396       -2.6262797529
 H          0.0704692681        1.9970440269       -2.0033630616
 H          2.0151746537       -1.5996735536        2.0030555226
 H          4.0043770785       -2.4439770285        0.8534276927
 H         -0.7288739281       -1.0622746236        1.7304331764
 H          3.9231748215        2.4118330093       -1.9943524154
 H         -4.7529892527       -0.7604102408        1.1988550511
  32
        -63.73773947
 O          2.1275237660        1.2398742514       -0.7705611785
 O          1.3773646330       -0.7891284644        2.0280112053
 O          3.8259316772       -0.0824523175        1.3364073840
 O          3.9567184912       -1.2171120857       -2.7810400547
 O         -4.6830055947        0.2848698078       -0.9111267904
 O         -2.8186566356       -1.1399887131        2.9622242892
 N         -0.1394547280        0.8023643651       -0.3820273989
 N         -1.3936527888       -0.2249649020        1.4548452626
 N         -1.8268705071        1.1477195991       -1.7957082198
 N         -3.6698839244       -0.3806676944        1.0009881241
 C          1.1989970495        0.8251426119        0.1823986805
 C          1.6176422489       -0.5881082549        0.6740862064
 C          3.1034815119       -0.6396542807        0.2705436853
 C          3.1170386792        0.2313775255       -0.9953879253
 C          2.8226334100       -0.5513651289       -2.2909403042
 C         -1.2599455220        0.3422557496        0.2269840950
 C         -0.5524337103        1.2791214601       -1.6013842570
 C         -2.3128801826        0.5594737651       -0.6567702994
 C         -3.6464228886        0.1785285260       -0.2793758640
 C         -2.6370536098       -0.6170837494        1.8779944901
 H          1.2020082432        1.5368367886        1.0231683348
 H          1.0471322913       -1.3431451479        0.1232931186
 H          3.4269704244       -1.6661726867        0.0698578891
 H          4.0683966175        0.7574122468       -1.1210940377
 H          1.9834816710       -1.2410921488       -2.1430612941
 H          2.5429730094        0.1729855924       -3.0593966167
 H          0.1340540697        1.7140237185       -2.2966716479
 H          2.1438308397       -0.4591352682        2.5307523102
 H          4.7773741738       -0.1535648501        1.1810355804
 H         -0.5856777418       -0.4319866979        2.0441201245
 H          4.1490959459       -2.0015215737       -2.2491837326
 H         -4.5857087970       -0.6711233423        1.3308409973
  32
        -63.73764413
 O          2.2105943064        1.1964046440       -0.6896497068
 O          1.5189305842       -0.7527963110        2.1483464803
 O          3.9494142201       -0.1272331755        1.3102832677
 O          2.7799939243        0.1612750017       -3.3406951368
 O         -4.5734262144        0.0436140024       -0.9421687022
 O         -2.7638207864       -1.0981986707        3.0493171396
 N         -0.0585547313        0.7099935545       -0.3467150619
 N         -1.3272659318       -0.2356835411        1.5213780246
 N         -1.7168440732        0.9239760201       -1.8177395993
 N         -3.5871596768       -0.4788180221        1.0277917370
 C          1.2683039860        0.7797876643        0.2442025594
 C          1.7017359653       -0.6170301534        0.7774931101
 C          3.1656807410       -0.7048095271        0.3017898580
 C          3.1211733990        0.1370223707       -0.9846251278
 C          2.6874303337       -0.6745455474       -2.2125314345
 C         -1.1811802125        0.2615397902        0.2644986535
 C         -0.4502637048        1.0988073391       -1.6031459101
 C         -2.2174249609        0.3974761188       -0.6544761574
 C         -3.5489361881        0.0044608853       -0.2833090239
 C         -2.5700495011       -0.6352838768        1.9402292273
 H          1.2345389629        1.5133219965        1.0634277294
 H          1.1029376298       -1.3935130255        0.2902268615
 H          3.4653041783       -1.7395080084        0.1073758701
 H          4.0712882426        0.6269336344       -1.2112362860
 H          3.3573676752       -1.5377558704       -2.3116206416
 H          1.6580842154       -1.0317342615       -2.0774458019
 H          0.2468115530        1.5036753865       -2.3076452348
 H          2.3128721067       -0.4179337462        2.6025004902
 H          4.8898240500       -0.2102589237        1.1029806472
 H         -0.5304582892       -0.3850538347        2.1396890748
 H          2.5548274612       -0.3383649757       -4.1378794493
 H         -4.5026979253       -0.7742970320        1.3541161713
  32
        -63.73739495
 O          2.2276352697        1.2574381612       -0.5938450795
 O          1.6359664231       -0.7380333427        2.1826866515
 O          4.0859596423       -0.2326107292        1.2088997373
 O          2.4952602235        0.3552714625       -3.2937806516
 O         -4.5346881253       -0.0551861750       -0.9901154120
 O         -2.7784311673       -1.0905066887        3.0546657212
 N         -0.0423573531        0.6932679798       -0.3286518620
 N         -1.3292466539       -0.2363302385        1.5345129588
 N         -1.6755473378        0.8510596913       -1.8333023153
 N         -3.5756079146       -0.5253973435        1.0063493444
 C          1.2671463581        0.7852053186        0.2957778732
 C          1.7314188032       -0.6142265461        0.7999516568
 C          3.1782310518       -0.6990500977        0.2512718275
 C          3.0904524811        0.1902306239       -0.9945071529
 C          2.5720761810       -0.5605006341       -2.2275037407
 C         -1.1688326306        0.2388054711        0.2705695094
 C         -0.4157258114        1.0498023865       -1.6006269697
 C         -2.1897909035        0.3400066860       -0.6691444308
 C         -3.5216550076       -0.0664284878       -0.3134378277
 C         -2.5735892745       -0.6478364485        1.9395893910
 H          1.1849725796        1.4945539018        1.1322084063
 H          1.1088596832       -1.3915400034        0.3430832287
 H          3.4670328029       -1.7259295688        0.0249194791
 H          4.0417212782        0.6614282140       -1.2534287872
 H          3.2777838507       -1.3689241078       -2.4508175496
 H          1.5837170131       -0.9927859965       -2.0207237877
 H          0.2876989601        1.4472030326       -2.3038389096
 H          2.5266327479       -0.6310980130        2.5674032736
 H          4.1073746099        0.7366078314        1.2049400954
 H         -0.5476316488       -0.3563029861        2.1745068127
 H          2.3044320349       -0.1170561045       -4.1155659558
 H         -4.4925484847       -0.8279449073        1.3224700504
  32
        -63.73733698
 O          2.1973638079        1.1560086700       -0.7460103242
 O          1.4643251722       -0.6796546818        2.1596369401
 O          3.9728805115       -0.1512851363        1.3322907592
 O          3.1483915754       -0.1551146359       -3.3950309841
 O         -4.6141630030        0.1066138512       -0.9149444344
 O         -2.7628763589       -1.1030197032        3.0379099637
 N         -0.0858851496        0.7274982962       -0.3712874413
 N         -1.3398711704       -0.2345312873        1.5017664930
 N         -1.7686535036        0.9863622928       -1.8089761903
 N         -3.6075974281       -0.4601941663        1.0326486624
 C          1.2458755781        0.7894973580        0.2072261716
 C          1.6600849056       -0.5928653722        0.7845522599
 C          3.1388198158       -0.6971243334        0.3481112734
 C          3.1324767857        0.0873101410       -0.9669583246
 C          2.7476496369       -0.7584956635       -2.1927189427
 C         -1.2037284489        0.2746486157        0.2490837270
 C         -0.4987843789        1.1489529373       -1.6105798689
 C         -2.2526327524        0.4354278402       -0.6511437638
 C         -3.5827002976        0.0452867833       -0.2695774403
 C         -2.5803027764       -0.6315869812        1.9308783297
 H          1.2230300407        1.5509935914        1.0021412494
 H          1.0712186604       -1.3790312962        0.2990599292
 H          3.4525745690       -1.7338102854        0.2231685140
 H          4.1003518232        0.5569728778       -1.1659953539
 H          3.2747845971       -1.7133464129       -2.1579183835
 H          1.6658038274       -0.9456205139       -2.1915962327
 H          0.1789029990        1.5794351073       -2.3163575783
 H          2.3202398196       -0.5410975163        2.6077002541
 H          3.9933076404        0.8151814538        1.2641740735
 H         -0.5411705872       -0.3845300446        2.1179012467
 H          2.7116978008        0.7023618408       -3.4936317851
 H         -4.5205785461       -0.7553490468        1.3663482435
  32
        -63.73730628
 O          1.6748556356        0.0526133323       -1.3361266906
 O          3.1364282048        2.0956672968        0.6623799946
 O          3.5557374913       -0.3167256343        1.7044526790
 O          1.2591141533       -2.5499558029       -0.8920691559
 O         -4.5863282007        0.6714260337        0.4121688050
 O         -1.8222516692       -2.9081667696        0.6080601214
 N         -0.1423399315        1.3263370954       -0.5970190916
 N         -0.8557840966       -0.9453250970        0.0192817587
 N         -2.1258820981        2.3416147660       -0.4381954002
 N         -3.1298930262       -1.0590230569        0.5250715877
 C          1.2968396339        1.2466059246       -0.7045360414
 C          1.9907056413        1.2909538929        0.6874918672
 C          2.4495763915       -0.1727847518        0.8774143499
 C          2.6925599206       -0.6045810044       -0.5830073209
 C          2.6010237896       -2.1206887286       -0.8020835022
 C         -1.0399551431        0.3776855270       -0.2193697440
 C         -0.8708555729        2.4895627576       -0.7132368834
 C         -2.2742672801        1.0177449034       -0.1194125313
 C         -3.4402516968        0.2776622342        0.2773628685
 C         -1.9264091066       -1.7144662932        0.3944458374
 H          1.6202593024        2.1054571189       -1.3097282427
 H          1.2853289385        1.6032844950        1.4619300785
 H          1.6468518857       -0.7744599971        1.3146780356
 H          3.6797653352       -0.2412301645       -0.8989496108
 H          3.1577607109       -2.4042811881       -1.6967490821
 H          3.0443106515       -2.6157388639        0.0656896884
 H         -0.4263955597        3.4168565495       -1.0091139757
 H          2.9450842348        2.9958460753        0.9575287359
 H          4.1710447130        0.4162735206        1.5283596447
 H          0.0191902997       -1.4505354185       -0.1974836629
 H          0.9754676005       -2.4930062342       -1.8151040017
 H         -3.9092076615       -1.6456766743        0.8082931359
  32
        -63.73725000
 O          1.5748673192       -0.4405647138       -1.1042791731
 O          3.4500605427        1.8691586434       -1.1085531789
 O          4.2156223403        0.4641890267        0.9755082610
 O          0.6353410223       -1.2107713620        1.6040951172
 O         -4.3402173850        0.3672656170        1.0841677116
 O         -2.3256584560       -2.8689927541       -1.3639764521
 N         -0.0202998042        1.0992428333       -0.3457198766
 N         -1.1115060966       -0.9911438318       -0.9983586171
 N         -1.7071513562        2.0031121483        0.8062794895
 N         -3.2659893332       -1.1911748156       -0.1568922681
 C          1.2743740858        0.9182094917       -0.9962048243
 C          2.4337536650        1.5414706682       -0.2062036103
 C          2.8376559453        0.3948635224        0.7455482730
 C          2.3944601150       -0.8770214014       -0.0152484266
 C          1.6515968576       -1.8763801876        0.8785651402
 C         -1.0458131647        0.2139962089       -0.3796862066
 C         -0.4925529209        2.1642132235        0.3864838760
 C         -2.0944513565        0.7728699486        0.3436083519
 C         -3.3242798721        0.0462339449        0.4915088151
 C         -2.2379814523       -1.7575163545       -0.8717344889
 H          1.2320013862        1.3342578879       -2.0108226280
 H          2.1291911770        2.4327844290        0.3531864117
 H          2.2584965841        0.4838513483        1.6706852400
 H          3.2643950009       -1.3754808500       -0.4569934115
 H          1.2194410044       -2.6611966854        0.2454327913
 H          2.3806521062       -2.3299704957        1.5579495498
 H          0.0802638187        3.0482554696        0.5696357785
 H          4.3049088816        1.7299069660       -0.6650496624
 H          4.4558449733       -0.0077946257        1.7831659493
 H         -0.2984071072       -1.3585041562       -1.4838886978
 H          0.3149862811       -1.7963335003        2.3024543165
 H         -4.1029624410       -1.7619347594       -0.0805100028
  32
        -63.73721804
 O          1.6068741766       -0.3337972040       -1.0460169039
 O          3.5131850966        1.9489798723       -0.7914656554
 O          3.9701522413        0.5819036080        1.4429225649
 O          1.1933329864       -2.8415104889       -0.0286338698
 O         -4.4565432473        0.6376193809        0.8836160440
 O         -2.2340913964       -2.9967556263       -0.6501751242
 N         -0.0692325405        1.1850323176       -0.4044530546
 N         -1.0527670898       -1.0624295064       -0.5896022749
 N         -1.8669774357        2.2543191109        0.3819753282
 N         -3.2767085122       -1.1274698656        0.0964508868
 C          1.2736212600        1.0133435990       -0.9568017943
 C          2.3534978703        1.6643059211       -0.0629138146
 C          2.6893234216        0.5108218450        0.9122765857
 C          2.4335782056       -0.7445446406        0.0496180361
 C          1.7508317365       -1.8772578846        0.8290859870
 C         -1.0582610238        0.2602620806       -0.2857598961
 C         -0.6340845761        2.3723184241        0.0066880431
 C         -2.1744557753        0.9312440024        0.2116166898
 C         -3.3992940394        0.2171606689        0.4448561647
 C         -2.1851578799       -1.8078888419       -0.3962026999
 H          1.2817739115        1.4249778194       -1.9747405912
 H          1.9790341247        2.5395945460        0.4716412042
 H          1.9957358334        0.5281595802        1.7594256021
 H          3.3767134819       -1.1011623400       -0.3806763734
 H          2.4748407224       -2.3156964380        1.5238626172
 H          0.9118571350       -1.4798401111        1.4074208763
 H         -0.1064210072        3.3024137800       -0.0014107564
 H          3.4584629178        2.8157242185       -1.2165623719
 H          4.5743105298        0.9016555929        0.7498325144
 H         -0.2002620957       -1.5535431886       -0.8660842100
 H          1.8944491398       -3.3190192209       -0.4941750255
 H         -4.1089881376       -1.6936312758        0.2324108830
  32
        -63.73710135
 O          2.1548744354        1.2981277744       -0.6885241817
 O          1.4653001990       -0.7054817306        2.0978019254
 O          3.9595365041       -0.1706152812        1.2561411790
 O          3.7423050812       -1.1809617387       -2.8739094999
 O         -4.6476169539        0.1701800381       -0.9532179452
 O         -2.8122557510       -1.0910176345        2.9908439500
 N         -0.1251255935        0.8027385582       -0.3741555433
 N         -1.3845509303       -0.1935939729        1.4756633783
 N         -1.7971669221        1.0713250831       -1.8208546883
 N         -3.6490550999       -0.4170873272        0.9921365461
 C          1.1977638059        0.8566239837        0.2245768043
 C          1.6295386020       -0.5514370580        0.7248089912
 C          3.1006624887       -0.6321525158        0.2507470745
 C          3.0763729651        0.2476753734       -1.0037887431
 C          2.6642135725       -0.5057096876       -2.2838435712
 C         -1.2448172303        0.3360502533        0.2314819218
 C         -0.5289106246        1.2362031987       -1.6123236200
 C         -2.2881238144        0.5043797270       -0.6733571762
 C         -3.6189713749        0.1050862153       -0.3039808385
 C         -2.6262336076       -0.6008436526        1.8925414738
 H          1.1500887478        1.5684851064        1.0628419817
 H          1.0253792831       -1.3129610097        0.2190979287
 H          3.3990158780       -1.6615803523        0.0476374619
 H          4.0424810006        0.7263457339       -1.1908146150
 H          1.8274604088       -1.1858251940       -2.0822350731
 H          2.3396013285        0.2338104332       -3.0195539526
 H          0.1562101618        1.6694310548       -2.3099149964
 H          2.3329462010       -0.5937473230        2.5310528358
 H          3.9902315007        0.7976964413        1.2566943717
 H         -0.5887058371       -0.3564998520        2.0908218478
 H          4.0212820066       -1.9263936825       -2.3242576751
 H         -4.5632646012       -0.7185719903        1.3168020068
  32
        -63.73706648
 O          1.3458287709       -0.3197974014       -1.1327864450
 O          3.1505458601        2.1837621662       -0.1843506158
 O          3.8912333566        0.1427053980        1.3368504305
 O          3.4464406597       -2.6849528522        0.6233266523
 O         -4.6723669677        0.8590735406        0.7108130616
 O         -2.4269089524       -2.9042635139       -0.4432412056
 N         -0.2385690962        1.2603734433       -0.4666472973
 N         -1.2434186777       -0.9745406951       -0.5058505353
 N         -2.0342800894        2.4163932445        0.1848742493
 N         -3.4745904409       -0.9739839599        0.1377349913
 C          1.1482539458        1.0373395038       -0.8238000060
 C          2.1100317311        1.4092945311        0.3318005753
 C          2.5963618332        0.0343429706        0.8315551133
 C          2.4857622285       -0.8186583260       -0.4427467480
 C          2.3292351987       -2.3085901560       -0.1481069225
 C         -1.2456254313        0.3685483105       -0.3104990467
 C         -0.7865069113        2.4847129148       -0.1533310661
 C         -2.3646833631        1.0894617629        0.0987417847
 C         -3.6020084144        0.4024189173        0.3516115321
 C         -2.3866629279       -1.6977042579       -0.2851575558
 H          1.3876530973        1.6663755884       -1.6941664085
 H          1.5777521223        1.9601175827        1.1193859752
 H          1.9005703287       -0.3469610206        1.5937208992
 H          3.3871931020       -0.6577151956       -1.0505667112
 H          1.3963379625       -2.4750225642        0.4082733634
 H          2.2864011366       -2.8617605528       -1.0924387238
 H         -0.2181734117        3.3904703922       -0.1973363712
 H          3.9419916313        2.0297561522        0.3603211374
 H          4.2418670840       -0.7491787918        1.4885342622
 H         -0.4151800081       -1.4288367843       -0.8778339873
 H          3.4350708660       -3.6407457570        0.7699845119
 H         -4.3168327759       -1.5182293198        0.3017921846
  32
        -63.73691323
 O          1.6263961471       -0.3302061929       -1.0097691783
 O          2.8448190054        2.6305663418        0.1785417439
 O          4.5173053551        0.5497733019       -0.0690279257
 O          1.1113283662       -2.7937528148        0.1970691676
 O         -4.5722956340        0.7050864827        0.5906459784
 O         -2.2957856159       -3.0065343783       -0.6479502658
 N         -0.0653894950        1.1228109449       -0.2385716176
 N         -1.0797746150       -1.0990851912       -0.5085021057
 N         -1.8927714996        2.2432014969        0.3846258670
 N         -3.3646971820       -1.0957297276       -0.0611491197
 C          1.3267333532        0.9767063524       -0.6382900840
 C          2.2841019648        1.3955663747        0.5025606476
 C          3.3142088229        0.2318926622        0.5610039698
 C          2.5513404412       -0.9292907200       -0.0990488085
 C          1.8363135297       -1.8228525291        0.9211761810
 C         -1.0832858805        0.2276654308       -0.2237173291
 C         -0.6255345278        2.3236803586        0.1345247908
 C         -2.2230156879        0.9315765832        0.1673690894
 C         -3.4853685067        0.2549658105        0.2687157743
 C         -2.2462174095       -1.8106183972       -0.4231724981
 H          1.4823719551        1.6410090420       -1.5019130918
 H          1.7253504084        1.4482501030        1.4481267065
 H          3.5842885688       -0.0110486836        1.5904706949
 H          3.2075333813       -1.5562464586       -0.7091630679
 H          2.5930603453       -2.2866892216        1.5601761019
 H          1.1581845543       -1.2202697350        1.5420976862
 H         -0.0450715029        3.2207213639        0.2009031629
 H          3.5564109021        2.8474595507        0.7998907103
 H          4.3588780125        0.8404644222       -0.9797654457
 H         -0.2187584431       -1.6130216311       -0.7147135890
 H          0.8423139020       -3.5152262898        0.7805993040
 H         -4.2232658933       -1.6362659837       -0.0139357895
  32
        -63.73688816
 O          1.2586528643       -0.5472831056       -0.8572314616
 O          2.6480847880        2.3846051926        0.4456757279
 O          4.2823412065        0.4057015404        0.6976780103
 O          4.0615825689       -2.6111722639        0.1045826829
 O         -4.7960991162        1.0741385736        0.4858792890
 O         -2.6999583070       -2.8858767212       -0.1862360890
 N         -0.2766839107        1.1415029598       -0.3873262427
 N         -1.3980032157       -1.0351664007       -0.3011754047
 N         -2.0392493554        2.4413503083        0.0394303866
 N         -3.6693949515       -0.8602044672        0.1513281462
 C          1.1098396666        0.8256769964       -0.6076588197
 C          2.0020405934        1.1654129419        0.6260075098
 C          2.9619022876       -0.0482836467        0.7112638316
 C          2.5987899803       -0.8844800908       -0.5367645245
 C          2.7323667186       -2.3856916381       -0.3029339523
 C         -1.3392083676        0.3184985654       -0.2246627429
 C         -0.7694321346        2.4151910556       -0.2106606158
 C         -2.4401301464        1.1306082554        0.0369514273
 C         -3.7306383289        0.5337145238        0.2479737377
 C         -2.5967930455       -1.6744384907       -0.1194393918
 H          1.4709083214        1.4255125102       -1.4601006010
 H          1.3693445983        1.2273858453        1.5212962433
 H          2.7558398619       -0.6262860372        1.6203752683
 H          3.2666713155       -0.5800284643       -1.3561396029
 H          2.0231192189       -2.6935639605        0.4762491572
 H          2.4982349456       -2.9183288449       -1.2309197465
 H         -0.1373628661        3.2770004443       -0.2701870475
 H          3.6100295706        2.2315757923        0.4923489548
 H          4.8798717899       -0.3556368998        0.7382196417
 H         -0.5685013544       -1.5687577821       -0.5391742029
 H          4.2141549268       -3.5607039599        0.2065758458
 H         -4.5529369427       -1.3432778004        0.2873394618
  32
        -63.73688581
 O          2.0199550380        1.0153889848       -0.9731392124
 O          1.3022927923       -0.9247777476        1.8605805807
 O          3.8766562461       -1.0101180922        1.2405900337
 O          3.6438219853       -0.6489768020       -2.7513572726
 O         -4.7954911352        0.5045967835       -0.7606025360
 O         -2.8291495158       -1.3407994795        2.8797688103
 N         -0.2114969461        0.7494472672       -0.4211783073
 N         -1.4339084625       -0.3617122455        1.3864623975
 N         -1.9420705767        1.3008492149       -1.7125425571
 N         -3.7317619570       -0.3839377332        1.0298674812
 C          1.1435457636        0.6604142251        0.0570243248
 C          1.5490556152       -0.7657065482        0.4925500785
 C          3.0621241584       -0.8206526795        0.1266979521
 C          3.3076751626        0.5080346700       -0.6260782218
 C          4.1490499574        0.3423646688       -1.8952429167
 C         -1.3264777140        0.2968262887        0.2041624701
 C         -0.6555639934        1.3511995327       -1.5743820324
 C         -2.4053431944        0.6400918000       -0.6042858787
 C         -3.7382520554        0.2903651385       -0.1942441608
 C         -2.6737149899       -0.7356212075        1.8350082744
 H          1.2608070458        1.3362378369        0.9251786253
 H          0.9863820420       -1.5013856409       -0.0979018329
 H          3.2673230518       -1.6630656573       -0.5389069507
 H          3.8093972143        1.2222898047        0.0425881607
 H          4.2150331963        1.3096765236       -2.4041326723
 H          5.1497563096        0.0158211946       -1.6062819842
 H          0.0195817972        1.8107930168       -2.2641836475
 H          1.8278967360       -1.6694591274        2.1975164351
 H          3.7948683915       -0.2639466169        1.8550415854
 H         -0.6081498722       -0.6125072379        1.9345897067
 H          2.8084810178       -0.3426986647       -3.1299953048
 H         -4.6453072830       -0.6606745373        1.3779506423
  32
        -63.73679264
 O          1.4485292121       -0.5192216150       -0.9332500320
 O          2.8061713505        2.5662808000        0.0993225270
 O          4.2438684245        0.4935640101       -0.6882669750
 O          2.6919380612       -2.6011004957        1.8190428241
 O         -4.5992011516        0.6893095912        0.7998453059
 O         -2.6219502537       -2.7304060778       -1.4185576306
 N         -0.1204559248        1.0618516055       -0.2009343242
 N         -1.2904428505       -0.9676770694       -0.9125824933
 N         -1.8350018763        2.1170728297        0.7608458346
 N         -3.5310877866       -0.9751064994       -0.3013760404
 C          1.2310409313        0.8406460957       -0.6887141021
 C          2.2830230229        1.3099178390        0.3573020031
 C          3.3190145614        0.1648582371        0.3136620012
 C          2.4448143906       -1.0429938732       -0.0517618852
 C          1.8014040173       -1.7345201038        1.1673283834
 C         -1.1983948111        0.2513565041       -0.3227403274
 C         -0.5770475338        2.1802435903        0.4585474078
 C         -2.2662011271        0.9062342599        0.2849903159
 C         -3.5580206402        0.2774157741        0.3196747354
 C         -2.4894031756       -1.6311048704       -0.9122154295
 H          1.3549672758        1.3964599753       -1.6297724780
 H          1.8097521650        1.3553191044        1.3431439249
 H          3.8128582845        0.0427853360        1.2825009811
 H          2.9975272337       -1.7930294511       -0.6251821821
 H          1.3869680084       -0.9896504738        1.8571044207
 H          0.9835912291       -2.3639829537        0.8067862027
 H          0.0600771522        3.0123443572        0.6771478612
 H          3.5320475553        2.4750512572       -0.5432313054
 H          4.9869256713       -0.1247569971       -0.6866337737
 H         -0.4765867673       -1.3904249655       -1.3485342845
 H          3.3368495394       -2.1022314609        2.3392506564
 H         -4.4162288654       -1.4736636669       -0.3098393211
  32
        -63.73675513
 O          1.8935629230       -0.5844182019        1.1600568607
 O          1.9219198332       -0.1518724617       -2.3170714333
 O          4.0637321361       -1.0770921485       -0.9902193746
 O          2.8129803384        2.2926248134        1.1676165086
 O         -4.5534255035        1.1941753339        0.5591709134
 O         -3.4221109665       -2.8152138100       -1.2229606239
 N         -0.0773227220        0.1845948057        0.1872963539
 N         -1.7030884341       -1.4812451831       -0.5966619447
 N         -1.5157143366        1.7439676241        0.8778944195
 N         -3.9053294271       -0.7881357994       -0.3211772172
 C          1.1956714771       -0.4531156573       -0.0466911794
 C          2.0865626415        0.3466513680       -1.0213403909
 C          3.5003248845        0.0891047621       -0.4540714657
 C          3.2300188048       -0.0855347162        1.0461751756
 C          3.4172451927        1.2083955347        1.8442829580
 C         -1.3217696304       -0.2983868308       -0.0471133872
 C         -0.2676800005        1.4239353387        0.7548743808
 C         -2.2182590141        0.6784863048        0.3770154096
 C         -3.6325439341        0.4602506775        0.2478900143
 C         -3.0390426024       -1.7635811605       -0.7439837738
 H          1.0013558256       -1.4468740219       -0.4755615000
 H          1.8462669069        1.4097132101       -0.9403501235
 H          4.1680317828        0.9401440182       -0.6338974849
 H          3.8892440217       -0.8552259206        1.4587960722
 H          2.9591552412        1.0647884243        2.8299051512
 H          4.4924982710        1.3769547693        1.9624123251
 H          0.5571875394        2.0361304307        1.0580769748
 H          2.1168865825        0.5337368662       -2.9713847095
 H          3.6315953407       -1.2603769281       -1.8440506739
 H         -1.0422995950       -2.1876386786       -0.8973798130
 H          3.0632296790        3.1168919855        1.6093418126
 H         -4.8904938437       -1.0076911999       -0.4374504449
  32
        -63.73672182
 O          1.6407050906       -0.4363580821       -0.9710719422
 O          3.5238059566        1.8196849879       -1.1678117908
 O          4.1095726535        0.7055638567        1.2014495552
 O          0.8703149270       -2.6294245795        0.6548313500
 O         -4.3432822729        0.5034779824        1.0710784124
 O         -2.3188911388       -2.9177330670       -1.0998414914
 N         -0.0161754200        1.1247145279       -0.3862529496
 N         -1.0944198351       -1.0242343019       -0.8647360427
 N         -1.7182950546        2.1163228834        0.6653459151
 N         -3.2661545433       -1.1469304521       -0.0437581045
 C          1.2767334788        0.9107653413       -1.0286533385
 C          2.4268368994        1.6458194623       -0.3206245696
 C          2.7674066166        0.6655264864        0.8315751664
 C          2.3307815969       -0.7064894521        0.2579190439
 C          1.4405664860       -1.4859585739        1.2376233430
 C         -1.0407821622        0.2312741271       -0.3551558910
 C         -0.5013983361        2.2489664479        0.2451810150
 C         -2.0967976091        0.8491874750        0.3065446089
 C         -3.3278209570        0.1338333750        0.5075565550
 C         -2.2265775414       -1.7762559497       -0.6905181326
 H          1.1959794590        1.1890210583       -2.0870855241
 H          2.1648231249        2.6379457827        0.0414915152
 H          2.1677618648        0.9021467534        1.7178897877
 H          3.2055165586       -1.3117205143       -0.0015467500
 H          2.0376251239       -1.7326678759        2.1227448511
 H          0.5982877825       -0.8635987595        1.5535138275
 H          0.0670106564        3.1466111150        0.3621541826
 H          3.6838206698        1.0129691009       -1.6832985064
 H          4.6117963379        1.1674238347        0.5043251690
 H         -0.2573490651       -1.4787283102       -1.2206532339
 H          1.5534119298       -3.2960724374        0.4954215682
 H         -4.1037709600       -1.7103688532        0.0696444548
  32
        -63.73660547
 O          1.9545960810        0.7451677363        1.1236090963
 O          2.4107452671       -2.2825714644        0.1282519640
 O          4.2545369122       -0.8038387129       -1.0242127228
 O          2.6752553757        2.6959787469       -0.9729429121
 O         -4.5072317277        0.9652092289       -0.9657515234
 O         -3.5280578875       -2.6598604601        1.5691619989
 N         -0.1016497704        0.2452802171        0.1588241055
 N         -1.7725185918       -1.3625079328        0.9658149198
 N         -1.4698570710        1.6139571684       -0.9487383844
 N         -3.9340395565       -0.8202782652        0.3020774440
 C          1.1395169693       -0.2971150958        0.6751955134
 C          1.9133623366       -1.0917082583       -0.4043106956
 C          3.0514247333       -0.1216089908       -0.8120439895
 C          3.1895896304        0.7975331134        0.4133408925
 C          3.5340147217        2.2418769581        0.0512760569
 C         -1.3538867760       -0.2516678967        0.3028806198
 C         -0.2419486367        1.3751505228       -0.6137099388
 C         -2.2074006095        0.6032612280       -0.3885213584
 C         -3.6191422219        0.3368011747       -0.4181862925
 C         -3.1091529119       -1.6778477283        0.9842827435
 H          0.8971944612       -0.9572720361        1.5187641043
 H          1.2489793978       -1.3256148225       -1.2463184013
 H          2.7464209206        0.4735434609       -1.6764820954
 H          3.9828168045        0.4032422675        1.0632423253
 H          3.4192972116        2.8491810035        0.9552035545
 H          4.5784896750        2.2669260329       -0.2810562063
 H          0.5976615704        1.9845410603       -0.8820282432
 H          3.3818566811       -2.2796331382        0.0166404173
 H          4.3555313642       -1.0331156188       -1.9589269996
 H         -1.1384810907       -1.9868957139        1.4495468280
 H          2.8800879531        3.6204159993       -1.1704633339
 H         -4.9198385129       -1.0657030997        0.3218599296
  32
        -63.73660049
 O          1.4467682309       -0.7180869131       -0.4691219916
 O          2.6141692911        2.6459791256       -0.0644447523
 O          4.0969711414        0.6605549786       -1.0937836429
 O          2.3052107883       -3.0224090726        1.3965095905
 O         -4.6360390068        0.8249675111        0.7498585170
 O         -2.7499186585       -2.6611799276       -1.4461789500
 N         -0.1069310142        0.9733455787       -0.0681268593
 N         -1.3494792329       -0.9795939141       -0.8551055853
 N         -1.7977357521        2.1060624287        0.8433738246
 N         -3.6124428853       -0.8728855714       -0.3436284172
 C          1.2232691023        0.6676451225       -0.5448499260
 C          2.3225677946        1.3441827776        0.3079620032
 C          3.4813997789        0.3450443781        0.1279138341
 C          2.7392720844       -0.9993611807        0.0933700644
 C          2.6021790443       -1.6528935687        1.4784752764
 C         -1.2219479244        0.2246202480       -0.2431253113
 C         -0.5272594858        2.1056242944        0.5916029822
 C         -2.2753553442        0.9263766783        0.3333472101
 C         -3.5991252915        0.3672161665        0.3038138997
 C         -2.5818002266       -1.5775944900       -0.9171787637
 H          1.3079751767        1.0005182556       -1.5928445148
 H          2.0039360440        1.3634949777        1.3547562524
 H          4.1909999823        0.4002059829        0.9577958803
 H          3.2268125121       -1.7101590150       -0.5823595907
 H          3.5571366732       -1.5970388255        2.0041174572
 H          1.8408566543       -1.1194937957        2.0614519798
 H          0.1422153237        2.9026635812        0.8409668953
 H          3.2180959149        2.6256373224       -0.8273366558
 H          4.9287765968        0.1773074910       -1.1909355323
 H         -0.5417405006       -1.4525686002       -1.2456458572
 H          1.4452918617       -3.1455420847        0.9728830317
 H         -4.5216169606       -1.3230206067       -0.3982766910
  32
        -63.73659486
 O          1.4385715761       -0.3982036118       -1.1326059949
 O          3.3885991954        1.8507338504       -1.0638100276
 O          4.0235829445        0.4421131708        1.1090890311
 O          2.5469670976       -2.2701134835        1.7774455556
 O         -4.4545520722        0.5493521622        1.0559134570
 O         -2.5000049456       -2.7701102946       -1.3302383741
 N         -0.1189418932        1.1759687233       -0.3774526326
 N         -1.2415785762       -0.9200705164       -0.9759985181
 N         -1.7994079733        2.1347294914        0.7393739510
 N         -3.4065121491       -1.0585870220       -0.1445779640
 C          1.1806034728        0.9718468104       -1.0136861763
 C          2.3395441516        1.5544542895       -0.1899164618
 C          2.6756584175        0.3830805394        0.7534906343
 C          2.3018458803       -0.8528137513       -0.0900758455
 C          1.6349229612       -1.9389725346        0.7575292342
 C         -1.1598462215        0.3047860106       -0.3959212984
 C         -0.5823073003        2.2703016361        0.3188659231
 C         -2.2016059061        0.8976298006        0.3102174475
 C         -3.4456096725        0.1947601631        0.4732376806
 C         -2.3906336366       -1.6566985239       -0.8507802381
 H          1.1652673664        1.4050276070       -2.0214869787
 H          2.0495126472        2.4495726846        0.3712040664
 H          2.0297682206        0.4371067763        1.6410303249
 H          3.2056043676       -1.2630045379       -0.5560766560
 H          0.6979494250       -1.5487289450        1.1812009003
 H          1.4045346265       -2.8031278081        0.1247308882
 H          0.0017834800        3.1515977348        0.4776947163
 H          4.2243528709        1.7452633939       -0.5778838482
 H          4.2322633893       -0.3013164328        1.6930884743
 H         -0.4474172078       -1.3020174203       -1.4809149293
 H          2.2135340028       -3.0227219117        2.2849926055
 H         -4.2567804506       -1.6092514100       -0.0644895079
  32
        -63.73656985
 O          2.0303964082        1.0684508074       -0.5989175193
 O          1.1762448543       -1.6740915497        1.3741062992
 O          3.7267672529       -1.8162087383        0.6036827930
 O          4.7702285732        2.0172414250       -1.4436810001
 O         -4.8218730328        0.7804059744       -0.7412741485
 O         -3.0341820665       -1.9600781572        2.3922343683
 N         -0.2411809096        0.7035526318       -0.2918889893
 N         -1.5572921753       -0.7343471053        1.1867276245
 N         -1.9065645819        1.6168616600       -1.4548752589
 N         -3.8443957636       -0.5454573226        0.8121399248
 C          1.0826536259        0.4101451129        0.1889564926
 C          1.4210565208       -1.0974967563        0.1237642756
 C          2.9261967482       -1.1038215231       -0.2836474565
 C          3.2732804590        0.3973472296       -0.3996778237
 C          4.2296749826        0.7266558864       -1.5462732007
 C         -1.3924602595        0.1771846294        0.1936948769
 C         -0.6227417400        1.5662455690       -1.2904616593
 C         -2.4316875525        0.7509365194       -0.5305149523
 C         -3.7897104311        0.3883489499       -0.2268720142
 C         -2.8250952101       -1.1355875046        1.5217138401
 H          1.1553661835        0.7331028574        1.2445008184
 H          0.8131683653       -1.5786133971       -0.6544168185
 H          3.0489768695       -1.5945742500       -1.2521536667
 H          3.7196151760        0.7440795192        0.5452549684
 H          5.0779850564        0.0405623864       -1.4990580403
 H          3.7031518361        0.5910841027       -2.4983056067
 H          0.0915445881        2.1257628961       -1.8552951263
 H          1.6344334773       -2.5293744213        1.4277275951
 H          3.7736741963       -1.3640356213        1.4607489778
 H         -0.7605527167       -1.1744221618        1.6481147849
 H          4.0598285822        2.6692034141       -1.5215242211
 H         -4.7786667840       -0.8445148290        1.0766719489
  32
        -63.73656061
 O          1.5628064243       -0.8233094014       -0.7094662755
 O          3.0235600801        1.7631021946       -1.6992127058
 O          4.4863344129        0.4982055755        0.0339098976
 O          2.7930615372       -1.2437996772        2.7346433702
 O         -4.4462960741        0.3627239323        1.3078345510
 O         -3.1721725020       -2.0835881053       -2.2870994008
 N         -0.0858564244        0.7406350551       -0.1406170231
 N         -1.5772426200       -0.7656828040       -1.3632293578
 N         -1.5279133051        1.4372058965        1.4156351190
 N         -3.7355693066       -0.8044292453       -0.4978977787
 C          1.1212714741        0.4891579358       -0.9153616980
 C          2.3010886561        1.4197865405       -0.5561440351
 C          3.1452099162        0.5600270979        0.4336635333
 C          2.5250701522       -0.8494918337        0.3394523777
 C          1.8822703603       -1.2868818222        1.6692785940
 C         -1.2708977329        0.1240361354       -0.3857479184
 C         -0.3112406880        1.5107206322        0.9794479316
 C         -2.1710497976        0.5663196762        0.5754387500
 C         -3.5280173520        0.0895611469        0.5568899016
 C         -2.8512404007       -1.2737340767       -1.4378474361
 H          0.8682597604        0.5934218359       -1.9772357937
 H          1.9465903418        2.3528755249       -0.1149756347
 H          3.0502871233        0.9296442447        1.4589442305
 H          3.2968198672       -1.5673242742        0.0425667858
 H          1.0774731698       -0.5959957912        1.9359955685
 H          1.4505290538       -2.2863883264        1.5421331719
 H          0.4402946676        2.1148921304        1.4411350179
 H          3.7798673300        1.1525977978       -1.7859859842
 H          4.9767341610        1.2611197130        0.3721394898
 H         -0.8774513870       -1.1321249037       -1.9980961237
 H          3.4635475434       -1.9332611560        2.6249476593
 H         -4.6764308285       -1.1821768290       -0.5682006083
  32
        -63.73652567
 O          1.8775330953       -0.9192814286        0.9094151045
 O          1.9973889309        0.2631834955       -2.3315390054
 O          4.2856398194       -0.5482753554       -1.1851695323
 O          2.7219477122        1.9184916696        1.7449960921
 O         -4.5394990310        1.0474090152        0.8521228081
 O         -3.4628900811       -2.4460585797       -1.8249831310
 N         -0.0757452001        0.1384024069        0.1821216086
 N         -1.7261556305       -1.3006746175       -0.9323841614
 N         -1.4937638390        1.5052249275        1.2308782706
 N         -3.9192486242       -0.6802049072       -0.4724287108
 C          1.1841695847       -0.4483363094       -0.2124223838
 C          2.0958800405        0.5425744583       -0.9658015911
 C          3.5017632283        0.2712588659       -0.3697326999
 C          3.1824229412       -0.3414849684        1.0071468775
 C          3.2769632061        0.6816153809        2.1454493974
 C         -1.3275921719       -0.2741591995       -0.1360002669
 C         -0.2499463389        1.2182320113        1.0176853030
 C         -2.2110717792        0.5825372788        0.5139492417
 C         -3.6286390327        0.4029082802        0.3635557073
 C         -3.0659825293       -1.5345180203       -1.1222363131
 H          0.9527194498       -1.2920252464       -0.8782910057
 H          1.7908122606        1.5706268843       -0.7350144257
 H          4.0677323955        1.1967516868       -0.2537396537
 H          3.8672422469       -1.1652961780        1.2317983453
 H          2.7375922230        0.2773339539        3.0104807250
 H          4.3352553641        0.8011376818        2.3991694810
 H          0.5829450026        1.7467338102        1.4354012957
 H          2.6102568532        0.8244268261       -2.8286883297
 H          3.7854783917       -1.3309917680       -1.4594995408
 H         -1.0763545480       -1.9165389131       -1.4061610576
 H          2.9334968402        2.5875960138        2.4112907493
 H         -4.9076076008       -0.8625744333       -0.6214793392
  32
        -63.73649364
 O          1.4927771808       -0.4645730487       -0.9891660483
 O          2.9449590943        2.5533053687       -0.1110652403
 O          4.3487866031        0.3300455102       -0.5345928025
 O          2.3380841190       -2.4697753873        1.9664973766
 O         -4.5527366327        0.5749409832        0.8600293315
 O         -2.5466252299       -2.7287482559       -1.5056814956
 N         -0.1010677578        1.0738253846       -0.2062356287
 N         -1.2436374935       -0.9563424936       -0.9643922241
 N         -1.8240139677        2.0646419639        0.8082074313
 N         -3.4720151075       -1.0325371889       -0.3122466822
 C          1.2437043109        0.8891971448       -0.7306027016
 C          2.3200097708        1.3780726034        0.2840004914
 C          3.2860483274        0.1647581146        0.3616909665
 C          2.3633620203       -1.0047438268        0.0095018043
 C          1.5800949345       -1.5603927987        1.2156588649
 C         -1.1648645122        0.2444465325       -0.3358632492
 C         -0.5730680254        2.1646595689        0.4884464473
 C         -2.2360497971        0.8577433002        0.3070770525
 C         -3.5134664747        0.1996487264        0.3474704446
 C         -2.4289200971       -1.6449329639       -0.9640301584
 H          1.3220807951        1.4471558321       -1.6742599243
 H          1.8474010113        1.5514060190        1.2563051456
 H          3.7370468898        0.0782597266        1.3506347643
 H          2.9028773066       -1.8326490301       -0.4592220527
 H          1.2017364063       -0.7422214107        1.8414565317
 H          0.7270782419       -2.1310195603        0.8387006492
 H          0.0423823939        3.0109552103        0.7134282569
 H          3.8208555048        2.3280462433       -0.4801346169
 H          4.0655047054        0.1108389078       -1.4352341196
 H         -0.4321948898       -1.3516735849       -1.4296336779
 H          3.0500518279       -2.0150945220        2.4377915324
 H         -4.3456221512       -1.5512626953       -0.3182283965
  32
        -63.73646100
 O          1.4487261715       -0.5189869633       -1.0332170637
 O          3.3495312782        1.7146367999       -1.3525991855
 O          4.1705743223        0.5419178587        0.8698303109
 O          2.4729337603       -1.9458680276        2.1481889745
 O         -4.4151499033        0.4623719781        1.1543157390
 O         -2.6596163035       -2.6275299426       -1.6560938994
 N         -0.0920074819        1.0818090408       -0.3228410333
 N         -1.3125129485       -0.8839162708       -1.1243098157
 N         -1.6930911785        1.9587853225        0.9631878394
 N         -3.4665735737       -1.0266360508       -0.2634180388
 C          1.1636196174        0.8512430347       -1.0320931470
 C          2.3720459476        1.5271801907       -0.3710856723
 C          2.7889244200        0.4770178725        0.6796787252
 C          2.3003586977       -0.8531320551        0.0617698119
 C          1.5710258698       -1.7215304807        1.0916825164
 C         -1.1710948492        0.2614054049       -0.4099701301
 C         -0.4818001023        2.0936683556        0.5257008560
 C         -2.1657421578        0.8052366723        0.3944467232
 C         -3.4366142092        0.1406787511        0.5049068541
 C         -2.4904582667       -1.5828681555       -1.0553935599
 H          1.0596072148        1.1735535151       -2.0749506379
 H          2.1209592278        2.4874632445        0.0918843982
 H          2.2533297675        0.6681536690        1.6189454034
 H          3.1528860425       -1.4104237034       -0.3414577406
 H          0.6741666056       -1.1923628768        1.4464987255
 H          1.2624831177       -2.6600590190        0.6176116626
 H          0.1471053008        2.9175837657        0.7866720785
 H          4.2211751782        1.6249241294       -0.9300334765
 H          4.4325935414       -0.0879122230        1.5558800975
 H         -0.5362240681       -1.2627689249       -1.6575407607
 H          2.0842889927       -2.5584405566        2.7874370408
 H         -4.3384729030       -1.5475361192       -0.2283844574
  32
        -63.73626016
 O          1.3617194929       -0.2966704786       -1.1571463835
 O          3.1902877479        2.1499759671       -0.2322112327
 O          3.8127405969        0.1408604090        1.4168353042
 O          3.3815918579       -2.7861655808        0.6131222549
 O         -4.6540264061        0.8420783861        0.7359279830
 O         -2.3977050729       -2.9052206758       -0.4483334254
 N         -0.2331018959        1.2722884303       -0.4793300504
 N         -1.2231529466       -0.9696913854       -0.5095142773
 N         -2.0320279590        2.4162862390        0.1843493673
 N         -3.4500643725       -0.9829135891        0.1495354989
 C          1.1531710613        1.0586193939       -0.8478791822
 C          2.1161283752        1.4359510072        0.3028204565
 C          2.5432130703        0.0592184225        0.8466959683
 C          2.4717367920       -0.8063430754       -0.4230238893
 C          2.2845476779       -2.2969083166       -0.1187561346
 C         -1.2324705297        0.3732771236       -0.3134501879
 C         -0.7877135027        2.4932233404       -0.1642166377
 C         -2.3532911609        1.0869054334        0.1038461556
 C         -3.5841168285        0.3919535445        0.3670764445
 C         -2.3614918907       -1.6996036799       -0.2841763957
 H          1.3807767437        1.6864917508       -1.7217678631
 H          1.5990452828        2.0314369512        1.0672939812
 H          1.7966130297       -0.2923882390        1.5734864167
 H          3.3921456672       -0.6502337405       -1.0046077006
 H          1.4027089503       -2.4332315598        0.5149430310
 H          2.1327870722       -2.8480883402       -1.0507607334
 H         -0.2280946947        3.4039532965       -0.2156740365
 H          3.9548238458        2.0381491983        0.3579699835
 H          4.0745536294       -0.7384997905        1.7300991967
 H         -0.3941450752       -1.4207307431       -0.8837160674
 H          4.1000005820       -3.0272979070        0.0119114621
 H         -4.2882831340       -1.5321876711        0.3170194097
  32
        -63.73622769
 O          1.3487413340       -0.2896184214       -1.1503559026
 O          3.1225276578        2.1816448622       -0.0548851503
 O          3.8141497045        0.0761830204        1.4217202023
 O          3.5219558434       -2.8025898555        0.3850618223
 O         -4.6891662631        0.8789337297        0.6593198807
 O         -2.3815327066       -2.9074560741       -0.2755661209
 N         -0.2483830654        1.2802305796       -0.4911188240
 N         -1.2195731012       -0.9682774522       -0.4150795313
 N         -2.0662653457        2.4436522432        0.0793369809
 N         -3.4590669097       -0.9646245647        0.1990003475
 C          1.1472847593        1.0583931153       -0.8029976452
 C          2.0702390102        1.3838979648        0.3986606877
 C          2.5453397731       -0.0111874463        0.8509337326
 C          2.4945383810       -0.7946931015       -0.4725840949
 C          2.3810782632       -2.3095768185       -0.2729511006
 C         -1.2438385194        0.3832604741       -0.2940555469
 C         -0.8160658420        2.5116765738       -0.2492527841
 C         -2.3773651094        1.1093326052        0.0624344259
 C         -3.6082039397        0.4190006259        0.3379846574
 C         -2.3572643667       -1.6946138509       -0.1747525312
 H          1.4223659150        1.7167941564       -1.6405882287
 H          1.5105750299        1.8993667515        1.1912452987
 H          1.8149830387       -0.4345843071        1.5554821310
 H          3.3971571254       -0.5553968565       -1.0540480237
 H          1.5285001642       -2.5316290793        0.3762979039
 H          2.2204077481       -2.7962539682       -1.2389920422
 H         -0.2582830612        3.4212411643       -0.3325445751
 H          3.8842000719        2.0481082978        0.5346718203
 H          4.1108918096       -0.8124196116        1.6714923146
 H         -0.3830390273       -1.4304906127       -0.7572018225
 H          4.2338692779       -2.9514185127       -0.2528834156
 H         -4.2964873502       -1.5109949886        0.3793516108
  32
        -63.73605270
 O          1.6033886145       -0.3047621573       -1.0356775512
 O          3.3534892921        2.1951418118       -0.6203297699
 O          4.1221990697        0.5494735403        1.2630366139
 O          1.1980295620       -2.8331652057       -0.2584035748
 O         -4.5125323431        0.6795723262        0.7784273092
 O         -2.2320626831       -3.0067383547       -0.5274821434
 N         -0.0843721396        1.1884773197       -0.3733157232
 N         -1.0541110323       -1.0704662820       -0.4975712160
 N         -1.9109932145        2.2823471192        0.3031113262
 N         -3.3019825858       -1.1132893889        0.1106340688
 C          1.2835116362        1.0354222275       -0.8595662630
 C          2.3152135539        1.6271176894        0.1197785755
 C          2.7737978681        0.3930805572        0.9327814453
 C          2.4971595339       -0.7856868309       -0.0253078298
 C          1.8639199825       -2.0074820121        0.6639810032
 C         -1.0728732336        0.2647083426       -0.2554356401
 C         -0.6655695022        2.3894537374       -0.0324683141
 C         -2.2082603474        0.9516274027        0.1754612519
 C         -3.4390716806        0.2448783958        0.3953342615
 C         -2.1935757023       -1.8079355202       -0.3197617632
 H          1.3613393401        1.5452468719       -1.8297022357
 H          1.8600515197        2.3807528702        0.7755964160
 H          2.1456657305        0.3046355580        1.8270728966
 H          3.4271722377       -1.0704152822       -0.5334013225
 H          2.6321458994       -2.5633450102        1.2110834906
 H          1.0938703653       -1.6828461518        1.3696553323
 H         -0.1288402974        3.3145395529       -0.0624574205
 H          4.1804024578        2.0913590385       -0.1178235736
 H          4.3716458752       -0.0222995177        2.0007933745
 H         -0.2012057126       -1.5752871102       -0.7596833097
 H          1.8315148046       -3.2184892731       -0.8801454271
 H         -4.1386493742       -1.6751266060        0.2368805945
  32
        -63.73603280
 O          1.3981690844       -0.3887414899       -0.9403605877
 O          2.5776274546        2.3124561356        0.9388194141
 O          4.1757845392        0.2508769724        1.0985213691
 O          2.9185557529       -2.8159508008       -1.7908224083
 O         -4.7523693571        0.9501898928        0.2678565133
 O         -2.2981549795       -2.8382695775        0.6763831190
 N         -0.2172114229        1.2133436250       -0.4888800600
 N         -1.1531849991       -0.9591072279        0.1380815582
 N         -2.0995681439        2.4098287527       -0.4596885540
 N         -3.4495672985       -0.8899259816        0.4739742423
 C          1.1914353659        0.9406036542       -0.5385224586
 C          1.8966278864        1.1050238637        0.8453966549
 C          2.8463106879       -0.1323692926        0.9100785099
 C          2.6910087969       -0.7713802610       -0.4835848317
 C          2.8087968746       -2.2949034860       -0.4934611756
 C         -1.2168427167        0.3676063088       -0.1403504474
 C         -0.8217320326        2.4371538590       -0.6645592839
 C         -2.3914720060        1.1123437428       -0.1272686719
 C         -3.6352589398        0.4703057268        0.2027718265
 C         -2.3023645436       -1.6441140824        0.4409281027
 H          1.6471703300        1.6490705690       -1.2479740770
 H          1.1455473418        1.0812280871        1.6419227160
 H          2.5083703295       -0.8329790806        1.6790116802
 H          3.4604470217       -0.3477484390       -1.1447255337
 H          3.7288791209       -2.5777267387        0.0214557058
 H          1.9505092611       -2.7319411964        0.0344723817
 H         -0.2693830858        3.3128598836       -0.9348535240
 H          3.5233666204        2.1475797570        0.7543934916
 H          4.3910568211        0.2934763780        2.0415426313
 H         -0.2802801927       -1.4637881344        0.0283585782
 H          2.1314661602       -2.5794927869       -2.3016195348
 H         -4.2942700829       -1.4037546734        0.7084559888
  32
        -63.73601852
 O          1.4748929992       -0.4562700044       -1.0621059219
 O          3.3409533084        1.8816294563       -1.2319650744
 O          4.2537714014        0.4462060116        0.7330475006
 O          2.2064074521       -2.0883407327        2.1526368377
 O         -4.4278030016        0.4350698835        1.1019813010
 O         -2.5605943411       -2.6698048246       -1.6188530113
 N         -0.0871943052        1.1071678244       -0.2989045128
 N         -1.2599733737       -0.8898232057       -1.0958310340
 N         -1.7319560820        1.9805476977        0.9340065292
 N         -3.4235600700       -1.0624283749       -0.2669376665
 C          1.1852613169        0.9084945344       -0.9888935531
 C          2.3807530126        1.5540051459       -0.2707905574
 C          2.8559924296        0.4300582627        0.6819609304
 C          2.2713976827       -0.8581538026        0.0525934773
 C          1.4305061161       -1.6595290670        1.0641362048
 C         -1.1503910362        0.2675961232       -0.3954055357
 C         -0.5146645382        2.1296445459        0.5181699397
 C         -2.1707845423        0.8071585165        0.3793186214
 C         -3.4303108962        0.1198105166        0.4787312582
 C         -2.4237746198       -1.6117522780       -1.0331452496
 H          1.1052811065        1.2883801381       -2.0146843942
 H          2.0981562110        2.4538835011        0.2858335110
 H          2.4195163650        0.5810043239        1.6751589308
 H          3.0787872317       -1.4822161941       -0.3453673175
 H          0.6489462419       -1.0155254952        1.4801632894
 H          0.9484226654       -2.4978197007        0.5504550389
 H          0.0916206873        2.9731303421        0.7702325584
 H          4.2193233288        1.6730517153       -0.8667784471
 H          4.5687941226        0.0187347214        1.5400234785
 H         -0.4715591791       -1.2524948457       -1.6229506515
 H          2.7105740113       -2.8773484474        1.9086713734
 H         -4.2847222269       -1.6007803096       -0.2345236918
  32
        -63.73600014
 O          1.4674639818       -0.4072707551       -1.1120491826
 O          3.3833360781        1.8589144091       -1.1448517797
 O          4.1214615757        0.4689552432        0.9661103972
 O          2.2801074480       -2.2760685383        1.9487697432
 O         -4.4242244981        0.4818913784        1.0889805866
 O         -2.4982909665       -2.7374100997       -1.4532440518
 N         -0.0983696775        1.1563928024       -0.3527961038
 N         -1.2356821698       -0.9029801104       -1.0390043611
 N         -1.7633111520        2.0691946263        0.8237751996
 N         -3.3918042786       -1.0742947483       -0.1909615735
 C          1.1897464760        0.9584940595       -1.0138878960
 C          2.3636060865        1.5692121253       -0.2343532585
 C          2.7445595169        0.4258767840        0.7321108122
 C          2.2721636944       -0.8438855837       -0.0142002499
 C          1.4783878965       -1.7916849312        0.9023790386
 C         -1.1449453559        0.2928051469       -0.4030612010
 C         -0.5485931931        2.2176811923        0.4005139847
 C         -2.1771262683        0.8566638307        0.3388608407
 C         -3.4218798114        0.1505614459        0.4819188045
 C         -2.3832693140       -1.6446836430       -0.9297355626
 H          1.1458395026        1.3670131231       -2.0307845708
 H          2.0813761211        2.4756027204        0.3122468775
 H          2.1784333398        0.5359067905        1.6650137498
 H          3.1368672587       -1.3672612281       -0.4383356259
 H          0.6564224021       -1.2415079872        1.3721282732
 H          1.0517101006       -2.6039928180        0.3053335015
 H          0.0410701515        3.0869831103        0.5990926751
 H          4.2366674613        1.7227413177       -0.6978150974
 H          4.3457564147       -0.0682706682        1.7376722203
 H         -0.4440920752       -1.2713796771       -1.5575515161
 H          2.8167192275       -3.0179384811        1.6359210638
 H         -4.2408482924       -1.6284226564       -0.1227126663
  32
        -63.73584634
 O          1.9655337771        1.2073306639        0.7042349274
 O          2.4506157799       -1.8514436942        1.2618654991
 O          4.1175032131       -1.2582891880       -0.6884647995
 O          2.6879374871        2.0242981110       -2.0554527813
 O         -4.4903699366        0.4032819825       -1.3164207083
 O         -3.4920673652       -1.8672926262        2.4745886121
 N         -0.1004305173        0.3401323591        0.0692284521
 N         -1.7539926525       -0.8559707036        1.4326079774
 N         -1.4681821467        1.0961380870       -1.5209375972
 N         -3.9082472894       -0.7026930207        0.5707017962
 C          1.1345870879        0.0888801187        0.7876396804
 C          1.9014462862       -1.1166494775        0.2078792978
 C          2.9766240045       -0.4491428428       -0.6732480949
 C          3.1860793331        0.9122214214        0.0219755958
 C          3.5352102006        2.0595034224       -0.9266448228
 C         -1.3445478601       -0.0950941995        0.3828393404
 C         -0.2447013197        1.0522484164       -1.0986600906
 C         -2.1982041688        0.3783229634       -0.6092476354
 C         -3.6022065078        0.0771657009       -0.5495388000
 C         -3.0816743510       -1.1865729834        1.5526875142
 H          0.8861752261       -0.0997255229        1.8403570309
 H          1.2327573233       -1.7532557349       -0.3892954942
 H          2.5708821035       -0.2857960088       -1.6770101470
 H          3.9831011783        0.8147084904        0.7721156549
 H          3.4076199234        2.9945960710       -0.3710381204
 H          4.5839576395        1.9568519358       -1.2290099138
 H          0.5888606012        1.5192939647       -1.5833570865
 H          3.2872915264       -2.2421248287        0.9555160366
 H          4.6888224418       -1.0283404852       -1.4326716425
 H         -1.1177373753       -1.2092273874        2.1370873817
 H          2.8808816112        2.7847247372       -2.6211336785
 H         -4.8878971795       -0.9532468919        0.6717132830
  32
        -63.73569257
 O          1.3911010458       -0.3778442182       -0.9470515545
 O          2.6720743981        2.3175335538        0.7255329474
 O          4.1060715571        0.1372594703        1.3165680177
 O          2.9805290581       -2.8050993452       -1.7831196237
 O         -4.7543273083        0.9378194346        0.2935692268
 O         -2.2887908257       -2.8485189299        0.6510419720
 N         -0.2241099739        1.2206759742       -0.4826143957
 N         -1.1506061947       -0.9603671760        0.1289268369
 N         -2.1100664221        2.4107533536       -0.4342719205
 N         -3.4460348450       -0.9013150511        0.4745667777
 C          1.1856308758        0.9534118468       -0.5523676645
 C          1.9127786937        1.1472051043        0.8046202242
 C          2.8002682991       -0.1308719580        0.9247115870
 C          2.6807959959       -0.7644675211       -0.4789990935
 C          2.8099279337       -2.2863409647       -0.4909297955
 C         -1.2196571517        0.3679148238       -0.1382609209
 C         -0.8337581780        2.4442528147       -0.6458113576
 C         -2.3961727768        1.1093688466       -0.1122592196
 C         -3.6368206968        0.4607935356        0.2181508817
 C         -2.2967840735       -1.6520693507        0.4289686421
 H          1.6308551103        1.6579111603       -1.2732057594
 H          1.1805594114        1.2004003344        1.6183161212
 H          2.3912476806       -0.8110606661        1.6764406243
 H          3.4492512912       -0.3369122489       -1.1393599990
 H          3.7091175118       -2.5584895684        0.0659902365
 H          1.9361047247       -2.7326461755        0.0013639183
 H         -0.2856310495        3.3233008578       -0.9142381996
 H          3.0078598619        2.5556748557        1.6026094848
 H          4.4810557870        0.8287345234        0.7456400560
 H         -0.2758341771       -1.4606124023        0.0126294089
 H          2.1999833401       -2.6037525733       -2.3184973458
 H         -4.2880178674       -1.4201905595        0.7077433882
  32
        -63.73563655
 O          2.0186017196        0.9586074909       -0.8050678535
 O          1.1990304849       -1.4757713586        1.6210153591
 O          3.7465130674       -1.3919768778        1.0616132437
 O          4.4784756879        1.6667049746       -2.2199184003
 O         -4.8173347753        0.6585295725       -0.7594524973
 O         -2.9795094635       -1.6504662823        2.6761261226
 N         -0.2322698434        0.6678246004       -0.3569709589
 N         -1.5217218560       -0.5822936284        1.3075470162
 N         -1.9179983706        1.4209396073       -1.6025515890
 N         -3.8143669971       -0.4505120340        0.9402626004
 C          1.1070051021        0.4626565127        0.1289037514
 C          1.4523991266       -1.0405320397        0.3228982742
 C          2.9612921600       -1.0996071740       -0.0608249960
 C          3.2705793176        0.3331136436       -0.5531218139
 C          4.1257268513        0.3700109449       -1.8222243329
 C         -1.3725973627        0.1971259237        0.2047191071
 C         -0.6318620577        1.4004736234       -1.4482195440
 C         -2.4248866360        0.6713533686       -0.5720929183
 C         -3.7765572695        0.3421290132       -0.2104666688
 C         -2.7829952351       -0.9429433085        1.7050964557
 H          1.2155946941        0.9808523932        1.1003394449
 H          0.8490913760       -1.6414268823       -0.3641673441
 H          3.1221069455       -1.8158880637       -0.8687096940
 H          3.7821125277        0.8627886593        0.2656253435
 H          5.0185481486       -0.2457888970       -1.6542153033
 H          3.5481457111       -0.0439047609       -2.6514458875
 H          0.0763170398        1.8903948452       -2.0827110023
 H          2.0303090184       -1.4060213145        2.1320796500
 H          3.9929893561       -2.3274649441        1.0770580419
 H         -0.7185970216       -0.9719734733        1.8026581887
 H          5.0136651988        2.0898115446       -1.5332727360
 H         -4.7434283432       -0.7188846581        1.2515445515
  32
        -63.73557848
 O          1.4332367984       -0.4206392401       -0.9432499655
 O          2.1968079928        2.1671691879        1.4015673458
 O          4.2213885495        0.8249651367        0.4653676405
 O          2.7008728184       -3.0716499618       -1.5338959531
 O         -4.7166782470        1.0022695552        0.2106642050
 O         -2.3348809627       -2.8297502944        0.6417076415
 N         -0.1627250544        1.1928156820       -0.4500925807
 N         -1.1481685603       -0.9660285496        0.1422930003
 N         -2.0235391554        2.4224669839       -0.4516959383
 N         -3.4492981130       -0.8608419171        0.4282036008
 C          1.2373267348        0.8873431806       -0.4734492462
 C          1.8917288735        0.8992247411        0.9370689999
 C          3.1230048645       -0.0128674568        0.7093963047
 C          2.7410178418       -0.8440127120       -0.5416991906
 C          2.7256790982       -2.3604869209       -0.3249848718
 C         -1.1839554250        0.3638367362       -0.1264886364
 C         -0.7412049281        2.4279542115       -0.6295464217
 C         -2.3454745270        1.1284168109       -0.1336244885
 C         -3.6061724400        0.5049700514        0.1654228886
 C         -2.3145296203       -1.6338281269        0.4156693530
 H          1.7368869609        1.6284989127       -1.1161858354
 H          1.1950198860        0.4413081241        1.6475222035
 H          3.2952951761       -0.6553920287        1.5765861567
 H          3.4476643242       -0.6051864613       -1.3487641151
 H          3.6462581458       -2.6677288825        0.1742586294
 H          1.8705262701       -2.6303741018        0.3093745618
 H         -0.1693677176        3.2961828404       -0.8825506454
 H          3.1038885260        2.3866347158        1.1172070623
 H          5.0540043508        0.3709615494        0.6492684575
 H         -0.2810446665       -1.4842014810        0.0531515172
 H          1.9078082350       -2.8365773496       -2.0351287518
 H         -4.3073285075       -1.3616169424        0.6417402762
  32
        -63.73550011
 O          1.3315887840       -0.7394985694       -0.4309301372
 O          2.6170844567        2.5072862602       -0.2089072689
 O          4.5476168424        0.6869885939       -0.2300717221
 O          2.7011913285       -2.3351091699        1.6232061130
 O         -4.7360244662        0.9372027354        0.6441954493
 O         -2.8299664211       -2.7817116454       -1.1082463364
 N         -0.1934256729        0.9804381679       -0.1045641063
 N         -1.4321392499       -1.0489796109       -0.6845095142
 N         -1.8975442919        2.2121386821        0.6393252813
 N         -3.7040751688       -0.8775754394       -0.2316660846
 C          1.1442215748        0.6485089155       -0.5209576596
 C          2.2342220732        1.2919403895        0.3609192035
 C          3.3680782356        0.2211195657        0.3463427310
 C          2.7394184984       -0.9753638751       -0.4078030248
 C          3.0273925628       -2.3241132301        0.2574684792
 C         -1.3075237153        0.2169322395       -0.2133099516
 C         -0.6236010626        2.1818277357        0.4119595447
 C         -2.3687016561        0.9826511935        0.2591451791
 C         -3.6950036864        0.4275324618        0.2706326540
 C         -2.6665310838       -1.6460972643       -0.7014419177
 H          1.2938689534        0.9971137360       -1.5596696826
 H          1.8489448973        1.4266449143        1.3793929861
 H          3.6288423150       -0.0864049338        1.3624030918
 H          3.1199754832       -0.9962781076       -1.4387041431
 H          2.4952504018       -3.1140039953       -0.2832011043
 H          4.1014712132       -2.5098318058        0.1990152504
 H          0.0414410960        3.0031661589        0.5784375734
 H          3.3317327900        2.9022080316        0.3144305001
 H          4.3513133990        1.1407439848       -1.0656848516
 H         -0.6189546616       -1.5686236380       -0.9971582152
 H          1.7402934311       -2.2947600063        1.7213939992
 H         -4.6149099834       -1.3273099848       -0.2518736401
  32
        -63.73548540
 O          1.3670780320       -0.5816118211       -0.5521778530
 O          2.7217660136        2.5889438392        0.1038039169
 O          4.4676317528        0.6667062519        0.4290896492
 O          2.4712951924       -3.2502182335       -0.5941180297
 O         -4.7345961827        0.9960981268        0.5157296908
 O         -2.6233299223       -2.9332238847       -0.2684669332
 N         -0.2049108880        1.1059306281       -0.2879992410
 N         -1.3206774831       -1.0776417603       -0.3092510797
 N         -1.9790471808        2.3823792060        0.1585823162
 N         -3.6000401750       -0.9222657278        0.1189856959
 C          1.1782316613        0.8048177230       -0.5599118990
 C          2.1342949414        1.3998848297        0.5177602077
 C          3.1698136391        0.2547883704        0.7468170503
 C          2.7298371822       -0.8412731757       -0.2436495784
 C          2.8634328676       -2.2591423870        0.3167024406
 C         -1.2666802552        0.2721625499       -0.1789422616
 C         -0.7054565960        2.3703573551       -0.0732530559
 C         -2.3736436285        1.0713031192        0.1000578812
 C         -3.6654123114        0.4652764389        0.2704579460
 C         -2.5193861527       -1.7251791562       -0.1609451477
 H          1.4438556502        1.2359813495       -1.5415006990
 H          1.5643920201        1.6086763672        1.4282856622
 H          3.1012497184       -0.1200426408        1.7714013888
 H          3.3364342900       -0.7342657541       -1.1556815912
 H          3.9011602651       -2.4037578149        0.6412250218
 H          2.1980761883       -2.3701010043        1.1758761771
 H         -0.0793853986        3.2384269810       -0.1006939736
 H          3.5956832065        2.3843354345       -0.2822721848
 H          4.9053424271        1.0440963563        1.2059740511
 H         -0.4821437106       -1.6123101830       -0.5151734810
 H          3.0637666128       -3.2500239291       -1.3593066493
 H         -4.4828619263       -1.4136420506        0.2266916337
  32
        -63.73546103
 O          1.3995831858       -0.3040073962       -1.1878904736
 O          3.3965776104        1.9447030583       -0.4918863266
 O          3.6688921969        0.2016120965        1.5577092022
 O          3.1688159923       -2.8097166363        0.8179323667
 O         -4.5770428465        0.7620735722        0.8563316909
 O         -2.3809867778       -2.9054082671       -0.6477937879
 N         -0.2005848509        1.2631431788       -0.4893057371
 N         -1.2030754330       -0.9704939250       -0.6341027011
 N         -1.9760080420        2.3628009932        0.3056238366
 N         -3.4039718896       -1.0243352912        0.1082858678
 C          1.1630859167        1.0609624546       -0.9626779611
 C          2.1947828924        1.5347315309        0.0925059846
 C          2.4764908697        0.2177439121        0.8464563929
 C          2.4055153695       -0.8030725005       -0.3048401680
 C          2.0761618260       -2.2239777350        0.1609557203
 C         -1.1981248069        0.3558088030       -0.3470227289
 C         -0.7453268282        2.4622313081       -0.0824691695
 C         -2.3009809843        1.0412485021        0.1564071583
 C         -3.5241862243        0.3327016031        0.4199778380
 C         -2.3333376330       -1.7130399423       -0.4093676420
 H          1.2826953987        1.6007274272       -1.9122162444
 H          1.7734278723        2.2986434749        0.7508739103
 H          1.6716362515        0.0243008956        1.5651367367
 H          3.3677959017       -0.8207118328       -0.8354352067
 H          1.1883761627       -2.2097608227        0.8099305998
 H          1.8691277676       -2.8560068919       -0.7057511975
 H         -0.2030854399        3.3837853042       -0.1038084349
 H          3.3661286112        2.8760525302       -0.7504668950
 H          4.3519255556        0.6518649028        1.0321791390
 H         -0.3835916949       -1.4062386035       -1.0462035828
 H          3.4473462207       -2.2413480939        1.5526729425
 H         -4.2361859781       -1.5839367483        0.2714443900
  32
        -63.73533248
 O          1.4933891898       -0.4377111948       -1.0037906201
 O          2.9825893136        2.5036156331       -0.3970496166
 O          4.4348861067        0.2648397547       -0.2892584594
 O          2.2443645114       -2.4659915017        1.9575434587
 O         -4.5418864056        0.5324981406        0.8868232315
 O         -2.5178070437       -2.7275555053       -1.5234096364
 N         -0.1012620221        1.0868489975       -0.2019665469
 N         -1.2298200066       -0.9463996255       -0.9744404443
 N         -1.8310215772        2.0520525519        0.8272561668
 N         -3.4526820224       -1.0532260647       -0.3071276653
 C          1.2372205747        0.9122117840       -0.7524967305
 C          2.3305582884        1.4303378138        0.2108619555
 C          3.2450636639        0.1885430405        0.4348306945
 C          2.3330175256       -0.9779805957        0.0172600561
 C          1.5116410005       -1.5503715264        1.1895305608
 C         -1.1584339719        0.2483496945       -0.3338632576
 C         -0.5833948913        2.1682698911        0.5006016808
 C         -2.2324861622        0.8444024722        0.3202213288
 C         -3.5027686774        0.1723470039        0.3634439161
 C         -2.4076083325       -1.6478532402       -0.9723649621
 H          1.2938218642        1.4601381616       -1.7036653424
 H          1.8777818751        1.7293638137        1.1654972769
 H          3.5508385916        0.1088093072        1.4796629652
 H          2.9007080677       -1.7924204109       -0.4415766913
 H          1.1143553097       -0.7370449617        1.8122525351
 H          0.6709234731       -2.1187100995        0.7833665168
 H          0.0161248552        3.0255059524        0.7251109574
 H          3.7836411850        2.7312658513        0.0990887600
 H          4.2481204799        0.3773565466       -1.2332177073
 H         -0.4170743607       -1.3276890475       -1.4494727575
 H          2.9838832143       -2.0260053362        2.3999805135
 H         -4.3204962043       -1.5816554124       -0.3118893706
  32
        -63.73527494
 O          1.9834444482       -0.0803109523        1.1737280477
 O          1.4949794263       -0.7012541315       -2.3039435458
 O          3.7257011654       -1.4029768645       -1.1158313578
 O          3.8720056914        1.7385341390        2.4986079212
 O         -4.5971987646        1.3712454888        0.3041088728
 O         -3.4520953980       -2.8036882164       -1.0331745441
 N         -0.1293806495        0.2624045222        0.2780379256
 N         -1.7432691977       -1.4463701904       -0.4303942709
 N         -1.5697635746        1.9093523474        0.7157976952
 N         -3.9439594540       -0.6991823075       -0.3373589100
 C          1.1392232650       -0.3996497481        0.1054032133
 C          1.8599136582        0.0473270501       -1.1949491246
 C          3.3428616221       -0.0905247588       -0.7954601177
 C          3.3232100449        0.1701518338        0.7207027230
 C          3.7350678699        1.5964121079        1.1091008504
 C         -1.3685472780       -0.2195909258        0.0168558981
 C         -0.3234749935        1.5601366653        0.6892885107
 C         -2.2662821854        0.8077293067        0.2938609878
 C         -3.6771282030        0.5964082834        0.1153716203
 C         -3.0748327909       -1.7196880895       -0.6288642876
 H          0.9559374249       -1.4842508982        0.0733220943
 H          1.6082518897        1.0938600276       -1.3964113584
 H          3.9627117723        0.6429971807       -1.3183542972
 H          3.9741222413       -0.5396677903        1.2443995446
 H          4.7163588908        1.8259455458        0.6899871904
 H          2.9998485964        2.3102344621        0.7135079855
 H          0.4877275244        2.1969642787        0.9725702917
 H          2.1043233489       -1.4597171055       -2.3712670785
 H          4.6878753201       -1.4929776505       -1.0967454824
 H         -1.0795806980       -2.1724642865       -0.6707629290
 H          3.0512733456        1.4593679250        2.9291825813
 H         -4.9257220175       -0.9146324525       -0.4869640595
  32
        -63.73524248
 O          1.4864252244       -0.4298440780       -1.0903163858
 O          3.3861831471        1.9210499339       -1.1190497464
 O          4.2900489778        0.3401337461        0.7287229248
 O          2.1086573987       -2.0278544618        2.1700248787
 O         -4.4401203520        0.4213521538        1.0761005915
 O         -2.5137328764       -2.7140051544       -1.5687801563
 N         -0.0916663478        1.1100344427       -0.2896751592
 N         -1.2393092771       -0.9086430530       -1.0699083716
 N         -1.7604696594        1.9904971931        0.9060902405
 N         -3.4075048268       -1.0915765350       -0.2550248005
 C          1.1899607707        0.9293621506       -0.9695513393
 C          2.3794048474        1.5622803398       -0.2139490663
 C          2.9005384141        0.3891263141        0.6628941812
 C          2.2685892919       -0.8701076239        0.0194646765
 C          1.3994378921       -1.6540894273        1.0207137053
 C         -1.1459943874        0.2587037164       -0.3838638775
 C         -0.5396727652        2.1434928307        0.5031210611
 C         -2.1807474801        0.8030606608        0.3681762168
 C         -3.4338210291        0.1041152179        0.4682421964
 C         -2.3942061138       -1.6442005859       -1.0010900252
 H          1.1083740947        1.3300609772       -1.9882042115
 H          2.0750825272        2.4033695406        0.4073467260
 H          2.5427531850        0.4852315662        1.6927115196
 H          3.0523752826       -1.5204997225       -0.3815423694
 H          0.5824746122       -1.0186414782        1.3757318266
 H          0.9653158742       -2.5267492377        0.5154966814
 H          0.0521172322        2.9984190906        0.7508446075
 H          3.3515416606        2.8636972480       -1.3296744948
 H          4.6492247245        0.6769484857       -0.1120024891
 H         -0.4393401017       -1.2749146358       -1.5772534561
 H          2.8159920497       -2.6461578207        1.9371063957
 H         -4.2614735862       -1.6409628680       -0.2171814654
  32
        -63.73517771
 O          1.9713772360        1.0818760140       -0.7707619098
 O          1.1438497955       -1.4769472936        1.5179284913
 O          3.6930105727       -1.4259770224        0.9049393352
 O          5.4469270132        0.4228952685       -1.5560484479
 O         -4.8700412431        0.7982428929       -0.7640492169
 O         -3.0457898176       -1.7006603791        2.5441150785
 N         -0.2858748968        0.7749702897       -0.3501511174
 N         -1.5829231369       -0.5615279186        1.2402040718
 N         -1.9671525978        1.5979196487       -1.5571070584
 N         -3.8744270749       -0.4050138054        0.8749239177
 C          1.0506701416        0.5379756780        0.1293633031
 C          1.3862504864       -0.9758337765        0.2409070024
 C          2.8885288298       -1.0295774419       -0.1698157357
 C          3.2162756837        0.4326401480       -0.5494502726
 C          4.0804346158        0.6110066886       -1.8033285403
 C         -1.4290363701        0.2774831116        0.1827009078
 C         -0.6815338664        1.5660695920       -1.4013507405
 C         -2.4782763142        0.7954927175       -0.5696574656
 C         -3.8318468052        0.4499253213       -0.2301025344
 C         -2.8462490808       -0.9407775165        1.6142959689
 H          1.1574095960        1.0018886305        1.1276916731
 H          0.7655247470       -1.5379146748       -0.4627841058
 H          3.0195896190       -1.6850916973       -1.0357931370
 H          3.7345458711        0.8929993494        0.3060958723
 H          3.7192020449       -0.0509695840       -2.6000582448
 H          3.9709172820        1.6450737608       -2.1363300421
 H          0.0285729072        2.0871517162       -2.0077649096
 H          1.9565870695       -1.3757776751        2.0503546746
 H          3.7365864327       -2.3923785760        0.9568639292
 H         -0.7830216809       -0.9789518359        1.7173177078
 H          5.6164885193       -0.4918608762       -1.2904417346
 H         -4.8049712100       -0.6877020568        1.1686425601
  32
        -63.73514541
 O          1.8439256127       -1.1004985939        0.4342704549
 O          2.3315029246        0.6040058529       -2.3495691088
 O          4.3844210677        1.0242873351       -0.7690328911
 O          2.9556559977        0.0141643364        2.7970801391
 O         -4.5083328501        0.8999063820        1.2466663323
 O         -3.7046819688       -1.6511176370       -2.4113015965
 N         -0.1236757165        0.0729924327        0.1122729069
 N         -1.8814123367       -0.8934399280       -1.3034821266
 N         -1.4325476313        1.1064699920        1.5952120913
 N         -4.0235960579       -0.3655211651       -0.5668905557
 C          1.0987065492       -0.3749703727       -0.5101576852
 C          1.9668344761        0.8054696241       -1.0174022135
 C          3.1969896369        0.7827285879       -0.0722912427
 C          3.1964550274       -0.6563887009        0.4676265631
 C          3.7260954688       -0.7506641302        1.9027997453
 C         -1.4052576408       -0.1749824188       -0.2538721150
 C         -0.2132299599        0.8553152172        1.2422429601
 C         -2.2200767224        0.4732793465        0.6697671477
 C         -3.6506437148        0.4003618419        0.5420242305
 C         -3.2383083991       -1.0116652876       -1.4871822789
 H          0.8393728251       -1.0182344791       -1.3616221646
 H          1.4026154246        1.7432693990       -0.9402966958
 H          3.0517703716        1.4764591779        0.7613493238
 H          3.8118910483       -1.2832455779       -0.1915113876
 H          3.7565835939       -1.8011280593        2.2059648676
 H          4.7369188530       -0.3394916356        1.9265557675
 H          0.6527810250        1.2007639505        1.7683570358
 H          3.3081007669        0.5896020402       -2.3969770158
 H          4.6049072401        1.9663860220       -0.7511055973
 H         -1.2798385476       -1.3582858774       -1.9729656832
 H          2.1172841558       -0.4433173014        2.9489065005
 H         -5.0246956325       -0.4590699542       -0.7143458699
  32
        -63.73511955
 O          1.3783739101       -0.7962501625       -0.5245177541
 O          2.5891683357        2.4749390895        0.1377840426
 O          4.1751805973        0.6471149122       -1.0657203879
 O          2.4240590775       -1.6335520489        2.0951242827
 O         -4.6649424285        0.8319712600        0.6890927508
 O         -2.8009454385       -2.6863377942       -1.4735621372
 N         -0.1213808404        0.9072508049       -0.0516491619
 N         -1.3823286074       -1.0274957197       -0.8609102154
 N         -1.8102926005        2.0625218859        0.8353755341
 N         -3.6525593352       -0.8822702316       -0.3895614545
 C          1.2117866351        0.5976265364       -0.5067332762
 C          2.3135860571        1.1368743215        0.4217514281
 C          3.4757606175        0.1861125932        0.0587543276
 C          2.7540562356       -1.1283102065       -0.2752976507
 C          2.8430666686       -2.1593293238        0.8573723874
 C         -1.2445520785        0.1751266708       -0.2482286766
 C         -0.5364200216        2.0427578564        0.6050470001
 C         -2.2965618567        0.8925058872        0.3127548560
 C         -3.6291960861        0.3561199493        0.2595077305
 C         -2.6229626456       -1.6048574991       -0.9435859001
 H          1.3562211517        1.0236004574       -1.5153664566
 H          2.0160887751        0.9766834234        1.4643611785
 H          4.1640725093        0.0475851044        0.9016395980
 H          3.1812780538       -1.5516793001       -1.1909907774
 H          2.2608201664       -3.0428711449        0.5827110169
 H          3.8890049634       -2.4469265837        0.9799188376
 H          0.1387311103        2.8295389022        0.8674482893
 H          3.1310807094        2.8589802574        0.8431420453
 H          4.0999894944        1.6174036192       -1.1000471862
 H         -0.5730548619       -1.5182890279       -1.2272411608
 H          1.4594056130       -1.6543011209        2.1413040019
 H         -4.5678850415       -1.3173199823       -0.4606862555
  32
        -63.73503766
 O          1.5147113310       -0.4963900252       -1.0723529802
 O          3.4023531831        1.7797182053       -1.3207434712
 O          4.2145210865        0.4787640348        0.8480801867
 O          2.0986337645       -1.8674709628        2.2996046589
 O         -4.3807207124        0.3972525235        1.1772065840
 O         -2.6222478805       -2.6368365833       -1.6927089351
 N         -0.0668664132        1.0590248201       -0.3062899091
 N         -1.2851855034       -0.8919581340       -1.1439642712
 N         -1.6625478637        1.9046275937        1.0054791401
 N         -3.4329739368       -1.0614403224       -0.2723194694
 C          1.1773588235        0.8635663923       -1.0402640122
 C          2.3874705357        1.5483018932       -0.3884239818
 C          2.8313865349        0.4993567595        0.6647205159
 C          2.2799750012       -0.8312050384        0.0912023771
 C          1.4133981310       -1.5937651392        1.1087086737
 C         -1.1449758700        0.2379518681       -0.4056234649
 C         -0.4533626058        2.0510366416        0.5679456855
 C         -2.1361219355        0.7629834645        0.4141121264
 C         -3.4039543880        0.0910713391        0.5184660254
 C         -2.4578392048       -1.6011848009       -1.0757221374
 H          1.0288193420        1.1921868084       -2.0767146738
 H          2.1617360907        2.5169140377        0.0530612643
 H          2.3637452637        0.6966038695        1.6360881169
 H          3.1069423308       -1.4693695063       -0.2376766938
 H          0.5566605891       -0.9788020356        1.3996147543
 H          1.0371519366       -2.5127320097        0.6405803303
 H          0.1766812095        2.8676351717        0.8478155205
 H          3.5282787051        0.9975560934       -1.8814852950
 H          4.6288148107        1.0282309730        0.1564976097
 H         -0.5095447421       -1.2672446909       -1.6803206674
 H          2.8398591097       -2.4654634795        2.1270609535
 H         -4.3006697826       -1.5891564289       -0.2379022106
  32
        -63.73502814
 O          1.2879530394       -0.4121915490       -0.9924859210
 O          2.6911280235        2.2864623798        0.5817737406
 O          4.1229189480        0.0936844703        1.1209252141
 O          4.0429621266       -2.7492058002       -0.4926130852
 O         -4.8048352675        1.0202038771        0.3787050874
 O         -2.4975171931       -2.8763516906        0.2195898512
 N         -0.2822309269        1.2170407806       -0.4605266517
 N         -1.2881236334       -0.9867738086       -0.1004273974
 N         -2.1167723587        2.4641023901       -0.2213516857
 N         -3.5727184302       -0.8780407970        0.3081547328
 C          1.1187506022        0.9263423135       -0.6029521745
 C          1.9173741510        1.1297025507        0.7131643042
 C          2.7921314238       -0.1577807200        0.8019293586
 C          2.5921815380       -0.8051271371       -0.5883096648
 C          2.7084505062       -2.3312621774       -0.5970774260
 C         -1.3047388865        0.3661412647       -0.2017601080
 C         -0.8444963719        2.4742836717       -0.4576664245
 C         -2.4491227272        1.1448256712       -0.0556623724
 C         -3.7099731056        0.5109640426        0.2213432741
 C         -2.4569129406       -1.6625300528        0.1423904583
 H          1.5368410967        1.6152508306       -1.3553587257
 H          1.2274041968        1.2013985938        1.5604843600
 H          2.4076142706       -0.8213507194        1.5820237087
 H          3.3359747811       -0.3934174249       -1.2873330355
 H          2.0950462440       -2.7565047122        0.2085792851
 H          2.3431219251       -2.7101166895       -1.5540511038
 H         -0.2651702667        3.3574688610       -0.6301628369
 H          2.9987916317        2.5855861381        1.4500862989
 H          4.4468748399        0.8367235814        0.5841922903
 H         -0.4386143811       -1.5028951075       -0.3058933375
 H          4.4272135728       -2.4133850544        0.3310911002
 H         -4.4314094127       -1.3876035729        0.4971343388
  32
        -63.73499629
 O          1.9733689705        1.1526468275       -0.6423123294
 O          1.1294403537       -1.5600827715        1.3882399740
 O          3.7072942463       -1.6380146516        0.6934395187
 O          5.4827997443        0.5173643224       -1.3598672204
 O         -4.8696846258        0.8366209421       -0.7646295654
 O         -3.0755940772       -1.8065678500        2.4479427570
 N         -0.2884461144        0.7751928929       -0.3189691935
 N         -1.6014283634       -0.6175518084        1.2029014688
 N         -1.9539694094        1.6544234777       -1.5069219578
 N         -3.8885886514       -0.4410491311        0.8261985641
 C          1.0376818324        0.5015127885        0.1669107908
 C          1.3922524308       -1.0030105250        0.1320904439
 C          2.9043831031       -0.9974864083       -0.2474136117
 C          3.2239064615        0.5057284986       -0.4445608116
 C          4.1405009116        0.8175976834       -1.6326421313
 C         -1.4390364207        0.2645737633        0.1834453000
 C         -0.6699054299        1.6089529589       -1.3423545413
 C         -2.4788084792        0.8160155915       -0.5568706838
 C         -3.8361013817        0.4616326454       -0.2405122706
 C         -2.8684268300       -1.0086425473        1.5524987028
 H          1.1101676656        0.8490383498        1.2145606215
 H          0.8036281394       -1.4994023928       -0.6507399364
 H          3.0540390883       -1.5447368756       -1.1817997411
 H          3.6985787477        0.8946055493        0.4702550003
 H          3.7813569765        0.2894648714       -2.5243383429
 H          4.0991950695        1.8916912722       -1.8242596880
 H          0.0479853713        2.1511259466       -1.9204522047
 H          1.4998555783       -2.4566939384        1.4301795662
 H          3.6252608291       -1.2093562949        1.5597252883
 H         -0.8015010553       -1.0380017022        1.6770293939
 H          5.5857700213       -0.4332672971       -1.2076723807
 H         -4.8224794260       -0.7319075134        1.1009945793
  32
        -63.73499564
 O          1.5326542771       -0.5392728389       -0.8083316884
 O          2.8529044925        2.6409234314       -0.1571685769
 O          4.3351023423        0.4647938984       -0.7240052375
 O          1.7910298306       -2.8572291512        1.4995960314
 O         -4.5550413759        0.6312818586        0.8251257402
 O         -2.5457868965       -2.7363453724       -1.4469809558
 N         -0.0723949325        1.0448730545       -0.1465395439
 N         -1.2259208812       -0.9816115841       -0.8898943820
 N         -1.7991929506        2.0787997062        0.8155991527
 N         -3.4721850978       -1.0084145543       -0.2996392063
 C          1.2675491646        0.8317558898       -0.6685510014
 C          2.3502828775        1.4223793001        0.2786782035
 C          3.4043586073        0.2889917028        0.3078980222
 C          2.5278098873       -0.9539615062        0.1393710912
 C          1.9061091689       -1.4588509073        1.4573770565
 C         -1.1467430162        0.2306103719       -0.2840737688
 C         -0.5407060787        2.1547863907        0.5197663648
 C         -2.2207430214        0.8698169402        0.3267025296
 C         -3.5094406419        0.2329354786        0.3442826286
 C         -2.4241720798       -1.6475448494       -0.9162198345
 H          1.3219753675        1.3068753368       -1.6591146586
 H          1.9216019340        1.5592223318        1.2767685498
 H          3.9777292838        0.2885293460        1.2345841236
 H          3.0789314100       -1.7779723819       -0.3223614934
 H          2.5575148129       -1.2022169426        2.2945820521
 H          0.9315148349       -0.9787952339        1.6129757881
 H          0.0837383804        2.9948209013        0.7428722705
 H          3.7007390187        2.4802950755       -0.6131917462
 H          3.9568041659        0.1891935682       -1.5729580874
 H         -0.4102416483       -1.3922096014       -1.3332836229
 H          1.1512206951       -3.1656705445        0.8436035055
 H         -4.3548107332       -1.5111628049       -0.3228593839
  32
        -63.73498937
 O          1.5210064190       -0.5728174018       -1.0127760073
 O          3.3607486044        1.7052817939       -1.4514683576
 O          4.2585154571        0.5526616844        0.7662389117
 O          2.2001968552       -1.6953201347        2.4303307954
 O         -4.3743580766        0.3835934431        1.2288167639
 O         -2.7513391331       -2.5381966755       -1.8307206328
 N         -0.0630060299        0.9951437807       -0.2834582907
 N         -1.3474722141       -0.8750945453       -1.1990735118
 N         -1.6095120268        1.8111870764        1.1029407122
 N         -3.4938453985       -1.0165031606       -0.3177794776
 C          1.1605814243        0.7822319583       -1.0442428721
 C          2.3786855286        1.5207075250       -0.4740052174
 C          2.8702760330        0.5422794430        0.6246416368
 C          2.3228139206       -0.8275722670        0.1460022194
 C          1.4940477233       -1.5381403370        1.2304433383
 C         -1.1657727586        0.2106720396       -0.4058357280
 C         -0.4029018670        1.9451544668        0.6544807573
 C         -2.1281113251        0.7198696051        0.4564689763
 C         -3.4164092626        0.0848284271        0.5399999652
 C         -2.5447628747       -1.5453809646       -1.1586683623
 H          0.9711338953        1.0495868212       -2.0913407082
 H          2.1530433777        2.5130723034       -0.0883930800
 H          2.4292714413        0.7878936132        1.5973859082
 H          3.1494271607       -1.4739608845       -0.1672583792
 H          0.6191421515       -0.9322018899        1.4833594408
 H          1.1453512742       -2.5025199236        0.8390037895
 H          0.2585226003        2.7215849007        0.9734669818
 H          3.4762660378        0.8924700057       -1.9694053500
 H          4.6425906674        1.0604481896        0.0270539574
 H         -0.5894165146       -1.2567845852       -1.7548698778
 H          2.9662245324       -2.2703456611        2.2919976628
 H         -4.3792096872       -1.5149588820       -0.3039786628
  32
        -63.73497150
 O          1.7353435954       -0.8769597058       -0.3678249589
 O          2.9166348078        1.5113265804       -1.9979865586
 O          4.5014283281        1.0254678028        0.0247039060
 O          2.2939612922       -2.3282034691        2.1499391009
 O         -4.4207362554        0.5674184340        1.3439295486
 O         -3.3289691843       -2.0896698753       -2.1611081767
 N         -0.0574491916        0.6226039742       -0.1405371716
 N         -1.6491253064       -0.8430074082       -1.2933798890
 N         -1.4486599945        1.4683194919        1.3891884482
 N         -3.7989038720       -0.7179102590       -0.4136894039
 C          1.1565449047        0.2921463319       -0.8703745471
 C          2.2273654811        1.4011902369       -0.7901418944
 C          3.1504472042        0.9177765498        0.3667890592
 C          2.7978704852       -0.5730689486        0.5391314400
 C          2.3992379277       -0.9391955208        1.9743818711
 C         -1.2777022433        0.0659590020       -0.3565802855
 C         -0.2332744356        1.4529983140        0.9452071362
 C         -2.1447130241        0.6008043223        0.5890240807
 C         -3.5282040130        0.2063988772        0.5995257108
 C         -2.9539545346       -1.2719640261       -1.3424038583
 H          0.8811005731        0.1109970448       -1.9155179219
 H          1.7636051471        2.3706777410       -0.5886333517
 H          2.9250713852        1.4623866616        1.2891645866
 H          3.6557608484       -1.1884767264        0.2447978523
 H          3.1783356286       -0.6091201766        2.6639272473
 H          1.4525093165       -0.4427115901        2.2324581456
 H          0.5569712809        2.0326307685        1.3724600691
 H          3.7850039944        1.0758339142       -1.9051472532
 H          4.8245093132        1.9244303870        0.1837563182
 H         -0.9924247155       -1.2592446814       -1.9429980257
 H          1.6841085093       -2.6857707890        1.4888538466
 H         -4.7614240554       -1.0402104918       -0.4628346438
  32
        -63.73486167
 O          1.5075443836       -0.4747086094       -1.0887735183
 O          3.4588781273        1.6980368889       -1.3003211684
 O          4.0291856730        0.5910006612        1.1136518953
 O          2.2340342945       -2.2793364620        2.0199186631
 O         -4.3520062749        0.4482284054        1.1970814939
 O         -2.5886158753       -2.6913444573       -1.5544605714
 N         -0.0723970905        1.1049493193       -0.3827113339
 N         -1.2720330260       -0.9020701836       -1.1094652829
 N         -1.6649438845        1.9891197598        0.9079057216
 N         -3.4027145377       -1.0647575564       -0.1949945042
 C          1.1797400094        0.8880254022       -1.0980858478
 C          2.3783572564        1.5702326442       -0.4245021621
 C          2.6969719494        0.5641174342        0.7092459624
 C          2.2553267935       -0.7899604935        0.0933979358
 C          1.4279777744       -1.6494145995        1.0615521707
 C         -1.1375042031        0.2626670050       -0.4267558712
 C         -0.4646079679        2.1335756066        0.4461553244
 C         -2.1264499536        0.8119132563        0.3803492167
 C         -3.3810674632        0.1254417582        0.5375745027
 C         -2.4316348263       -1.6257480852       -0.9889354133
 H          1.0537210336        1.1943354901       -2.1436028302
 H          2.1706780892        2.5725077307       -0.0547375292
 H          2.0807963035        0.7915205986        1.5874727360
 H          3.1287692196       -1.3769621974       -0.2126675229
 H          0.6486815139       -1.0383536378        1.5419595331
 H          0.9437013949       -2.4541341917        0.5025235772
 H          0.1543769696        2.9748674278        0.6729260275
 H          3.5678779660        0.8878788064       -1.8232203653
 H          4.5691594714        0.9830114512        0.4042378066
 H         -0.5006266589       -1.2882403292       -1.6442485454
 H          2.7344780792       -1.6169161895        2.5184181276
 H         -4.2601077341       -1.6050717939       -0.1202609781
  32
        -63.73480933
 O          1.8627993549       -0.2621554951        1.2065187452
 O          1.7328223798       -0.6386349434       -2.2517608217
 O          4.1830156830       -0.3847529364       -1.4241709083
 O          3.9250845400        1.6157637819        1.9792728081
 O         -4.6649643437        1.3800623944        0.4785701052
 O         -3.5579138215       -2.5923259722       -1.3983345642
 N         -0.2087648917        0.2385938286        0.3132025155
 N         -1.8366448161       -1.3443673496       -0.6188860326
 N         -1.6315808610        1.8305668955        0.9581370370
 N         -4.0298905860       -0.5938026379       -0.4297718902
 C          1.0483101763       -0.4113089037        0.0744502620
 C          1.8287082477        0.1867851727       -1.1348557070
 C          3.2867076490        0.3001204526       -0.5964630998
 C          3.2139000856       -0.3881066432        0.7809080237
 C          4.1423270714        0.2365233807        1.8251041069
 C         -1.4524558076       -0.1924611312       -0.0099092260
 C         -0.3891564205        1.4746125523        0.8892326022
 C         -2.3392905099        0.7999588195        0.3972010400
 C         -3.7519701600        0.6280088980        0.1908750289
 C         -3.1707909713       -1.5758379774       -0.8530873210
 H          0.8580786213       -1.4771020451       -0.1298774794
 H          1.4127238872        1.1680856359       -1.3883902585
 H          3.5646562193        1.3475217400       -0.4551923899
 H          3.4713814314       -1.4492046012        0.6524152444
 H          4.0138427813       -0.2936482526        2.7738024065
 H          5.1729059313        0.1212341467        1.4847511876
 H          0.4317724549        2.0589826347        1.2462203139
 H          2.6031433224       -1.0696542244       -2.3779850135
 H          4.6309117031        0.2277836206       -2.0242883756
 H         -1.1776565360       -2.0361067442       -0.9555072552
 H          3.0837825713        1.7498932736        2.4360381230
 H         -5.0134390347       -0.7778498597       -0.6068427957
  32
        -63.73478611
 O          2.0133303850        0.9794941913       -0.7763949128
 O          1.1815870794       -1.5663930280        1.5250145867
 O          3.7226891570       -1.5131872719        0.9375436513
 O          4.6591562405        1.8033561713       -1.7818808135
 O         -4.8247607665        0.7281669689       -0.7372628191
 O         -2.9997956528       -1.7954336078        2.5509959991
 N         -0.2399746565        0.6932952957       -0.3324950235
 N         -1.5361874430       -0.6517413179        1.2511508909
 N         -1.9221949685        1.5303405256       -1.5286976880
 N         -3.8279186240       -0.4893385058        0.8903057570
 C          1.0986791807        0.4490137253        0.1360361387
 C          1.4289857309       -1.0664063351        0.2492228503
 C          2.9343283828       -1.1194686459       -0.1499240516
 C          3.2601153864        0.3428349009       -0.5299402990
 C          4.1553970629        0.4892832709       -1.7549693353
 C         -1.3826273268        0.1940313766        0.1990976019
 C         -0.6362351784        1.4945562936       -1.3754158596
 C         -2.4326203530        0.7202364384       -0.5469903771
 C         -3.7858968577        0.3741765811       -0.2079044817
 C         -2.7992475131       -1.0308457422        1.6251230622
 H          1.2197561716        0.9147169307        1.1320056721
 H          0.8133374706       -1.6249986203       -0.4624829589
 H          3.0764938378       -1.7706949019       -1.0148407121
 H          3.7557961446        0.8215273833        0.3273467344
 H          4.9766449918       -0.2341728603       -1.6719927023
 H          3.5576715283        0.2749306704       -2.6485418687
 H          0.0742477448        2.0220131261       -1.9759961065
 H          2.0196585451       -1.5411737103        2.0289043274
 H          3.9406478357       -2.4545306930        0.8834641919
 H         -0.7351185278       -1.0691858644        1.7264346162
 H          5.1507393641        1.9441555388       -2.6029339346
 H         -4.7583054758       -0.7728190641        1.1836737453
  32
        -63.73476224
 O          1.3765162451       -0.5118676822       -0.7177939239
 O          2.7101882914        2.5118169628        0.2622312016
 O          4.3912235991        0.5439462021        0.8294668771
 O          2.5514550572       -3.1699985868       -1.0161470889
 O         -4.7323488918        0.9830077379        0.4667036771
 O         -2.5073863961       -2.9397788542        0.0439082300
 N         -0.2100436004        1.1484111544       -0.3713203414
 N         -1.2591622177       -1.0586430427       -0.1665319375
 N         -2.0213627640        2.4086379121       -0.0410536806
 N         -3.5416407850       -0.9307618854        0.2537451599
 C          1.1887712702        0.8661376773       -0.5708669130
 C          2.0638632478        1.3271441063        0.6228020073
 C          3.0590903636        0.1423277435        0.8216582784
 C          2.7144356140       -0.8182660637       -0.3418570040
 C          2.8210683306       -2.2942027994        0.0454869229
 C         -1.2457721626        0.2981961358       -0.1711422659
 C         -0.7494032380        2.4121852515       -0.2794082957
 C         -2.3758281760        1.0871998331        0.0334473703
 C         -3.6487271757        0.4623470395        0.2690620376
 C         -2.4394516557       -1.7245877697        0.0400819371
 H          1.5286360017        1.4153947480       -1.4664095035
 H          1.4352849659        1.4649264529        1.5093353114
 H          2.8811866132       -0.3536864291        1.7789339382
 H          3.3808140605       -0.6046688493       -1.1910798525
 H          3.8224821998       -2.4619561356        0.4604698646
 H          2.0764212275       -2.5210091029        0.8116369166
 H         -0.1531160842        3.2931696410       -0.3974581031
 H          3.1203787999        2.9171568783        1.0410112415
 H          4.5282156520        1.2100751306        0.1336630002
 H         -0.4138634304       -1.5826118903       -0.3727991751
 H          3.2310677387       -3.0814307434       -1.6993489600
 H         -4.4099828296       -1.4352718992        0.4082181925
  32
        -63.73469499
 O          1.5316921437       -0.7798563884       -0.4801002717
 O          3.2247694897        1.3288156498       -1.7704067472
 O          4.2444156334        1.2289250622        0.7208212053
 O          2.5789277957       -2.7743857334        1.5604233282
 O         -4.4602805889        0.7080229661        1.2539250050
 O         -3.1187358248       -2.4546395997       -1.7018532752
 N         -0.1123882453        0.8663761364       -0.2714502409
 N         -1.5635931025       -0.9160625091       -1.1137766320
 N         -1.5767142231        1.8649836380        1.0865713497
 N         -3.7167953507       -0.8226179603       -0.2402409672
 C          1.1071497831        0.4695750534       -0.9614473209
 C          2.2778777132        1.4437835798       -0.7447397881
 C          2.9181134608        0.8668220895        0.5389692991
 C          2.6879760412       -0.6477469024        0.3560305811
 C          2.4872581687       -1.3791437674        1.6840288327
 C         -1.2799775524        0.1772072033       -0.3620051677
 C         -0.3623575244        1.8700665494        0.6395611628
 C         -2.1932760429        0.8044403572        0.4756760256
 C         -3.5353829409        0.2962168281        0.5785285536
 C         -2.8215457929       -1.4657287576       -1.0588457036
 H          0.8678640632        0.3544015917       -2.0263416021
 H          1.9433241847        2.4750899670       -0.6199372318
 H          2.3747756393        1.2148674934        1.4231515769
 H          3.5392745386       -1.0942318496       -0.1735487905
 H          3.2883682965       -1.0832140734        2.3648505822
 H          1.5208113457       -1.0854336159        2.1165924494
 H          0.3688327811        2.5898739579        0.9397952171
 H          3.0155726911        1.9174372504       -2.5086071577
 H          4.7078260873        1.1535310853       -0.1309109716
 H         -0.8582756354       -1.3931098502       -1.6629771285
 H          1.8988886454       -3.0874068222        0.9475463470
 H         -4.6448492075       -1.2355343571       -0.2116611666
  32
        -63.73459296
 O          1.9503322039       -1.0659842750        0.6784223409
 O          2.5072448169       -0.2973243653       -2.3424906873
 O          4.2557806133        1.1159163873       -0.9543946983
 O          2.7160671798        1.0942189008        2.5236632237
 O         -4.4500760559        1.1444976287        1.0095670749
 O         -3.6909868594       -2.0795676700       -2.0830608136
 N         -0.0833129189       -0.0465184956        0.1614001531
 N         -1.8575304629       -1.1868503652       -1.1020484729
 N         -1.3745886807        1.2812491695        1.4046860466
 N         -3.9871957564       -0.4437614545       -0.5352130388
 C          1.1283302998       -0.6409483223       -0.3694002021
 C          1.9367272990        0.3547259300       -1.2402274921
 C          3.0733787406        0.8059025258       -0.2911078753
 C          3.2024367497       -0.3803906307        0.6870502327
 C          3.5676132532        0.0487820056        2.1071846389
 C         -1.3681073520       -0.3078013927       -0.1867094890
 C         -0.1599813232        0.9221733405        1.1373426215
 C         -2.1717037046        0.5282647988        0.5822206425
 C         -3.6006417175        0.4921769561        0.4303057462
 C         -3.2151057203       -1.2894173328       -1.2886100945
 H          0.8396768391       -1.5166994258       -0.9656529444
 H          1.3128490007        1.1997868811       -1.5390293052
 H          2.7738480350        1.6994607240        0.2627255304
 H          3.9734724862       -1.0733453498        0.3237502452
 H          3.4626677074       -0.8218443834        2.7639180270
 H          4.6120306122        0.3821811622        2.0957516704
 H          0.7124212715        1.2987607237        1.6318429096
 H          2.0253591275       -0.1033590187       -3.1573675031
 H          4.3692668948        0.4872833005       -1.6891503803
 H         -1.2732792838       -1.8346565133       -1.6164477169
 H          2.9482103812        1.3506583592        3.4265484335
 H         -4.9885778905       -0.5230657411       -0.6881148318
  32
        -63.73449243
 O          1.5826356785       -1.0834134719        0.3641309001
 O          2.4802200816        0.5915607984       -2.2284773996
 O          4.3245624101        1.0780473032       -0.3980965919
 O          4.7604471568       -0.7275797367        2.1348132287
 O         -4.6310987463        1.0707458164        1.1755145727
 O         -3.8013479293       -1.8881037048       -2.1544123325
 N         -0.2411543866        0.3073229952        0.0082007652
 N         -1.9882580703       -0.9156097553       -1.2092161754
 N         -1.5610772864        1.4546040305        1.3966681142
 N         -4.1346140253       -0.3876058077       -0.4834054109
 C          0.9711434473       -0.2197767915       -0.5687238231
 C          1.9934044254        0.8734122317       -0.9486862950
 C          3.0824988212        0.7289815248        0.1336360533
 C          2.9567190420       -0.7562014110        0.5230467183
 C          3.3990449845       -1.0355073716        1.9634318755
 C         -1.5202034808       -0.0469462667       -0.2769165105
 C         -0.3411571603        1.2121188701        1.0421627440
 C         -2.3412721593        0.6770116667        0.5814043699
 C         -3.7700569664        0.5257792223        0.5100834395
 C         -3.3426616725       -1.1146554434       -1.3351108859
 H          0.7066746611       -0.7770963201       -1.4769007908
 H          1.5287020480        1.8682861733       -0.9308186380
 H          2.8303067908        1.3573739449        0.9981010710
 H          3.5563102170       -1.3530784479       -0.1812081232
 H          2.8386162589       -0.3880367738        2.6431084204
 H          3.1732527839       -2.0749393197        2.2151046890
 H          0.5153267037        1.6622667946        1.4976873197
 H          3.3869028688        0.9381675478       -2.2920305930
 H          4.9960109602        1.0199131145        0.2977262225
 H         -1.3809301345       -1.4556833505       -1.8140558031
 H          5.3046308799       -1.4699405352        1.8377779028
 H         -5.1335615907       -0.5429551986       -0.5871403038
  32
        -63.73440674
 O          1.2528357087       -0.6372168748       -0.6232452754
 O          2.7096847863        2.4639301333        0.1060538152
 O          4.3714410625        0.4670231641        0.5399749964
 O          4.0929300198       -2.8325371024       -0.0654696291
 O         -4.8104576999        1.0891003197        0.5227226896
 O         -2.8150191608       -2.8781423031       -0.3741403109
 N         -0.2829844602        1.0871625690       -0.3043615268
 N         -1.4627485940       -1.0591434605       -0.3726399269
 N         -2.0163738536        2.4050637600        0.1829598836
 N         -3.7340765174       -0.8501643005        0.0690699460
 C          1.0903181371        0.7560150745       -0.5887904870
 C          2.0625022228        1.2997352537        0.5031176018
 C          3.0364546078        0.1046655393        0.7358837903
 C          2.6184829746       -0.9118177878       -0.3451919239
 C          2.7709237756       -2.3827645513        0.0536788881
 C         -1.3692659861        0.2845497767       -0.2101983476
 C         -0.7450200528        2.3609471252       -0.0562061179
 C         -2.4506066286        1.1083258132        0.0943844870
 C         -3.7586056390        0.5349592207        0.2570604461
 C         -2.6792109168       -1.6762513438       -0.2361200466
 H          1.3656017903        1.2060231826       -1.5589211543
 H          1.4943429348        1.5359175620        1.4077177060
 H          2.8735892050       -0.3211629011        1.7324000544
 H          3.2299661825       -0.7277908863       -1.2418683143
 H          2.3855765950       -2.5359337859        1.0701093991
 H          2.1831540663       -2.9907338242       -0.6373652973
 H         -0.0938185118        3.2106778536       -0.0668932193
 H          3.5491315905        2.2278547902       -0.3303516555
 H          4.6992926063        0.9660014226        1.3033922886
 H         -0.6398268060       -1.6077052789       -0.5984802880
 H          4.6753659479       -2.3079318742        0.5026815237
 H         -4.6306748381       -1.3176884768        0.1682030929
