  32
        -63.74392448
 O          1.5635417037       -0.0180555219       -1.3460710832
 O          2.3189324996        1.7686105518        1.6657485244
 O          4.2497144454        0.7886665627        0.1446603405
 O          1.4346952804       -2.3590897244        0.3776759772
 O         -4.6448520586        0.7733696145        0.0869804628
 O         -2.0393549324       -2.9143409327        0.4567348078
 N         -0.0894305067        1.2809319018       -0.3660442524
 N         -0.9539650120       -0.9669631500        0.0733867667
 N         -2.0277468461        2.3875454995       -0.3778553518
 N         -3.2730480759       -1.0194718569        0.2511631117
 C          1.3253063410        1.0534061313       -0.4702110417
 C          1.9986337122        0.6751991936        0.8753396681
 C          3.2156704872       -0.1323387852        0.3799830928
 C          2.6966165593       -0.7823808193       -0.9182471567
 C          2.2974964023       -2.2485340251       -0.7407581754
 C         -1.0643124423        0.3679640324       -0.1294230754
 C         -0.7431125200        2.4817187416       -0.5083651064
 C         -2.2732837824        1.0588514437       -0.1422061884
 C         -3.5026240265        0.3456562619        0.0634462348
 C         -2.0838835427       -1.7097050582        0.2721228290
 H          1.7737331713        1.9821105559       -0.8558242254
 H          1.3260368364        0.0346052209        1.4526484000
 H          3.5087161336       -0.8874752148        1.1133130741
 H          3.4538302272       -0.7149016401       -1.7076002408
 H          1.7915999355       -2.5789190917       -1.6538670620
 H          3.2018276583       -2.8447759251       -0.5858967028
 H         -0.2224536114        3.3970358373       -0.6990664322
 H          3.1728474147        2.1265969573        1.3627326014
 H          5.1020534345        0.3372498591        0.0809033213
 H         -0.0430132625       -1.4526069019        0.1164594836
 H          1.2002965373       -3.2882942864        0.5161651345
 H         -4.1036225655       -1.5847217011        0.4005291195
