32
xanthine_ribose  charge=0 mult=1  seed=1_b3lyp_pcm
O      2.11804400    -0.85479000    -0.44239600
O      0.70822500     2.35259200     0.32426200
O      3.26738900     2.37568600    -0.43453900
O      4.60119600    -2.17274400     0.06552300
O     -4.59733200    -1.87145700     0.22706100
O     -3.57694500     2.57392300     0.02632300
N     -0.18123600    -0.70144000    -0.24405300
N     -1.83274800     1.11197300    -0.13826900
N     -1.57505000    -2.44528600    -0.05134000
N     -4.01559500     0.33202400     0.09650800
C      1.04549700     0.04526100    -0.51588500
C      1.38507300     1.13251400     0.51975800
C      2.92323900     1.25297800     0.36812000
C      3.33786900    -0.10599300    -0.23054300
C      4.25152000    -0.93050000     0.65802700
C     -1.43924800    -0.19432400    -0.13472600
C     -0.33175000    -2.08197700    -0.19259800
C     -2.29391800    -1.26827600    -0.01432200
C     -3.70603600    -1.04206800     0.11484700
C     -3.16946200     1.42383300    -0.00318700
H      0.95559800     0.48645500    -1.51587000
H      1.13860400     0.75666200     1.51251900
H      3.38717700     1.42950200     1.33555800
H      3.81965400     0.04534200    -1.20124400
H      5.18118600    -0.38302000     0.80777000
H      3.77875100    -1.08022400     1.63309400
H      0.52129300    -2.73164100    -0.26250600
H      1.29441100     2.92924800    -0.19052400
H      3.31606900     2.13193600    -1.36582700
H     -1.15315300     1.86908600    -0.11932500
H      3.80662800    -2.71181400    -0.00901700
H     -4.99513200     0.56321400     0.18862600
