37
calc_1919781751783109; angstrom; atom order from source job; valid
N 3.422715 -1.882418 -0.078334
N 3.360413 0.490691 0.147445
N 5.455096 -0.642706 0.087325
N 1.426450 -0.757266 -0.016085
N 5.466151 -2.920027 -0.194482
N 5.348955 1.636183 0.320296
C 2.777043 -0.715190 0.025180
C 4.759075 -1.782118 -0.056808
C 4.707064 0.458815 0.188566
H 0.996585 -1.667910 -0.046046
H 4.989152 -3.802956 -0.222048
H 6.465181 -2.900317 -0.097600
H 4.832622 2.471673 0.528590
H 6.345151 1.637438 0.447799
P -4.874983 -0.748510 0.031597
O -0.743286 -0.161194 0.420264
O -0.810017 3.035192 0.666968
O 1.491247 2.466232 -0.565485
O -3.374078 -0.816758 -0.465226
O -4.717943 -0.328542 1.558449
O -5.261948 -2.285514 0.150278
O -5.784814 0.089634 -0.768127
C -0.896271 2.087902 -0.387918
C -1.700909 0.867985 0.088378
C 0.483845 1.489021 -0.694098
C 0.570980 0.355608 0.340549
C -2.664564 0.343214 -0.958844
H -1.340968 2.551386 -1.271574
H -2.250129 1.134498 0.992118
H 0.480422 1.048350 -1.695561
H 0.889056 0.770366 1.304483
H -3.374761 1.120296 -1.238344
H -2.134174 0.009609 -1.848153
H 0.057664 3.456559 0.584549
H 2.305656 1.981559 -0.304302
H -5.533834 -0.002070 1.958352
H -5.572219 -2.675844 -0.676353
