30
calc_1c065a2657004bf6; angstrom; atom order from source job; valid
O -1.206278 0.661882 -1.174077
O -1.283517 -2.249635 0.901767
O -3.408251 -1.428734 -0.529607
O -1.851620 2.199459 1.256853
O 1.305662 -2.299723 0.013777
N 0.872346 -0.093512 -0.359484
N 3.065653 -0.862899 0.096741
N 4.806598 0.622127 0.225239
C -1.337801 -0.863678 0.620988
C -2.761209 -0.430704 0.259585
C -0.540614 -0.452314 -0.631961
C -2.538811 0.809883 -0.604361
C -2.679440 2.144620 0.092605
C 1.308298 1.193396 -0.380639
C 1.760666 -1.136191 -0.074509
C 2.611578 1.489255 -0.173743
C 3.497590 0.399462 0.050739
H -0.991171 -0.277685 1.473470
H -3.355773 -0.208913 1.146108
H -0.514402 -1.272472 -1.350418
H -3.247447 0.802768 -1.432635
H -2.405684 2.937621 -0.607527
H -3.731482 2.273550 0.361302
H -0.376763 -2.534722 0.671786
H -3.116367 -2.287840 -0.193578
H 0.561927 1.943883 -0.579045
H -1.976958 3.058835 1.673975
H 2.962735 2.508489 -0.194250
H 5.176435 1.557258 0.205446
H 5.433262 -0.149142 0.385965
