34
calc_65dc9944805d507f; angstrom; atom order from source job; valid
P -4.200933 -0.401464 0.157997
O 0.339492 -0.530570 0.617295
O -1.583540 2.226875 -0.075491
O 0.886415 2.780396 -0.639303
O -3.049143 -1.059676 -0.698258
O 2.221587 -0.926135 -1.673030
O -4.308563 -1.381091 1.405546
O -5.477920 -0.610320 -0.750204
O -4.041281 1.026076 0.501582
O 6.411663 -1.048278 0.072636
N 2.559274 0.164070 0.331145
N 4.296953 -0.948423 -0.753998
C -0.931501 1.092853 -0.619436
C 0.583284 1.407309 -0.718531
C -1.004276 -0.131645 0.326752
C 1.173618 0.600314 0.458134
C -1.711510 -1.358901 -0.234023
C 2.964765 -0.596168 -0.768239
C 3.450510 0.473819 1.334998
C 4.745172 0.111006 1.320354
C 5.260420 -0.656367 0.213034
H -1.340621 0.857280 -1.602718
H 0.978032 1.028129 -1.654110
H -1.485368 0.191403 1.254293
H 1.142958 1.230903 1.350214
H -1.762622 -2.147433 0.514156
H -1.186484 -1.729223 -1.110149
H -2.505048 1.978907 0.128558
H 0.150207 3.209819 -0.180638
H 3.033061 1.043826 2.150763
H 4.601345 -1.493319 -1.549682
H 5.407293 0.380740 2.125811
H -4.709631 -0.985414 2.189838
H -5.675285 -1.524715 -0.990771
