34
calc_65dc9944805d507f; angstrom; first printed source-job orientation; unoptimized start
P 1.541982 3.626328 -0.210825
O -0.465638 -0.062615 1.123468
O 2.723012 0.186350 0.954531
O 2.169089 -2.212093 0.087286
O 0.576592 2.696037 -1.072477
O -1.478358 -1.000474 -1.409751
O 0.533562 4.389133 0.748261
O 2.041871 4.638514 -1.295596
O 2.661736 2.976293 0.491842
O -4.172586 -4.540922 -0.642198
N -1.066324 -2.228918 0.477647
N -2.800784 -2.772128 -0.967576
C 1.654869 0.192129 0.046241
C 1.178210 -1.263713 -0.131158
C 0.417015 0.920171 0.597148
C 0.022259 -1.361864 0.897414
C -0.294301 1.756722 -0.466199
C -1.761465 -1.933020 -0.678234
C -1.423631 -3.296926 1.249026
C -2.440959 -4.120293 0.938819
C -3.223846 -3.881795 -0.248496
H 1.964399 0.629228 -0.908777
H 0.783778 -1.412393 -1.139126
H 0.713855 1.574660 1.425815
H 0.417619 -1.777067 1.835009
H -1.134996 2.278251 -0.002744
H -0.660420 1.107611 -1.265296
H 3.085934 1.087746 0.996236
H 2.841199 -1.814893 0.671263
H -0.825633 -3.450431 2.134061
H -3.314182 -2.554266 -1.817375
H -2.699746 -4.961334 1.556328
H 0.937926 4.851855 1.490558
H 1.366581 5.046534 -1.853229
