32
calc_68f76f635567b570; angstrom; atom order from source job; valid
O -1.551031 0.296902 -1.191625
O -2.077895 -2.158323 1.336255
O -4.125403 -0.925328 0.019634
O -1.184874 2.944837 -0.528887
N 0.285306 -0.975023 -0.505823
N 2.277326 -2.000681 -0.527937
N 1.023669 1.262357 0.175280
N 3.389875 1.359559 0.521215
N 4.791982 -0.450459 0.214110
C -1.844084 -0.881788 0.826277
C -1.159532 -0.883256 -0.552441
C -3.117076 -0.073945 0.530227
C -2.596545 0.958295 -0.457550
C -2.067444 2.201544 0.265650
C 1.206918 -0.028539 -0.131439
C 0.997510 -2.125035 -0.727964
C 2.426694 -0.683858 -0.151436
C 3.559927 0.070487 0.196131
C 2.160032 1.869419 0.488873
H -1.217465 -0.347290 1.540114
H -1.489252 -1.759299 -1.119285
H -3.522687 0.384848 1.429745
H -3.355293 1.247028 -1.184898
H -2.919798 2.830996 0.524336
H -1.577259 1.908914 1.200317
H -2.893874 -2.479412 0.936240
H -4.038137 -1.016927 -0.931426
H 0.498584 -3.029627 -1.038615
H -0.345375 2.455265 -0.486930
H 2.079746 2.918838 0.748067
H 4.944513 -1.412594 -0.025329
H 5.574404 0.124333 0.468747
