32
calc_68f76f635567b570; angstrom; first printed source-job orientation; unoptimized start
O 1.692690 0.392910 0.274990
O -1.862790 0.938720 -0.021440
O -0.819820 -1.324600 0.757510
O 3.373250 -0.861110 -1.618940
N 0.964680 2.616760 -0.006880
N 1.453620 4.772860 0.293410
N 1.786380 2.317350 -2.282540
N 2.795430 4.352790 -3.140350
N 2.906050 6.369310 -1.936250
C -0.554000 0.673400 -0.532840
C 0.547250 1.274800 0.340240
C -0.227290 -0.811910 -0.452680
C 1.294740 -0.835160 -0.385380
C 1.956450 -0.918580 -1.762040
C 1.543290 3.034740 -1.173590
C 0.911740 3.700800 0.832650
C 1.849330 4.370660 -0.962900
C 2.506060 5.040050 -2.011040
C 2.417010 3.060610 -3.215530
H -0.506910 1.027990 -1.566410
H 0.226650 1.301200 1.389670
H -0.648270 -1.387860 -1.281610
H 1.665790 -1.654680 0.240110
H 1.703910 -1.861320 -2.256230
H 1.652210 -0.106120 -2.422080
H -2.127790 0.136630 0.477180
H -0.151250 -1.315940 1.468990
H 0.482880 3.650650 1.826140
H 3.559940 -0.043560 -1.116770
H 2.656570 2.552370 -4.145620
H 2.989570 6.703570 -0.982440
H 3.668580 6.565680 -2.568700
