35
calc_21d1ee35118554b9; angstrom; atom order from source job; valid
P -2.064080 -2.015530 0.137354
O -0.331523 0.937515 1.197656
O -2.157927 3.111485 -0.907301
O 0.287232 3.830697 -0.228040
O -2.544894 -0.527725 -0.118732
O 0.557647 -0.303606 -1.285424
O -1.066163 -2.280970 -1.035963
O -3.298797 -2.941855 -0.229551
O -1.619999 -2.288386 1.509182
N 1.808241 0.700200 0.310168
N 2.580759 -1.215298 -0.835849
N 4.627864 -2.098842 -0.372720
C -1.293492 2.031996 -0.630983
C 0.183936 2.465351 -0.559559
C -1.560686 1.501664 0.775984
C 0.739349 1.640481 0.616784
C -2.664124 0.476147 0.886754
C 2.965921 0.752137 1.022084
C 1.620713 -0.300700 -0.643441
C 3.950942 -0.142276 0.829405
C 3.709270 -1.160196 -0.139526
H -1.405353 1.234152 -1.358876
H 0.718365 2.255325 -1.484959
H -1.831714 2.345097 1.423263
H 1.159431 2.345524 1.335487
H -3.622186 0.968792 0.729972
H -2.653197 0.023208 1.876994
H -2.362808 3.124900 -1.843024
H -0.540002 4.243661 -0.503476
H 3.043900 1.550099 1.745594
H 4.868406 -0.093579 1.392606
H 5.498416 -2.115827 0.125353
H 4.443372 -2.814605 -1.052957
H -0.396257 -1.549106 -1.175547
H -3.592799 -2.871970 -1.141558
