  20
        -36.15942901
 O         -0.3672856214        0.3201319098       -1.3814011025
 O          1.7342977637       -1.7043990357       -0.0667120544
 O          2.2932449181        0.8148939236        0.4143423039
 O         -0.9098132417        1.9733234484        0.1489952075
 O         -2.0807692695       -0.4113462811        1.1196386486
 C          0.6104054809       -0.9801965440        0.3429711270
 C         -0.5103575340       -0.9351587160       -0.7155300324
 C          0.9365303793        0.5213249528        0.5932368284
 C          0.1243104033        1.2741008312       -0.4778135456
 C         -1.9060497590       -1.1072075212       -0.0897372250
 H          0.2524778805       -1.4667075493        1.2522352303
 H         -0.3685048157       -1.7032210210       -1.4800558792
 H          0.5837670572        0.8399328523        1.5810164025
 H          0.7750027953        1.9524821700       -1.0434194184
 H         -2.6549742369       -0.7984612453       -0.8305169866
 H         -2.0553855979       -2.1616958174        0.1495792354
 H          2.1814119401       -1.2246862805       -0.7819725686
 H          2.8127006037        0.3443656082        1.0841339401
 H         -1.3603976319        2.5469603926       -0.4899249110
 H         -1.9166591752        0.5377754111        0.9642363539
  20
        -36.15929373
 O         -0.3506498821        0.3744101543       -1.3862843497
 O          1.5608559914       -1.6796809394        0.0906503876
 O          2.3994293056        0.7970739219        0.3191112928
 O         -0.6394413823        2.2716329728       -0.0773915154
 O         -2.2635849548       -1.6603646975        1.0225207059
 C          0.5361666459       -0.8025172056        0.4645237327
 C         -0.6224639156       -0.7445323021       -0.5496018644
 C          1.0218337310        0.6741545977        0.5321915253
 C          0.2754006832        1.3749499432       -0.6206840966
 C         -1.9815298707       -0.5911305542        0.1574686881
 H          0.1728202873       -1.1615915543        1.4297929665
 H         -0.6244439938       -1.6268012538       -1.1968053674
 H          0.7161933407        1.1496835656        1.4714670036
 H          0.9892443301        1.8836939033       -1.2831273983
 H         -1.9599151829        0.3080312238        0.7781712081
 H         -2.7629059927       -0.4723058247       -0.6026751967
 H          2.0296454634       -1.3165953894       -0.6773315170
 H          2.8748728877        0.3656593424        1.0454850189
 H         -1.0808308782        2.7671580907       -0.7841388984
 H         -2.3884694858       -2.4715876051        0.5093555540
  20
        -36.15914172
 O         -0.3680658686        0.3618671034       -1.3630295971
 O          1.6601030161       -1.7213594233        0.0393569684
 O          2.3790809705        0.7703133524        0.2602612444
 O         -0.9306117643        1.9436325372        0.2357376166
 O         -2.1513130795       -0.4784939376        1.0602976059
 C          0.5869448149       -0.9006010261        0.4193483514
 C         -0.4711363615       -0.8964741220       -0.6992575629
 C          1.0240962455        0.5897736013        0.5416144777
 C          0.1109844457        1.3263616045       -0.4647433632
 C         -1.8892936855       -1.1393710851       -0.1529983304
 H          0.1301300207       -1.2460847010        1.3513246442
 H         -0.2362415067       -1.6563457609       -1.4492730303
 H          0.8417047580        0.9922114379        1.5407592528
 H          0.6812692101        2.0583234044       -1.0490888930
 H         -2.6074133202       -0.8379213680       -0.9264940329
 H         -2.0141909381       -2.2037916711        0.0538052638
 H          2.1953588722       -1.9422843648        0.8155464890
 H          2.6490595492        0.0896535388       -0.3829773764
 H         -1.4302780956        2.5283497045       -0.3552796287
 H         -1.9545739803        0.4716099878        0.9517260315
  20
        -36.15903163
 O         -0.3541476582        0.4258158055       -1.3690628327
 O          1.4636578696       -1.6811662827        0.2465479122
 O          2.4749379859        0.7174571873        0.1446584431
 O         -0.6733924431        2.2515175010        0.0346469037
 O         -2.2537950667       -1.7367429237        0.9289451676
 C          0.5083747439       -0.6965322150        0.5469583300
 C         -0.5856056908       -0.7030049636       -0.5359401296
 C          1.1168697858        0.7343015781        0.4659866123
 C          0.2567902335        1.4387981813       -0.6085748889
 C         -1.9926777077       -0.6461925550        0.0842017509
 H          0.0517603348       -0.8782577513        1.5247827240
 H         -0.4773044967       -1.5886538174       -1.1700892521
 H          1.0137548324        1.2808139330        1.4058394163
 H          0.8842487923        2.0175330518       -1.2996938434
 H         -2.0680699101        0.2492534088        0.7064309428
 H         -2.7296639682       -0.5765730237       -0.7244451743
 H          2.0309379242       -1.8308210311        1.0170276893
 H          2.6377517426       -0.0289299018       -0.4595269259
 H         -1.1834989180        2.7561408529       -0.6170278906
 H         -2.2962734536       -2.5512897332        0.4075726643
  20
        -36.15894893
 O         -0.3565561431        0.3200347926       -1.3997945429
 O          1.6139139860       -1.6079627650       -0.0902321125
 O          2.3559689214        0.8181181809        0.5612262800
 O         -0.6006772649        2.2857033058       -0.1882211535
 O         -2.2568203154       -1.6030290545        1.1143896987
 C          0.5534558140       -0.8423792202        0.4173679769
 C         -0.6489924905       -0.7688414167       -0.5296242435
 C          0.9706897588        0.6464795584        0.5548745799
 C          0.2937081349        1.3320466308       -0.6594646363
 C         -1.9662952579       -0.5474184863        0.2358608053
 H          0.2853888458       -1.2840204263        1.3781829587
 H         -0.7236159454       -1.6602132771       -1.1596900662
 H          0.5512989103        1.0942856262        1.4629534505
 H          1.0446737325        1.7833728515       -1.3226287423
 H         -1.8775344205        0.3511895308        0.8507007679
 H         -2.7723695559       -0.3928922093       -0.4907153095
 H          1.7165539662       -1.4320468442       -1.0383272032
 H          2.7635161823       -0.0638704810        0.4537145564
 H         -0.9982421855        2.7688875390       -0.9288569580
 H         -2.4849030077       -2.3973201237        0.6098638100
  20
        -36.15871893
 O         -0.7565970647        0.6182804730       -0.7835961006
 O          1.5171118711       -1.6316561961        0.8261775119
 O          2.2601663525        0.3490236244       -0.8367977352
 O         -0.3022686248        2.3084600022        0.7413341044
 O         -2.7493915275       -1.5428453588       -0.5424669975
 C          0.6900181719       -0.5188154269        0.7263701404
 C         -0.4816445015       -0.6857685005       -0.2628155183
 C          1.3905579575        0.7449967168        0.1883347389
 C          0.1880502523        1.5544157101       -0.3200772062
 C         -1.7324323695       -1.2740370828        0.3891900733
 H          0.2974338186       -0.3176555598        1.7279419378
 H         -0.1765514156       -1.3243824941       -1.1024270830
 H          1.9049795488        1.2939270893        0.9818213611
 H          0.4454455750        2.1949846058       -1.1767363853
 H         -1.4722953057       -2.2290376886        0.8498798138
 H         -2.0902569341       -0.5842483786        1.1653705682
 H          2.1037312044       -1.6454848834        0.0507687491
 H          2.8598045017        1.0701475327       -1.0714613508
 H         -1.0921857866        2.7986434442        0.4651771977
 H         -2.9383826700       -0.7288006120       -1.0316872691
  20
        -36.15869193
 O         -0.3871995164        0.2857950793       -1.3917353853
 O          1.7752825489       -1.5916509831       -0.1944455348
 O          2.2789708781        0.8026443190        0.5926029097
 O         -0.8812148395        1.9982811221        0.0826080507
 O         -2.0548990369       -0.3572325689        1.1545553754
 C          0.6144592552       -0.9950663140        0.3266626887
 C         -0.5339871119       -0.9531214788       -0.6998956083
 C          0.9182324750        0.5023490273        0.5927676363
 C          0.1366093138        1.2505517168       -0.5178084108
 C         -1.9163003456       -1.0911204888       -0.0368737790
 H          0.2889974312       -1.4869502567        1.2468936113
 H         -0.4227593437       -1.7282578933       -1.4623364241
 H          0.5093744818        0.8172004879        1.5580100633
 H          0.8060147201        1.8945489869       -1.1009661013
 H         -2.6772084451       -0.7949989740       -0.7702406294
 H         -2.0762048282       -2.1355253354        0.2381570731
 H          1.7451409059       -2.5493115868       -0.0719883708
 H          2.7407471756        0.0996830958        0.1000456673
 H         -1.3127579898        2.5651282795       -0.5752616341
 H         -1.8974949752        0.5861666396        0.9648232737
  20
        -36.15852636
 O         -0.3800362771        0.3383383409       -1.3936719731
 O          1.6127977906       -1.5742303692       -0.0772660025
 O          2.3771007744        0.8096938121        0.5380244668
 O         -0.5723494064        2.3078374278       -0.1861594139
 O         -2.2679160106       -1.6376030645        1.0808677460
 C          0.5408021889       -0.8250115060        0.4403881981
 C         -0.6518115637       -0.7571776331       -0.5290652929
 C          0.9931519269        0.6543631181        0.5351351611
 C          0.3003201453        1.3379683362       -0.6732466639
 C         -1.9775652670       -0.5592753208        0.2285030129
 H          0.2219705446       -1.2039397908        1.4150425989
 H         -0.7003559099       -1.6421537058       -1.1702727744
 H          0.6065379723        1.1281055787        1.4426543416
 H          1.0429228146        1.7786291261       -1.3525593037
 H         -1.8953537682        0.3267423443        0.8628342922
 H         -2.7784140027       -0.3913416340       -0.4997721528
 H          1.5166870339       -2.5059397329        0.1592358592
 H          2.7635421033        0.0319156835        0.0948179423
 H         -0.9833468299        2.7872078325       -0.9219940281
 H         -2.5357449422       -2.4058132127        0.5560285279
  20
        -36.15851182
 O         -0.3962051708        0.4904849930       -1.2703784256
 O          1.5720246015       -1.7683257988        0.4474413715
 O          2.3959579754        0.6513883629       -0.2441280501
 O         -0.9246750611        1.9205433823        0.4961782899
 O         -2.2318129604       -0.5195033872        0.8293703224
 C          0.5873198615       -0.7787938261        0.5111976991
 C         -0.3893433553       -0.8195394757       -0.6943368305
 C          1.1709660055        0.6532040643        0.4411864203
 C          0.0745903224        1.4198020429       -0.3230570401
 C         -1.7974330991       -1.2662982586       -0.2913625184
 H          0.0278800591       -0.9189273904        1.4411652140
 H         -0.0187190820       -1.5032657763       -1.4646238238
 H          1.3569854760        1.0834564002        1.4253645543
 H          0.4795589717        2.2760174318       -0.8729022024
 H         -2.4635007997       -1.1048047441       -1.1455987240
 H         -1.7573816612       -2.3334645710       -0.0469773730
 H          2.4031223647       -1.3430420334        0.1635066660
 H          2.2335815468        0.5638471793       -1.1962027738
 H         -1.4918943624        1.1795975453        0.7995293488
 H         -3.1445542601       -0.7616216116        1.0403099561
  20
        -36.15845456
 O         -0.4262047816        0.4828172019       -1.2712560831
 O          1.5816153487       -1.7708663046        0.4268603573
 O          2.3863211890        0.6221457116       -0.2191671076
 O         -0.9204221888        1.9453584484        0.4728586935
 O         -2.2259505025       -0.5195975641        0.8242384207
 C          0.5957564716       -0.7865321580        0.4912816148
 C         -0.3928571262       -0.8265647405       -0.7051801289
 C          1.1542299466        0.6540434299        0.4541127491
 C          0.0694267976        1.4119003983       -0.3446756678
 C         -1.7919289939       -1.2861566139       -0.2834786990
 H          0.0457945608       -0.9515408592        1.4220151453
 H         -0.0227454944       -1.5004698448       -1.4840060015
 H          1.2533555312        1.0784735722        1.4583113361
 H          0.4834460355        2.2484111312       -0.9172832091
 H         -2.4671643964       -1.1502187077       -1.1349587875
 H         -1.7361928176       -2.3473644838       -0.0174610777
 H          2.3207392658       -1.4233066009       -0.1011314644
 H          2.8349930658        1.4741350423       -0.1394948722
 H         -1.5047726150        1.2184582727        0.7742646030
 H         -3.1293045035       -0.7782555754        1.0555094131
  20
        -36.15842361
 O         -0.3816338435        0.3457442177       -1.3530272378
 O          1.7371256475       -1.7101641037       -0.0509343494
 O          2.3167216562        0.8122259832        0.3340618373
 O         -0.9234193960        2.0228161643        0.1580387917
 O         -2.0650036481       -0.3473781863        1.0305242682
 C          0.6237604548       -0.9665007655        0.3535089537
 C         -0.4931523149       -0.9219433365       -0.7141376159
 C          0.9676880277        0.5320844792        0.5894680642
 C          0.0977402351        1.2984472408       -0.4353315496
 C         -1.8857184100       -1.1578777266       -0.1162697762
 H          0.2625366398       -1.4412469238        1.2672703452
 H         -0.3199322396       -1.6720691967       -1.4908740955
 H          0.6798869178        0.8505171846        1.5979142937
 H          0.7035490077        2.0190331738       -0.9941993115
 H         -2.6311389231       -0.9132252813       -0.8815141647
 H         -1.9642435375       -2.2173402118        0.1487515018
 H          2.2228761373       -1.2088176383       -0.7257935889
 H          2.8652330640        0.3911672390        1.0137076565
 H         -1.5251810109        1.3898536221        0.6051724828
 H         -2.9293077520       -0.5400355614        1.4220471780
  20
        -36.15835401
 O         -0.3831602745        0.3289494460       -1.3952253151
 O          1.6014257507       -1.5727300316       -0.0829874775
 O          2.3737053137        0.8033565537        0.5456470467
 O         -0.5614219764        2.3105740050       -0.2056103287
 O         -2.2021351382       -1.6792290072        1.0432784859
 C          0.5324582436       -0.8259054492        0.4416775337
 C         -0.6651681388       -0.7534780517       -0.5199820862
 C          0.9895732105        0.6503639666        0.5341942681
 C          0.3050525964        1.3295918102       -0.6819512797
 C         -1.9824920281       -0.5451810684        0.2367896990
 H          0.2226483078       -1.2137743227        1.4160450290
 H         -0.7386927623       -1.6499126659       -1.1411638600
 H          0.5998071134        1.1301561793        1.4372673069
 H          1.0523650536        1.7581921571       -1.3633439180
 H         -1.9054979658        0.3668690664        0.8420209768
 H         -2.7852647269       -0.4183586549       -0.4992811368
 H          1.4253694496       -2.5171632002        0.0205645454
 H          2.7623748040        0.0262005784        0.1047715502
 H         -0.9597480956        2.7926131485       -0.9467240181
 H         -3.0449907230       -1.5822045152        1.5083493092
  20
        -36.15828941
 O         -0.3598607337        0.3019244424       -1.3990247752
 O          1.6067807703       -1.5973261278       -0.1206666563
 O          2.3494517826        0.8121463339        0.5855282732
 O         -0.5841173714        2.2889887252       -0.2182973167
 O         -2.2055601402       -1.6468622027        1.0723857031
 C          0.5498775073       -0.8475049636        0.4182051490
 C         -0.6639832858       -0.7682946090       -0.5119550661
 C          0.9653943279        0.6415135797        0.5565876676
 C          0.3012430534        1.3179026694       -0.6712488197
 C         -1.9666054580       -0.5230178421        0.2586009109
 H          0.3015973269       -1.3046098501        1.3762243329
 H         -0.7713391959       -1.6738506813       -1.1148482501
 H          0.5376517975        1.0955831398        1.4568427766
 H          1.0595333680        1.7504931831       -1.3382560815
 H         -1.8645570793        0.3900244066        0.8579333949
 H         -2.7731608443       -0.3817678543       -0.4714393947
 H          1.6528897644       -1.4507713603       -1.0779453448
 H          2.7557697339       -0.0576264400        0.3995756430
 H         -0.9663491347        2.7713529123       -0.9675627635
 H         -3.0363876500       -1.5228819474        1.5524634246
  20
        -36.15813597
 O         -0.6797919119        0.7351069250       -1.0957802403
 O          1.0579562283       -1.4993345265        1.1120518351
 O          2.2903252554        0.2245568622       -0.5703991188
 O         -0.3031180982        2.5492436290        0.3001209883
 O         -1.9050977747       -2.4119470917        0.3274704020
 C          0.3817546380       -0.3444385595        0.7287705278
 C         -0.5757310191       -0.5383035245       -0.4655732643
 C          1.2870984123        0.7948309025        0.2243290892
 C          0.2752312502        1.6344536813       -0.5727973834
 C         -1.9538870015       -1.0601217376       -0.0517817072
 H         -0.1815309270        0.0073492956        1.5997968043
 H         -0.1298144405       -1.2456070506       -1.1801845419
 H          1.6965824526        1.3876170980        1.0473800414
 H          0.7367010709        2.1442607845       -1.4321458277
 H         -2.3526297780       -0.4364872740        0.7602762679
 H         -2.6325670682       -1.0012920879       -0.9052105138
 H          1.7946317797       -1.6412373598        0.4946037482
 H          2.9760215437        0.8756917125       -0.7722027227
 H         -1.0166086424        3.0293681719       -0.1481045829
 H         -1.2195894551       -2.5288780913        1.0028089543
  20
        -36.15808529
 O         -0.4016082321        0.3265977794       -1.3888283644
 O          1.5795899329       -1.6147779818       -0.1135128021
 O          2.3480695982        0.7696150992        0.5727531231
 O         -0.5519275367        2.3360639089       -0.2338873161
 O         -2.2405774808       -1.6710373776        1.1043670375
 C          0.5541468284       -0.8264572808        0.4292357945
 C         -0.6433415994       -0.7807419732       -0.5292160577
 C          0.9543247341        0.6614004468        0.5479731806
 C          0.2950828647        1.3266041880       -0.6866940614
 C         -1.9773882939       -0.6142043093        0.2189921156
 H          0.2524494068       -1.2363713812        1.4023731913
 H         -0.6561747101       -1.6713998162       -1.1635150470
 H          0.4974081607        1.1001290411        1.4417028745
 H          1.0537732590        1.7266865571       -1.3761894135
 H         -1.9360117715        0.2923461092        0.8280712827
 H         -2.7792475633       -0.4999333728       -0.5202506740
 H          2.4250406227       -1.1667369350        0.0584766474
 H          2.6134195745        1.6462573440        0.8818212450
 H         -1.0018597515        2.7543513591       -0.9837517858
 H         -2.3750851489       -2.4889556577        0.6043642763
  20
        -36.15807543
 O         -0.3885767660        0.4109497593       -1.3155980593
 O          1.6261561803       -1.7552375301        0.1440155514
 O          2.4161274779        0.7538451229        0.0821078443
 O         -0.9391392089        1.9788916734        0.3138188086
 O         -2.1723492073       -0.4413428828        0.9296324108
 C          0.5983886575       -0.8536827646        0.4550121885
 C         -0.4352535030       -0.8688018875       -0.6897919736
 C          1.0903484179        0.6197559915        0.5082467692
 C          0.0831532270        1.3685405435       -0.3998753321
 C         -1.8456230962       -1.2213516393       -0.2050707995
 H          0.1145222266       -1.1259180131        1.4003950467
 H         -0.1348819060       -1.5971000154       -1.4494760271
 H          1.0520037845        1.0359270554        1.5169114271
 H          0.5726138567        2.1622701445       -0.9734841003
 H         -2.5434807500       -1.0237908919       -1.0256957849
 H         -1.8627253887       -2.2871685357        0.0467782274
 H          2.3105070285       -1.7112476701        0.8284220045
 H          2.5346666897        0.2715621250       -0.7515365912
 H         -1.5118955934        1.2818101352        0.6996997078
 H         -3.0730199867       -0.6537799830        1.2138039987
  20
        -36.15805909
 O         -0.6233786532        0.5498302710       -0.9292972456
 O          1.5776950498       -1.6680385308        0.7006405033
 O          2.3506350672        0.4768976282       -0.7524087548
 O         -0.4540484739        2.1227600636        0.7817062821
 O         -2.8146563433       -1.3801186264       -0.4625819201
 C          0.7166084067       -0.5710228443        0.7079582760
 C         -0.4753755620       -0.7158293043       -0.2690367172
 C          1.3897226170        0.7358244499        0.2320880417
 C          0.1826771854        1.5178859103       -0.2944712042
 C         -1.7718007081       -1.1113220122        0.4406622891
 H          0.3393840565       -0.4423840599        1.7276557337
 H         -0.2556723021       -1.4638060035       -1.0399089180
 H          1.8916197549        1.2677187420        1.0398069437
 H          0.4608908214        2.2486310973       -1.0652358108
 H         -1.6017849662       -2.0338050800        0.9990438342
 H         -2.0560046903       -0.3132210541        1.1394968429
 H          2.3298915718       -1.4605251221        0.1162264696
 H          1.9128428993        0.2219708232       -1.5792920269
 H         -1.1691011679        2.7010411695        0.4743433130
 H         -2.9258961085       -0.6126337460       -1.0427631366
  20
        -36.15791754
 O         -0.5870185221        0.7020270163       -1.1867672879
 O          1.1160282640       -1.5219754237        1.0063333537
 O          2.3452525012        0.3533512127       -0.4881596631
 O         -0.3745652188        2.4971078853        0.2585545786
 O         -1.8299586376       -2.2458887317        0.5303254535
 C          0.3513119716       -0.3918909199        0.7051945732
 C         -0.5564446871       -0.5592400852       -0.5278005939
 C          1.2596662161        0.7750656353        0.2860357510
 C          0.3020494899        1.6103217060       -0.5703267653
 C         -1.9637836903       -1.0178256250       -0.1486104674
 H         -0.2516057522       -0.0762313455        1.5679021732
 H         -0.1042783813       -1.2954323846       -1.2068454852
 H          1.5972779439        1.3628260811        1.1491246893
 H          0.8430659347        2.1330530443       -1.3709210129
 H         -2.4227887128       -0.2572601579        0.4960087484
 H         -2.5618918040       -1.1225657466       -1.0603416868
 H          0.5150649144       -2.2631020201        1.1760866551
 H          2.6839145200       -0.4682671847       -0.0932386008
 H         -0.9868805983        3.0376519081       -0.2647919309
 H         -2.7074034418       -2.5941347455        0.7423230212
  20
        -36.15791262
 O         -0.3496510918        0.3530112855       -1.3863531556
 O          1.5635712138       -1.6713482343        0.0513334862
 O          2.3951279609        0.7995196160        0.3507063325
 O         -0.6256506712        2.2731348577       -0.1087431677
 O         -2.2209430310       -1.6979449661        0.9781236305
 C          0.5374677844       -0.8128830234        0.4608929901
 C         -0.6385156376       -0.7452667373       -0.5300517454
 C          1.0149036660        0.6658104937        0.5355581947
 C          0.2841035407        1.3594115473       -0.6317095573
 C         -1.9788372187       -0.5556943234        0.1910908462
 H          0.2018016376       -1.1946731163        1.4261648432
 H         -0.6837879094       -1.6437548960       -1.1508828998
 H          0.6909227983        1.1409508250        1.4700940466
 H          1.0073352953        1.8509777299       -1.2965846157
 H         -1.9249131664        0.3490379346        0.8100710589
 H         -2.7594014189       -0.4237242506       -0.5682981443
 H          1.9435807788       -1.3448244742       -0.7787993590
 H          2.8580930816        0.2675244968        1.0166175232
 H         -1.0516551910        2.7669745832       -0.8260935665
 H         -3.0796587686       -1.6072803873        1.4148757619
  20
        -36.15783741
 O         -0.4099505868        0.2575153351       -1.3837538103
 O          1.7664971182       -1.6206911368       -0.2646992530
 O          2.2503224325        0.7600826894        0.6364551392
 O         -0.8693987644        2.0240885334        0.0416515123
 O         -2.0521592661       -0.3466808093        1.1367834971
 C          0.6435985265       -1.0067243298        0.3070480996
 C         -0.5230595764       -0.9859816459       -0.6930300028
 C          0.8773069365        0.4919127271        0.6120011629
 C          0.1306095011        1.2292951562       -0.5283155250
 C         -1.8924187732       -1.1430011463       -0.0119179651
 H          0.3582563975       -1.5475289253        1.2185294922
 H         -0.3977458637       -1.7676546929       -1.4457879241
 H          0.3921078330        0.7528796867        1.5572298698
 H          0.8221017411        1.8368081031       -1.1275206094
 H         -2.6705427862       -0.9185658762       -0.7525592822
 H         -2.0039540893       -2.1762153939        0.3211258234
 H          2.5427179396       -1.0661402214       -0.0733533588
 H          2.4322168483        1.5530056310        1.1582163843
 H         -1.3125865328        2.5457144529       -0.6453012979
 H         -1.9372836020        0.5900490139        0.8917176532
  20
        -36.15783191
 O         -0.6767179264        0.5619996967       -0.8804442883
 O          1.5426108197       -1.6675775520        0.6263142926
 O          2.3523856945        0.4925299952       -0.7270332048
 O         -0.4027555111        2.2374719022        0.6986533850
 O         -2.7960129893       -1.4317135146       -0.4929467828
 C          0.6964305886       -0.5577987304        0.7224186958
 C         -0.4787901597       -0.7102077734       -0.2593925976
 C          1.3822136073        0.7439022635        0.2482180837
 C          0.1956494149        1.5216958352       -0.3339801986
 C         -1.7667084059       -1.1732721729        0.4269642354
 H          0.3095747262       -0.4155091720        1.7366484646
 H         -0.2110787105       -1.4269050439       -1.0458375663
 H          1.8211029514        1.3129458194        1.0766789265
 H          0.5100095040        2.1760017271       -1.1575083414
 H         -1.5784298678       -2.1142675905        0.9475185666
 H         -2.0782165287       -0.4099866562        1.1534323648
 H          2.0683286087       -1.7602312496        1.4338791630
 H          2.5388062203       -0.4656145894       -0.7187998674
 H         -1.1217858022        2.7878142754        0.3522540276
 H         -2.9111267282       -0.6497811945       -1.0524394673
  20
        -36.15777666
 O         -0.3979066796        0.2613956650       -1.3749257452
 O          1.8053720498       -1.5751582829       -0.3122736164
 O          2.2315983967        0.8109840512        0.6913940847
 O         -0.8741136610        2.0685856631       -0.0010243809
 O         -1.9825204082       -0.2415826342        1.1137863711
 C          0.6559714715       -1.0252249875        0.2746585830
 C         -0.5385828439       -0.9790304834       -0.6884367877
 C          0.8776264588        0.4677351257        0.6291287117
 C          0.1184305379        1.2366621794       -0.4893817672
 C         -1.8927266646       -1.1290321462        0.0159669602
 H          0.4526305379       -1.6246148248        1.1623612855
 H         -0.4688724923       -1.7590179714       -1.4519503095
 H          0.4092405491        0.7117351799        1.5897512188
 H          0.7963924581        1.8787311173       -1.0611513075
 H         -2.6789503571       -0.9127447660       -0.7169764274
 H         -1.9812405252       -2.1671057341        0.3529495525
 H          1.8969791884       -1.2456714462       -1.2195855621
 H          2.7501475916        0.0160907544        0.4599209366
 H         -1.5016868531        1.5208875549        0.5134849126
 H         -2.8084262738       -0.4113610908        1.5898232234
  20
        -36.15773345
 O         -0.5833233610        0.4536295477       -0.9942248010
 O          1.6144478484       -1.7162875146        0.3582896731
 O          2.4830222055        0.6452210130       -0.4636898541
 O         -0.5602910297        2.1227625614        0.6234494170
 O         -2.8794832838       -1.2498158396       -0.3439518421
 C          0.7382201095       -0.6671437610        0.6601336566
 C         -0.4931829875       -0.7692113119       -0.2607510195
 C          1.3434149349        0.7257713515        0.3392782166
 C          0.1720757980        1.4502266811       -0.3514145252
 C         -1.7899586113       -1.0246761445        0.5146495310
 H          0.4199197822       -0.7003169524        1.7085362741
 H         -0.3460269768       -1.5714475570       -0.9924371030
 H          1.6221197082        1.2776824552        1.2395301688
 H          0.5296560362        2.1309929659       -1.1346329395
 H         -1.6834932068       -1.9292865624        1.1159186641
 H         -1.9840615563       -0.1679718604        1.1748565038
 H          2.3474146707       -1.7279885620        0.9914040892
 H          2.4055356613       -0.1259739325       -1.0494941713
 H         -1.2315040297        2.6887562139        0.2127061801
 H         -2.9093993142       -0.5337567206       -0.9953042804
  20
        -36.15766832
 O         -0.5357951022        0.3247221542       -1.0673839810
 O          1.7556357756       -1.7025144248       -0.0339732101
 O          2.4962318571        0.8115503234       -0.0597570864
 O         -0.6281887348        2.1241902727        0.3998082904
 O         -2.9625943382       -1.0426668001       -0.1014864796
 C          0.7849130693       -0.8588044865        0.5143871787
 C         -0.5403264154       -0.8630747314       -0.2744101639
 C          1.2247204483        0.6346255414        0.4965093017
 C          0.1868602424        1.3302707555       -0.4025169224
 C         -1.7736666548       -0.9049599883        0.6370653185
 H          0.6271642942       -1.2143018952        1.5341944707
 H         -0.5821045555       -1.7034703385       -0.9742003313
 H          1.1577526824        1.0781190015        1.4963574137
 H          0.6908599329        1.9236409413       -1.1770359310
 H         -1.7198375218       -1.7783434024        1.2888698781
 H         -1.7988056841        0.0066621139        1.2492603955
 H          2.0566443560       -1.3378711484       -0.8819309617
 H          3.1604907109        0.4176244890        0.5264856755
 H         -1.2046758635        2.6788091128       -0.1471096237
 H         -2.9761177723       -0.3623307556       -0.7904361946
  20
        -36.15761890
 O         -0.3546276418        0.3948858401       -1.3757304543
 O          1.4895239698       -1.6696914044        0.1650579506
 O          2.4620214041        0.7328020406        0.2239478689
 O         -0.6579423688        2.2625244018       -0.0264801909
 O         -2.2050847141       -1.7511515126        0.9136543039
 C          0.5133832650       -0.7275258221        0.5301905559
 C         -0.6077336855       -0.7126088220       -0.5236167041
 C          1.0914453557        0.7184405079        0.4830152091
 C          0.2671806904        1.4116692698       -0.6279869308
 C         -1.9924498459       -0.6034031906        0.1254382414
 H          0.0891482428       -0.9602544172        1.5090773949
 H         -0.5562947880       -1.6159054827       -1.1376195841
 H          0.9293487847        1.2579883088        1.4190761736
 H          0.9218683348        1.9590895791       -1.3192039820
 H         -2.0235704772        0.3082107609        0.7365814787
 H         -2.7375555448       -0.5257997656       -0.6751684023
 H          1.9747653809       -1.9622856956        0.9496748897
 H          2.6698394310       -0.0460219091       -0.3257441416
 H         -1.1400191216        2.7620163550       -0.7030968156
 H         -3.0998333422       -1.7224277487        1.2810525130
  20
        -36.15755361
 O         -0.4509551215        0.6143769912       -1.2503015841
 O          1.2350596721       -1.5871681139        0.9093450717
 O          2.4010092478        0.4003761003       -0.5106155288
 O         -0.5395236933        2.2759094446        0.3807238705
 O         -2.1854207626       -2.1251988179        0.4679979943
 C          0.4660548186       -0.4429885279        0.6902956416
 C         -0.5460422059       -0.5855707434       -0.4771102486
 C          1.3028198874        0.7855505193        0.2676285627
 C          0.2627278063        1.5879519596       -0.5199131619
 C         -1.9839740269       -0.8139089015        0.0063524194
 H         -0.0683934253       -0.2117583001        1.6182249784
 H         -0.2646180896       -1.4236249954       -1.1262301947
 H          1.6891409412        1.3448574170        1.1192290645
 H          0.7180090758        2.2614666288       -1.2577412230
 H         -2.2305224240       -0.0774420187        0.7836406903
 H         -2.6661262110       -0.6793912756       -0.8361378234
 H          2.0916627731       -1.4708160218        0.4609493927
 H          2.0977001141        0.1367099747       -1.3932093926
 H         -1.1930337513        2.8127899310       -0.0932442886
 H         -1.5390977436       -2.3267910795        1.1599750805
  20
        -36.15751362
 O         -0.3577448975        0.5160675586       -1.3334870003
 O          1.3660504129       -1.6742007790        0.6058616329
 O          2.4655946064        0.5675097782       -0.2062107735
 O         -0.6832557902        2.2032934131        0.2441847465
 O         -2.2245062641       -1.8425279815        0.7948266988
 C          0.4847703731       -0.5860855891        0.6165554048
 C         -0.5439281338       -0.6552616272       -0.5386087155
 C          1.2106379900        0.7643352606        0.3810523350
 C          0.2364673091        1.5157752153       -0.5379165427
 C         -1.9889391342       -0.7246496030       -0.0199801918
 H         -0.0480291537       -0.5772372780        1.5743631721
 H         -0.3305983081       -1.5163535916       -1.1810202195
 H          1.3756175103        1.3136014096        1.3078972093
 H          0.7620628941        2.1904866894       -1.2268640820
 H         -2.1820139515        0.1505631841        0.6053907892
 H         -2.6715730792       -0.7037874354       -0.8793230646
 H          2.2682738281       -1.3301945362        0.4668801044
 H          2.3541385496        0.2873515735       -1.1283690837
 H         -1.2627294840        2.7446332614       -0.3141853014
 H         -2.0901775572       -2.6534584958        0.2842214527
  20
        -36.15748376
 O         -0.6094482598        0.7159581418       -1.1468259081
 O          1.1323048919       -1.5064851363        1.0274947109
 O          2.3363057603        0.3394092412       -0.5353772655
 O         -0.3348398526        2.5168717993        0.2801979006
 O         -1.9416044654       -2.3016801655        0.4629660180
 C          0.3698204179       -0.3755966456        0.7224007305
 C         -0.5603586446       -0.5501002792       -0.4941847704
 C          1.2801423908        0.7779886923        0.2697686922
 C          0.3067920538        1.6179803574       -0.5631869079
 C         -1.9688355557       -1.0134722923       -0.1026343410
 H         -0.2159373746       -0.0386708802        1.5878360455
 H         -0.1052819406       -1.2727979802       -1.1876550789
 H          1.6491347285        1.3667233467        1.1190224008
 H          0.8299128704        2.1309263628       -1.3822125432
 H         -2.3676507257       -0.3436685316        0.6635776390
 H         -2.6190824753       -0.9636968099       -0.9809979476
 H          0.5454120162       -2.1989188375        1.3642244197
 H          2.7071854059       -0.4598080513       -0.1245988001
 H         -0.9730865313        3.0456011117       -0.2239192399
 H         -1.8790470499       -2.9640282823       -0.2394022090
  20
        -36.15748320
 O         -0.3812057479        0.4587041502       -1.3100524889
 O          1.5692036984       -1.7714083684        0.4008254999
 O          2.4108923679        0.6688595998       -0.1375458092
 O         -0.9162794058        1.8724183064        0.4551835185
 O         -2.2545193538       -0.6042781222        0.9327530060
 C          0.5708412740       -0.7956211511        0.4955230345
 C         -0.4148880453       -0.8365334672       -0.6978549962
 C          1.1413577537        0.6456226854        0.4516339160
 C          0.0952742308        1.3998725291       -0.3818197992
 C         -1.8423496545       -1.2097427307       -0.2674562115
 H          0.0140603904       -0.9574505385        1.4259304538
 H         -0.0777203740       -1.5503029175       -1.4548753705
 H          1.2446975386        1.0826980094        1.4449011913
 H          0.5465969593        2.2158181945       -0.9581930018
 H         -2.5238373831       -0.9451745935       -1.0875882372
 H         -1.8906240650       -2.2863321850       -0.0943401141
 H          2.4240642893       -1.3174691914        0.2785662226
 H          2.3348922384        0.4874029737       -1.0876301156
 H         -1.4776492212        2.5058279781       -0.0187571132
 H         -2.0302872602        0.3453327631        0.9027079978
  20
        -36.15745105
 O         -0.5247661039        0.2332726463       -1.1147734470
 O          1.7783491882       -1.5718669471       -0.3557965893
 O          2.4913802424        0.8529610839        0.3652827466
 O         -0.5876056436        2.1797530693        0.1515018404
 O         -2.9768053826       -1.0337450085        0.1354725553
 C          0.8030939350       -0.9263006727        0.4195688142
 C         -0.5739403010       -0.9041918745       -0.2501468772
 C          1.1375720166        0.5804349541        0.5613758011
 C          0.2269816057        1.2571302099       -0.4944446453
 C         -1.7335214403       -0.8086433421        0.7518642148
 H          0.7972745899       -1.4344457783        1.3838505919
 H         -0.7329489754       -1.7757962619       -0.8921887255
 H          0.8392335341        0.9611357993        1.5445172730
 H          0.8277208326        1.7373021456       -1.2787612705
 H         -1.6290547698       -1.5904804923        1.5058296093
 H         -1.7100890681        0.1729708269        1.2415008605
 H          1.6473703069       -1.3568358527       -1.2923049065
 H          2.9208314663        0.0247795379        0.0734901599
 H         -1.0666101630        2.7226984983       -0.4925687023
 H         -3.0936575383       -0.3920877359       -0.5797000505
  20
        -36.15741898
 O         -0.5035184743        0.6441311530       -1.2257512362
 O          1.2492012606       -1.5560193778        0.8841482592
 O          2.3924942570        0.4264466325       -0.4659696343
 O         -0.4597924889        2.3944739176        0.2945527757
 O         -2.1019259639       -2.1492875870        0.5424372441
 C          0.4212702703       -0.4445482757        0.6906307366
 C         -0.5530624672       -0.5838719692       -0.5016582971
 C          1.2776489186        0.7757449596        0.3024486352
 C          0.2947410103        1.5852155997       -0.5485374723
 C         -1.9927043928       -0.8820257260       -0.0565147248
 H         -0.1429851833       -0.2028584954        1.5989934769
 H         -0.1948638085       -1.3744160352       -1.1748220629
 H          1.5780367999        1.3572203393        1.1835313424
 H          0.8204229646        2.1686099939       -1.3152986610
 H         -2.2919866900       -0.1520885150        0.7000852370
 H         -2.6573615719       -0.7790063541       -0.9202872596
 H          0.7464617209       -2.2648917516        1.3080327305
 H          2.7342989180       -0.4173061963       -0.1236166142
 H         -1.0667171544        2.9425466153       -0.2267599132
 H         -2.0966745174       -2.8325344428       -0.1427700493
  20
        -36.15724794
 O         -0.6702561980        0.5645265858       -0.8757856609
 O          1.6203991641       -1.6301932147        0.6550641747
 O          2.3235471253        0.4934247308       -0.7668234696
 O         -0.3911169370        2.2140643036        0.7288778379
 O         -2.8185893644       -1.3864593058       -0.5024666150
 C          0.6999522056       -0.5789882941        0.7135687757
 C         -0.4866791306       -0.7175079545       -0.2646502892
 C          1.3870735051        0.7187198965        0.2458227970
 C          0.2041305902        1.5121679011       -0.3147266462
 C         -1.7862353704       -1.1515755954        0.4209404034
 H          0.3222466209       -0.4273425747        1.7326547284
 H         -0.2372767001       -1.4236233639       -1.0666852862
 H          1.8406832293        1.2618468684        1.0847946121
 H          0.5230742604        2.1764421907       -1.1278903981
 H         -1.6344487226       -2.0958446830        0.9469244025
 H         -2.0793669775       -0.3784098429        1.1443337928
 H          1.2514871220       -2.4270489094        1.0582970294
 H          2.7889402599       -0.3351694035       -0.5602073493
 H         -1.0958061730        2.7866366971        0.3887942778
 H         -2.9125419090       -0.6029673749       -1.0635379572
  20
        -36.15716466
 O         -0.7544139705        0.5832554151       -0.9783024674
 O          1.3980364666       -1.7080031280        0.7591786071
 O          2.3594854168        0.4498828349       -0.4767489761
 O         -0.4855397610        2.3430129176        0.4962899728
 O         -2.4227934348       -1.0779794597        0.6688011977
 C          0.5291391045       -0.6347677812        0.5888535679
 C         -0.3891386960       -0.7539280264       -0.6420873761
 C          1.2369181240        0.7087541896        0.3245596805
 C          0.1516282692        1.5132155395       -0.4144317575
 C         -1.6454166766       -1.5880533464       -0.3837989044
 H         -0.0893672533       -0.5670944029        1.4895311343
 H          0.1731462960       -1.1932445842       -1.4782213339
 H          1.5009360229        1.2204560630        1.2537227596
 H          0.5871613524        2.0945723473       -1.2435064624
 H         -2.2339393034       -1.6423425690       -1.3079584154
 H         -1.3397628342       -2.5923861799       -0.0858077911
 H          2.1462172511       -1.5892954307        0.1491163958
 H          2.9762263519        1.1937648944       -0.4485091354
 H         -1.1694349633        2.8674677880        0.0522015832
 H         -2.6629413473       -0.1658184622        0.4500174351
  20
        -36.15711646
 O         -0.5578723568        0.2528354639       -1.0963201725
 O          1.7785538650       -1.5295405909       -0.3561330512
 O          2.5016360549        0.8506460215        0.3634477202
 O         -0.5417111159        2.2170529909        0.1358266019
 O         -2.9862514851       -1.0621492579        0.1150923757
 C          0.7927809266       -0.9181156651        0.4367426158
 C         -0.5816309429       -0.8967494449       -0.2509105067
 C          1.1478774205        0.5829950418        0.5441942232
 C          0.2348432688        1.2593786153       -0.5106941224
 C         -1.7496657253       -0.8359012243        0.7442817411
 H          0.7421438312       -1.3808250904        1.4266801003
 H         -0.7198187480       -1.7534754486       -0.9175377883
 H          0.8632396973        0.9829421540        1.5223826655
 H          0.8335836331        1.7108271346       -1.3135465767
 H         -1.6456878729       -1.6294573152        1.4862966878
 H         -1.7387011540        0.1375565166        1.2513125659
 H          1.6960523684       -2.4917602827       -0.3114028127
 H          2.8697994208        0.1583116319       -0.2145172154
 H         -1.0323905244        2.7485052046       -0.5092850625
 H         -3.0968151968       -0.4189380936       -0.5996673951
  20
        -36.15699937
 O         -0.6982781888        0.5691200588       -1.0400820018
 O          1.4166198720       -1.7157853168        0.6384449903
 O          2.3881379837        0.5380884771       -0.4119191008
 O         -0.5255932558        2.3137262074        0.4575137590
 O         -2.4081345132       -1.0132161651        0.7051322914
 C          0.5158745129       -0.6451000683        0.5928874685
 C         -0.3870519073       -0.7637643465       -0.6435252990
 C          1.2265362841        0.7039133211        0.3514180527
 C          0.1716095569        1.5029649409       -0.4270585591
 C         -1.6776043848       -1.5422708622       -0.3719525168
 H         -0.1128424317       -0.5828641281        1.4870261427
 H          0.1714270862       -1.2587719656       -1.4497749513
 H          1.4596140792        1.2322586568        1.2845918613
 H          0.6532824776        2.0918331745       -1.2217033819
 H         -2.2816273465       -1.5504867764       -1.2866798093
 H         -1.4194495013       -2.5664315816       -0.0980773105
 H          1.6955908094       -1.8792165649        1.5505715856
 H          2.6530093823       -0.3991247469       -0.3420762511
 H         -1.1341593935        2.8924799865       -0.0266496689
 H         -2.6320031100       -0.0943300930        0.4985171961
  20
        -36.15697588
 O         -0.3765561161        0.4097264880       -1.3286551734
 O          1.5261621021       -1.6950064247        0.2256163682
 O          2.4689266487        0.7463612553        0.0706662383
 O         -0.6271856888        2.2621404346        0.0520340440
 O         -2.4344855953       -1.8109688587        0.7433548875
 C          0.5585124241       -0.7320770092        0.5288438447
 C         -0.6163959686       -0.7045346353       -0.4749215365
 C          1.1292375418        0.7170771044        0.4735926150
 C          0.2701367204        1.4170032908       -0.5947061931
 C         -1.9876269941       -0.5888203649        0.2142720322
 H          0.2104380991       -0.9743413083        1.5351251245
 H         -0.6141936088       -1.5967834424       -1.1089164822
 H          0.9843479572        1.2403877772        1.4251756584
 H          0.9057213590        1.9651521862       -1.3027913642
 H         -1.9493483375        0.1928280990        0.9840824698
 H         -2.7256954484       -0.3041658149       -0.5387162114
 H          1.9945990541       -1.4303547911       -0.5821364454
 H          3.0230515300        0.3697708216        0.7714325042
 H         -1.1468407685        2.7581121456       -0.5984098982
 H         -1.8219068162       -2.1224308525        1.4242498712
  20
        -36.15680591
 O         -0.3748816014        0.2996705604       -1.3582688535
 O          1.6252542440       -1.5965068930       -0.1381148169
 O          2.4067258099        0.8221280500        0.5025822726
 O         -0.5775401857        2.2820748989       -0.1645281923
 O         -2.4564786296       -1.6746761923        0.9381403116
 C          0.5958994137       -0.8321325409        0.4328306637
 C         -0.6554111865       -0.7632877984       -0.4506465331
 C          1.0224997293        0.6571498637        0.5382090244
 C          0.2998486618        1.3249059979       -0.6601650482
 C         -1.9531032372       -0.5089603104        0.3379427471
 H          0.4096771770       -1.2671889431        1.4150431321
 H         -0.7839282467       -1.6685920758       -1.0515128884
 H          0.6381307304        1.1210723534        1.4532866899
 H          1.0221665834        1.7683281896       -1.3590663230
 H         -1.7961085363        0.2905465794        1.0711319638
 H         -2.7183211012       -0.1853765795       -0.3712813514
 H          1.6424197704       -1.4542749230       -1.0970286653
 H          2.8032189106       -0.0503869557        0.3087008239
 H         -1.0056664493        2.7570300567       -0.8931029784
 H         -1.8766602715       -1.9597643786        1.6575466702
  20
        -36.15666236
 O         -0.7115607081        0.6060381028       -0.8472089461
 O          1.5309233722       -1.6374591954        0.7753885123
 O          2.2910542997        0.3890966669       -0.7966892415
 O         -0.3605148453        2.2627750715        0.7464384778
 O         -2.8048548872       -1.4695154333       -0.4754052187
 C          0.6952821392       -0.5268485080        0.7117637666
 C         -0.4801941706       -0.6841763268       -0.2807169589
 C          1.3880356546        0.7559392487        0.2102790145
 C          0.1848235838        1.5512575908       -0.3189704792
 C         -1.7332579143       -1.2384829595        0.4020375223
 H          0.3034768859       -0.3576448288        1.7192650591
 H         -0.1804462657       -1.3495928365       -1.1018799961
 H          1.8725094886        1.3016991425        1.0246236310
 H          0.4535513861        2.2231374429       -1.1475603307
 H         -1.4461822692       -2.1603258533        0.9261710085
 H         -2.0996577265       -0.5127101282        1.1311303061
 H          2.1454242004       -1.5970477163        0.0222702968
 H          2.8731464959        1.1287475293       -1.0172462335
 H         -1.1691232703        2.7149722341        0.4604301724
 H         -2.5320977200       -2.0912903073       -1.1651937938
  20
        -36.15664624
 O         -0.4155698942        0.2738461732       -1.3714518246
 O          1.8065233705       -1.5417432002       -0.2966742010
 O          2.2527125447        0.8087365542        0.6708272246
 O         -0.8599833819        2.0775777505        0.0115344619
 O         -1.9965865745       -0.2511918725        1.0989643165
 C          0.6441994630       -1.0182082853        0.2937963656
 C         -0.5386803180       -0.9702932765       -0.6926841334
 C          0.8993887470        0.4755960784        0.6105187956
 C          0.1224754293        1.2419483093       -0.4999622996
 C         -1.8987406063       -1.1342559218       -0.0020056228
 H          0.3819255343       -1.5673985567        1.2025332673
 H         -0.4468037162       -1.7367197917       -1.4671637603
 H          0.4609167557        0.7446737374        1.5765028766
 H          0.7904128251        1.8837181460       -1.0833695941
 H         -2.6792050881       -0.9166091666       -0.7401911939
 H         -1.9899715445       -2.1737105783        0.3312754174
 H          1.7661452650       -2.5070303211       -0.3198919369
 H          2.7394743195        0.1995404744        0.0884809676
 H         -1.4904039268        1.5255674804        0.5174267615
 H         -2.8347678758       -0.4098124220        1.5572206168
  20
        -36.15661968
 O         -0.3880836720        0.4824048303       -1.3073158525
 O          1.3853371756       -1.6818308816        0.4677309756
 O          2.5094684503        0.6239528640       -0.1566811074
 O         -0.6350416422        2.2412961009        0.1957108700
 O         -2.3577742770       -1.9271405783        0.6321383216
 C          0.5209323743       -0.5901751909        0.6205468419
 C         -0.5728892578       -0.6535260488       -0.4668821959
 C          1.2284379907        0.7727877347        0.3768890161
 C          0.2537916609        1.4952494629       -0.5732214982
 C         -1.9971838429       -0.6736268872        0.1117365401
 H          0.0647334612       -0.5915253204        1.6193967158
 H         -0.4278571675       -1.5436596669       -1.0883591815
 H          1.3385076887        1.3534223868        1.2943433906
 H          0.7864681523        2.1221206285       -1.2999628008
 H         -2.0961953983        0.1175882547        0.8669180549
 H         -2.6985450287       -0.4752441631       -0.7015401207
 H          2.1319818775       -1.5946763939        1.0793786059
 H          2.4801126888       -0.0056405738       -0.8945865082
 H         -1.2222045230        2.7579817928       -0.3770124178
 H         -1.7590400566       -2.1714668818        1.3517339115
  20
        -36.15650507
 O         -0.6959608928        0.5871420848       -1.0346791145
 O          1.4425745419       -1.6726396309        0.7244067741
 O          2.3664856822        0.5209000154       -0.4782638303
 O         -0.5000807403        2.3077677857        0.4858937808
 O         -2.3993491417       -1.0487195463        0.7157267824
 C          0.5074544715       -0.6404001043        0.5913604869
 C         -0.3935216478       -0.7550075766       -0.6528524223
 C          1.2394612499        0.6877643514        0.3341866410
 C          0.1840099412        1.5067054745       -0.4176130243
 C         -1.6992470001       -1.5186931480       -0.4084005399
 H         -0.1218718885       -0.5363714194        1.4839361737
 H          0.1681183695       -1.2354248344       -1.4662679974
 H          1.5033549787        1.1982532282        1.2694440777
 H          0.6632056776        2.1035463676       -1.2073335529
 H         -2.3159596134       -1.4454252302       -1.3117828498
 H         -1.4771687955       -2.5686071912       -0.2125011155
 H          1.0140669588       -2.4669601062        1.0692869498
 H          2.8326508454       -0.2769163504       -0.1757774142
 H         -1.1089833247        2.8976299921        0.0154816180
 H         -2.6205256803       -0.1177851817        0.5718874965
  20
        -36.15650411
 O         -0.5065152422        0.3126597361       -1.0919049931
 O          1.7775437743       -1.6869297873       -0.0847147972
 O          2.4894691598        0.8326278300       -0.0252839904
 O         -0.6727143858        2.0745202392        0.4175126136
 O         -2.9731111232       -0.8806262987       -0.0618156867
 C          0.7967016742       -0.8732014505        0.4909847095
 C         -0.5291818665       -0.8726844564       -0.3018078891
 C          1.2132444565        0.6275309150        0.5102787850
 C          0.1728604428        1.3198053934       -0.3916236045
 C         -1.7511550421       -0.9238037791        0.6288311360
 H          0.6439558537       -1.2595289433        1.5003750797
 H         -0.5619207899       -1.7070090482       -1.0096650836
 H          1.1238875834        1.0515942578        1.5162789521
 H          0.6708730007        1.9476480590       -1.1441935634
 H         -1.6815221568       -1.8312849969        1.2431734950
 H         -1.7465345600       -0.0474219058        1.2809060341
 H          2.1086240846       -1.2619999173       -0.8927560451
 H          3.1554455383        0.4753494001        0.5821307627
 H         -1.3465354119        2.5108976273       -0.1259171320
 H         -3.0243233190       -1.6240254453       -0.6795715101
  20
        -36.15648306
 O         -0.6035561571        0.2482959523       -1.0656641628
 O          1.7299159170       -1.5591796106       -0.4170251228
 O          2.4779272173        0.8119239256        0.4232776804
 O         -0.4844911775        2.2828034834        0.0463545390
 O         -2.9732082416       -1.1300405298        0.1286724709
 C          0.8062361890       -0.9160209458        0.4178144534
 C         -0.5747702442       -0.9205461167       -0.2460077514
 C          1.1059740188        0.5889364578        0.5649849238
 C          0.2388073541        1.2453054921       -0.5347815478
 C         -1.7355298945       -0.9116934864        0.7572699953
 H          0.7840439431       -1.4115381336        1.3974644187
 H         -0.6737547097       -1.7765163548       -0.9197412507
 H          0.7325166360        0.9460154235        1.5318463371
 H          0.8641764086        1.6137684837       -1.3626730149
 H         -1.6131344093       -1.7268809137        1.4719643823
 H         -1.7392564658        0.0462973417        1.2951117076
 H          2.5925266368       -1.1250192048       -0.3049301460
 H          2.7077087685        1.7035664510        0.7189290957
 H         -1.0149534470        2.7412344189       -0.6225662479
 H         -3.0686810421       -0.4974315260       -0.5981412815
  20
        -36.15640938
 O         -0.5590645959        0.5112684818       -0.9894989244
 O          1.6289023630       -1.6887240343        0.5764519805
 O          2.3870045002        0.5542104310       -0.6712619959
 O         -0.5525639860        2.0293713929        0.7812786756
 O         -2.8838603450       -1.1812649870       -0.3809815635
 C          0.7391763945       -0.6174620720        0.6751407473
 C         -0.4668404415       -0.7362522716       -0.2942351581
 C          1.3752096899        0.7363826221        0.2789818740
 C          0.1627433661        1.4890651198       -0.2802500000
 C         -1.7621896573       -1.0676382409        0.4562336050
 H          0.3763994243       -0.5688842356        1.7068854253
 H         -0.2733651918       -1.5053344111       -1.0507091977
 H          1.8172684747        1.2560312349        1.1283994379
 H          0.4464953462        2.2591702477       -1.0105168760
 H         -1.5961836283       -1.9930156046        1.0237747075
 H         -1.9912837609       -0.2584443534        1.1531403137
 H          2.3994131986       -1.3950855368        0.0551949467
 H          1.9911606708        0.3512401830       -1.5332630426
 H         -1.3279061700        2.5081440328        0.4496407557
 H         -2.7392568998       -1.8887010985       -1.0253156005
  20
        -36.15639239
 O         -0.9664607689        0.6939240652       -0.3381782597
 O          1.5186076013       -1.7011576500        0.6590864539
 O          2.2998410629        0.3978742341       -0.7288785290
 O         -0.1202444699        2.7086744166        0.3490567357
 O         -2.7221891913       -1.6848102423       -0.5955746834
 C          0.6860387211       -0.5898166028        0.7181014347
 C         -0.5428644574       -0.6584821517       -0.2113047021
 C          1.3490883405        0.7252078059        0.2517643486
 C          0.1615955461        1.5413695093       -0.3375657643
 C         -1.6857633143       -1.5080779877        0.3354787600
 H          0.3462339258       -0.5014241705        1.7549036319
 H         -0.2367198990       -1.0433369047       -1.1952995262
 H          1.8036583342        1.2742458758        1.0818830230
 H          0.4078885166        1.8406836998       -1.3684971457
 H         -1.2990496783       -2.5034039306        0.5631063867
 H         -2.0654176220       -1.0476103747        1.2564317287
 H          2.1078456118       -1.5977941212       -0.1080539406
 H          2.9061014372        1.1365967867       -0.8728465377
 H         -0.6825216931        2.5130271313        1.1143124484
 H         -3.0594911753       -0.8140623442       -0.8512434955
  20
        -36.15636188
 O         -0.4087503607        0.3054789597       -1.3905697364
 O          1.5759437044       -1.5959735317       -0.1673655502
 O          2.3247202271        0.7727858983        0.6288857766
 O         -0.5186971124        2.3448229088       -0.2852901261
 O         -2.1762692906       -1.7021168182        1.0867654879
 C          0.5517532193       -0.8397994509        0.4206213793
 C         -0.6595429774       -0.7878426105       -0.5175551016
 C          0.9344070324        0.6499775790        0.5545468675
 C          0.3081168986        1.3038159847       -0.7027804492
 C         -1.9784520244       -0.5952786533        0.2406502749
 H          0.2755620511       -1.2784150880        1.3878674524
 H         -0.7042592533       -1.6917617831       -1.1292970225
 H          0.4432980160        1.0846502447        1.4324294393
 H          1.0861045435        1.6675293170       -1.3908079049
 H         -1.9245683053        0.3382942330        0.8166418086
 H         -2.7830347206       -0.5094332135       -0.4994814324
 H          2.4243280298       -1.1847558278        0.0702968124
 H          2.5691354574        1.6605704702        0.9237695641
 H         -0.9440630377        2.7592004244       -1.0515184540
 H         -3.0388936410       -1.6230580433        1.5189553629
  20
        -36.15631449
 O         -0.8947037451        0.5756669680       -0.8256559631
 O          1.4913690467       -1.7538462573        0.4251246635
 O          2.4188168882        0.6703536878       -0.0827668889
 O         -0.2867238739        2.5817679842        0.0896879454
 O         -2.4001452122       -1.1941163649        0.8293549951
 C          0.5247788886       -0.7535388876        0.5233086518
 C         -0.4975369418       -0.7737191247       -0.6327838725
 C          1.1209481184        0.6799938194        0.4494531530
 C          0.1841050074        1.4342573510       -0.5143611204
 C         -1.7370729507       -1.6194812888       -0.3328461753
 H          0.0015312295       -0.9115119114        1.4701788120
 H         -0.0101361360       -1.1498848813       -1.5448358464
 H          1.0837694565        1.1870258994        1.4172917657
 H          0.7462281925        1.6643373263       -1.4390611496
 H         -2.4099358758       -1.5841329838       -1.1981871993
 H         -1.4254479925       -2.6499376800       -0.1545931369
 H          2.1265789370       -1.5005975809       -0.2674877595
 H          3.0590424360        0.5144387287        0.6271210343
 H         -0.9161288586        3.0331374613       -0.4942077955
 H         -2.6483160636       -0.2654229574        0.7112510162
  20
        -36.15628429
 O         -0.5246672578        0.4003737591       -1.0489797544
 O          1.6741216833       -1.7172215422        0.1935380934
 O          2.5083532008        0.7274096128       -0.3236949910
 O         -0.6544682804        2.0355471172        0.6023362119
 O         -2.9348770103       -1.0019625083       -0.2388823278
 C          0.7662721034       -0.7335782832        0.6065526289
 C         -0.4875536480       -0.8049009855       -0.2897598352
 C          1.3110348592        0.7076622219        0.3934764978
 C          0.1514874165        1.4079222772       -0.3444726788
 C         -1.7664956055       -0.9968013242        0.5389157806
 H          0.4824790884       -0.8767861827        1.6559094087
 H         -0.3810533746       -1.6203558265       -1.0132410697
 H          1.5000379673        1.2233844484        1.3364786525
 H          0.5223520207        2.1217953389       -1.0929191967
 H         -1.6706224820       -1.9306839749        1.1091260455
 H         -1.8743891791       -0.1607724145        1.2338952213
 H          2.4674729039       -1.6848920184        0.7492704415
 H          2.4457408829        0.1057426456       -1.0669999607
 H         -1.3993765054        2.4735121121        0.1623245749
 H         -2.8784285844       -1.6998937051       -0.9068742147
  20
        -36.15620831
 O         -0.5105707602        0.5035033146       -1.1715241674
 O          1.5737165526       -1.7619973649        0.5477079897
 O          2.3666521433        0.5699629258       -0.4204986764
 O         -0.8372189574        1.9396605840        0.6321809223
 O         -2.4199491480       -0.5052173460        0.5970560604
 C          0.6251209325       -0.7418421069        0.5333363792
 C         -0.3577271810       -0.8242917602       -0.6624847226
 C          1.2282818431        0.6709939344        0.3944867739
 C          0.0722043867        1.4280414489       -0.2889284153
 C         -1.7230509490       -1.3970281013       -0.2471865715
 H          0.0655539493       -0.8218403212        1.4709785112
 H          0.0716923204       -1.4399214426       -1.4597238300
 H          1.4618549429        1.1179100744        1.3662233990
 H          0.4116714897        2.2787546353       -0.8873430056
 H         -2.3113090776       -1.6274940725       -1.1388470004
 H         -1.5571805082       -2.3141071000        0.3217040570
 H          2.2990461468       -1.5073936510       -0.0476356815
 H          2.8475835764        1.4080027355       -0.4340406416
 H         -1.3214510249        1.2041495430        1.0549254814
 H         -2.8586422181        0.1588392316        0.0450275108
  20
        -36.15616989
 O         -0.5670932987        0.2933630570       -1.0690198118
 O          1.7459994398       -1.6665420606       -0.1572768219
 O          2.5187939348        0.7750045269        0.0989821794
 O         -0.6035799718        2.1790058744        0.2910934647
 O         -2.9641813862       -1.0793830009       -0.0397213125
 C          0.7944310899       -0.8685929282        0.4897501220
 C         -0.5477939180       -0.8849081213       -0.2636509848
 C          1.1890951899        0.6306362788        0.5114790725
 C          0.1869561726        1.3063351940       -0.4552373572
 C         -1.7622740085       -0.9184760811        0.6719854348
 H          0.6627096003       -1.2495118281        1.5098687143
 H         -0.5883606486       -1.7335709258       -0.9526900440
 H          1.0179505513        1.0483055501        1.5069173235
 H          0.7136312667        1.8373463082       -1.2611488538
 H         -1.6891179972       -1.7763586032        1.3420783432
 H         -1.7843474491        0.0066866424        1.2645941963
 H          2.5117317222       -1.1059595199       -0.3775175631
 H          2.9400456480        1.5212795016        0.5452442733
 H         -1.1976381882        2.6782762710       -0.2892707215
 H         -2.9858520813       -0.4277530998       -0.7557893423
  20
        -36.15606439
 O         -0.4004192397        0.4626810266       -1.2916142178
 O          1.6480213511       -1.7200913660        0.3116547635
 O          2.3973940741        0.7181858504       -0.1156143671
 O         -0.9084880423        1.9686322899        0.4021599927
 O         -2.2042864351       -0.4750612734        0.8757040896
 C          0.5824201681       -0.8233532246        0.4761040878
 C         -0.4211319028       -0.8381823234       -0.7064810668
 C          1.1334174521        0.6216997843        0.4783732519
 C          0.0957872494        1.3926485850       -0.3648973706
 C         -1.8401487335       -1.2241445922       -0.2690961980
 H          0.0490324856       -1.0062640877        1.4134634992
 H         -0.0873649061       -1.5292755628       -1.4871197255
 H          1.1695232862        1.0402964526        1.4932535686
 H          0.5713337873        2.2018236199       -0.9266561822
 H         -2.5155356604       -1.0116386056       -1.1039626643
 H         -1.8622353796       -2.2959956535       -0.0422723662
 H          1.4014024164       -2.6015135537        0.6205326286
 H          2.8021411011       -0.1677116275       -0.0965142166
 H         -1.4861048915        1.2539474518        0.7469145711
 H         -3.1321893014       -0.6494651788        1.0883896185
  20
        -36.15603916
 O         -0.4517641949        0.4973964815       -1.2057717793
 O          1.5854988689       -1.7650316369        0.5041416208
 O          2.3937010763        0.6297700265       -0.3663944618
 O         -0.8708521653        1.8959837323        0.6135963058
 O         -2.3954432069       -0.4707367241        0.6589259885
 C          0.6192092046       -0.7569715289        0.5345561552
 C         -0.3670360711       -0.8254216343       -0.6609078471
 C          1.2220631823        0.6604587330        0.4049597001
 C          0.0761667128        1.4221950323       -0.2820334240
 C         -1.7504863932       -1.3491496589       -0.2437319609
 H          0.0642293545       -0.8545698867        1.4737249163
 H          0.0321928885       -1.4804694114       -1.4424400944
 H          1.4856705100        1.1009114069        1.3667646953
 H          0.4267690964        2.2910596919       -0.8473574627
 H         -2.3584719447       -1.5114295743       -1.1351678419
 H         -1.6076441074       -2.3024831554        0.2718403483
 H          2.4093484986       -1.3788658621        0.1533049352
 H          2.1638637519        0.5211407268       -1.3020591782
 H         -1.3665839475        1.1386137292        0.9911282376
 H         -3.0103329661        0.0931553970        0.1693517792
  20
        -36.15600400
 O         -0.5001089131        0.2290494012       -1.1289825244
 O          1.7996878484       -1.5681700045       -0.3638382780
 O          2.4878157829        0.8641974693        0.3430672693
 O         -0.6472571067        2.1206093768        0.2156374113
 O         -2.9770354212       -0.8493486578        0.1213208868
 C          0.8162417433       -0.9315397501        0.4075983322
 C         -0.5566918089       -0.9135343554       -0.2766157123
 C          1.1401938941        0.5778161991        0.5631707165
 C          0.2018915921        1.2574878874       -0.4676181486
 C         -1.7135728493       -0.8432109298        0.7332579409
 H          0.8049893199       -1.4463501809        1.3684105047
 H         -0.6926965937       -1.7751964586       -0.9374219751
 H          0.8572736547        0.9441656024        1.5563328129
 H          0.7797023651        1.7949376062       -1.2334042422
 H         -1.6146083245       -1.6810626602        1.4354086364
 H         -1.6560202032        0.0962410380        1.2868321950
 H          1.6919296097       -1.3232146215       -1.2962561350
 H          2.9262401429        0.0350175184        0.0676803411
 H         -1.2567085159        2.5493302918       -0.4046120546
 H         -3.0952219494       -1.6702027536       -0.3781832940
  20
        -36.15581933
 O         -0.3967208831        0.3112189992       -1.3624201384
 O          1.6337044554       -1.5521772795       -0.1428932329
 O          2.4047018086        0.8205071695        0.5226089389
 O         -0.5423595767        2.3046126485       -0.1858579160
 O         -2.4324788816       -1.6833778598        0.9607812867
 C          0.5793783649       -0.8294544378        0.4401844381
 C         -0.6619828823       -0.7611536897       -0.4648731027
 C          1.0234119703        0.6510915917        0.5259030601
 C          0.3089326729        1.3192563099       -0.6791409204
 C         -1.9711270846       -0.5247592657        0.3122673483
 H          0.3445920704       -1.2262891573        1.4334388664
 H         -0.7705500104       -1.6580010534       -1.0817449453
 H          0.6421614264        1.1280530204        1.4340364785
 H          1.0376175251        1.7404633272       -1.3850848710
 H         -1.8424483239        0.3100658460        1.0099482975
 H         -2.7438347896       -0.2568073991       -0.4120137307
 H          1.4217581849       -2.4951604373       -0.1641640300
 H          2.7981091705        0.0804558275        0.0272392395
 H         -0.9695409477        2.7756688894       -0.9175712224
 H         -1.9068360675       -1.8574915200        1.7532787715
  20
        -36.15579007
 O         -0.3821215810        0.3240767358       -1.3473391377
 O          1.7685835301       -1.6866780765       -0.1187823209
 O          2.3115006165        0.8276173861        0.3630694229
 O         -0.9193120234        2.0221667718        0.1474092542
 O         -2.1643502790       -0.3101683114        1.0226769626
 C          0.6496033183       -0.9821026789        0.3388461410
 C         -0.4972902738       -0.9395450904       -0.6956497744
 C          0.9651428294        0.5206446094        0.5961393786
 C          0.0970586730        1.2821740732       -0.4376567521
 C         -1.8950487840       -1.1485974510       -0.0828669107
 H          0.3449505022       -1.4982367084        1.2512166173
 H         -0.3493665267       -1.6962572889       -1.4713657063
 H          0.6603888390        0.8311645959        1.6028407045
 H          0.7112248742        1.9950153221       -0.9979581083
 H         -2.6340161212       -0.8913118053       -0.8455554069
 H         -2.0084392517       -2.2014113662        0.1853953384
 H          2.1939105135       -1.1835934497       -0.8308294053
 H          2.8637943426        0.3746021344        1.0189396753
 H         -1.5787083563        1.4060469626        0.5346232688
 H         -1.8454242635       -0.7163937916        1.8393024385
  20
        -36.15567272
 O         -0.3742802452        0.5387421985       -1.3049428084
 O          1.3342648063       -1.6497950939        0.7150351893
 O          2.4480614410        0.5040351246       -0.3314958497
 O         -0.6434477450        2.2125769229        0.2979961653
 O         -2.1702170823       -1.9629619866        0.6304328426
 C          0.4851211926       -0.5423207453        0.6511297415
 C         -0.5487059945       -0.6292362454       -0.5020750773
 C          1.2510926336        0.7700496488        0.3446542993
 C          0.2475222891        1.5360707126       -0.5251187310
 C         -1.9911165755       -0.7154795224        0.0045389266
 H         -0.0415183022       -0.4653536114        1.6074858812
 H         -0.3430356533       -1.5030728727       -1.1281152269
 H          1.5082596823        1.3246700001        1.2465969548
 H          0.7450474766        2.2161029505       -1.2287189765
 H         -2.1699241300        0.1110179222        0.7048987091
 H         -2.6592966014       -0.6063976934       -0.8598854754
 H          2.2113457956       -1.3740322099        0.3867226211
 H          2.2520152619        0.2313508691       -1.2416907236
 H         -1.2307892684        2.7750833289       -0.2304556247
 H         -3.0805407185       -2.0300358489        0.9518389391
  20
        -36.15565939
 O         -0.9467757511        0.8533022414       -0.7178119482
 O          1.0836306660       -1.5825219566        0.9666274994
 O          2.3044740735        0.2901164382       -0.4343852611
 O         -0.0599349947        2.8667433813       -0.0785767903
 O         -1.7567953083       -2.6070909180        0.1260414738
 C          0.3650631622       -0.4085371598        0.7544232316
 C         -0.6720343416       -0.4973493453       -0.3856230820
 C          1.2187843819        0.7930852333        0.2997834205
 C          0.2359479859        1.6133614680       -0.5878925015
 C         -1.9585697547       -1.2227710126        0.0069218677
 H         -0.1492252018       -0.1708196032        1.6920763030
 H         -0.2172847994       -1.0120852399       -1.2461650495
 H          1.5542604445        1.4050378525        1.1428541453
 H          0.6944343381        1.7689995069       -1.5782440778
 H         -2.3464607854       -0.7986516354        0.9429019734
 H         -2.7053984173       -1.0818783166       -0.7769552808
 H          1.8356187736       -1.5944924709        0.3502327717
 H          2.9724582308        0.9764262584       -0.5624298924
 H         -0.8716851762        2.8158614085        0.4490109805
 H         -1.0195097696       -2.7700779620        0.7349030787
  20
        -36.15563901
 O         -0.3913553122        0.4863272184       -1.2683779918
 O          1.5904701646       -1.7648979984        0.4316022492
 O          2.3990788013        0.6610612776       -0.2650812577
 O         -0.9268582520        1.8995783825        0.5115618361
 O         -2.3176118044       -0.5074251193        0.8115721924
 C          0.6047171771       -0.7775905843        0.5079278518
 C         -0.3891173697       -0.8220239812       -0.6833415968
 C          1.1817356768        0.6575847016        0.4325012888
 C          0.0717868262        1.4160073859       -0.3223682192
 C         -1.8100864167       -1.2515839435       -0.2809619978
 H          0.0722868329       -0.9159460441        1.4535551556
 H         -0.0301260210       -1.5110424687       -1.4542822411
 H          1.3745250771        1.0892266972        1.4149139218
 H          0.4675419333        2.2791247221       -0.8688977992
 H         -2.4702561940       -1.0560140358       -1.1304632584
 H         -1.8037329932       -2.3210419922       -0.0672073322
 H          2.4159961236       -1.3415570629        0.1302512505
 H          2.2272266021        0.5880904210       -1.2166626569
 H         -1.5568184508        1.1749556980        0.7224638401
 H         -2.2484575681       -1.0159480904        1.6297863403
  20
        -36.15556940
 O         -0.4153456626        0.4695691374       -1.2775788375
 O          1.6110104878       -1.7682771666        0.3798083151
 O          2.3932246573        0.6424239280       -0.2023531281
 O         -0.9303366694        1.9289552262        0.4657049297
 O         -2.3009696920       -0.4997755601        0.8265604004
 C          0.6146535497       -0.7972667252        0.4799969136
 C         -0.3989995518       -0.8349357215       -0.6957877928
 C          1.1533526815        0.6526390053        0.4558459953
 C          0.0661792326        1.4017634414       -0.3508753205
 C         -1.8136625649       -1.2604744821       -0.2644894459
 H          0.1004971327       -0.9835258031        1.4266064223
 H         -0.0534908723       -1.5218389896       -1.4743291048
 H          1.2348219204        1.0739369495        1.4632730377
 H          0.4811980484        2.2400388025       -0.9207313591
 H         -2.4876148234       -1.0754126883       -1.1054947641
 H         -1.8045295020       -2.3268727407       -0.0368713606
 H          2.3390226725       -1.4037681569       -0.1515822852
 H          2.8245704209        1.5029750456       -0.1204076649
 H         -1.5680351686        1.2179311797        0.6936028669
 H         -2.2325143448       -1.0029385439        1.6482326535
  20
        -36.15552802
 O         -0.6070032077        0.5685852773       -1.1352292897
 O          1.4112862725       -1.7073589227        0.7356962321
 O          2.3619765036        0.4824050479       -0.4603644292
 O         -0.6412267297        2.1509634589        0.5702489934
 O         -2.3242793182       -0.8962263842        0.7280088811
 C          0.5337779755       -0.6388870642        0.5706382700
 C         -0.3743045649       -0.7608661900       -0.6715977760
 C          1.2326069138        0.7143689432        0.3386109870
 C          0.1321154309        1.5025993475       -0.3872929585
 C         -1.6900090695       -1.4835186352       -0.3847521282
 H         -0.0937922159       -0.5813020222        1.4644090930
 H          0.1559539053       -1.3046897712       -1.4653743640
 H          1.4866628479        1.2081308012        1.2808351596
 H          0.5439297946        2.2266932239       -1.1096645395
 H         -2.3219496528       -1.4073947561       -1.2776440025
 H         -1.4512569382       -2.5362092280       -0.1875658883
 H          2.1706112706       -1.5653065491        0.1449422945
 H          2.9204837955        1.2708886055       -0.4923455873
 H         -1.4574846542        2.4793807741        0.1629154065
 H         -3.1639405684       -1.3485594679        0.8891354255
  20
        -36.15549869
 O         -0.5521895726        0.2693827839       -1.3329404346
 O          1.7592380049       -1.5094947560       -0.3990234185
 O          2.1289085539        0.7693452789        0.8825593884
 O         -0.5686802906        2.2791748556       -0.1841138304
 O         -1.9626290041       -0.5128878725        1.2245578477
 C          0.6311086604       -1.0065964735        0.2658924029
 C         -0.5695889431       -1.0008658076       -0.6855719072
 C          0.7847489767        0.4809634238        0.6255429438
 C          0.2072053218        1.2080364735       -0.6073062808
 C         -1.9006605531       -1.2588659235        0.0294487100
 H          0.4237309131       -1.6064307995        1.1609783083
 H         -0.4324846349       -1.7516448972       -1.4697610782
 H          0.1380446150        0.7170250872        1.4779363976
 H          1.0239843518        1.5569488897       -1.2654425981
 H         -2.7055261348       -0.9716367170       -0.6561592388
 H         -1.9686180484       -2.3329895226        0.2440614129
 H          2.5439763317       -1.0801830879       -0.0192581065
 H          2.2089008863        1.6577823592        1.2546515507
 H         -1.0622007749        2.6427215630       -0.9349536899
 H         -2.8470982862       -0.6002285560        1.6082318402
  20
        -36.15543101
 O         -0.9771229276        0.6835349227       -0.2830037524
 O          1.5445621069       -1.7428283447        0.4621034781
 O          2.3831190267        0.5711331326       -0.5781076441
 O         -0.0918928717        2.7306294573        0.1902756510
 O         -2.7915202727       -1.6392807359       -0.5317392552
 C          0.6912843179       -0.6642760532        0.6807194956
 C         -0.5756410056       -0.6763563699       -0.1998738665
 C          1.3251167286        0.7117625980        0.3334908176
 C          0.1743110332        1.4934066259       -0.3566670210
 C         -1.7194055713       -1.5140044204        0.3664128151
 H          0.4084670968       -0.7050270439        1.7358269838
 H         -0.3180809030       -1.0430579024       -1.2053539605
 H          1.6442520988        1.2553323072        1.2274847720
 H          0.4646452675        1.6692129753       -1.4045330331
 H         -1.3529779050       -2.5253908266        0.5531327667
 H         -2.0538078537       -1.0681303063        1.3116029431
 H          1.9417161842       -1.6520107716       -0.4206810014
 H          3.1992571537        0.3629181248       -0.0996190321
 H         -0.6383622289        2.6248094201        0.9854220286
 H         -3.1176648851       -0.7541526668       -0.7493696195
  20
        -36.15538830
 O         -0.9272538002        0.6170620112       -0.7178015053
 O          1.4360703052       -1.7481911124        0.5782151561
 O          2.4011028021        0.5184205383       -0.2935269712
 O         -0.2988316234        2.6583024454        0.1196202003
 O         -2.4277443336       -1.2970663935        0.7155247898
 C          0.5319139012       -0.6900199022        0.5678784752
 C         -0.4635590001       -0.7218799413       -0.6115020295
 C          1.1884576806        0.6978612185        0.3925554281
 C          0.1534478938        1.4909404678       -0.4599302351
 C         -1.6466806149       -1.6655044482       -0.3914988000
 H         -0.0359225324       -0.7402621171        1.5029653441
 H          0.0697799640       -1.0103423094       -1.5289265781
 H          1.3472167079        1.1991899499        1.3523469911
 H          0.6279103374        1.7863339559       -1.4091019617
 H         -2.2550767119       -1.6993365235       -1.3025974517
 H         -1.2533071863       -2.6613757413       -0.1792123298
 H          2.1938344960       -1.5026260802        0.0194685733
 H          2.9508855665        1.3094207010       -0.2188012498
 H         -0.9163843737        2.4586109994        0.8398210995
 H         -2.8220018999       -0.4325689679        0.5302576907
  20
        -36.15538141
 O         -0.5437556241        0.2464899074       -1.1029470714
 O          1.7618235835       -1.5972080689       -0.3427867774
 O          2.4962896019        0.8079485495        0.2970631038
 O         -0.6175212780        2.1713183519        0.2005805975
 O         -2.9739845708       -0.9229162070        0.0778914244
 C          0.8170970740       -0.9082181877        0.4291601587
 C         -0.5465268755       -0.9156255961       -0.2801043492
 C          1.1374326590        0.5991531996        0.5501897930
 C          0.1938235028        1.2659573417       -0.4821274882
 C         -1.7207255348       -0.9182275747        0.7103259649
 H          0.7513676779       -1.3749319699        1.4209588224
 H         -0.6153286512       -1.7676383789       -0.9626231257
 H          0.8486065452        0.9626304392        1.5425116048
 H          0.7632153043        1.7708578046       -1.2778846842
 H         -1.6154071325       -1.7859683427        1.3746294397
 H         -1.6947294110       -0.0038409982        1.3076116993
 H          2.5895799818       -1.0864588783       -0.3358624986
 H          2.7629344806        1.6895969150        0.5907258183
 H         -1.2779057975        2.5443381228       -0.4031139562
 H         -3.0455862764       -1.6993786945       -0.4955052534
  20
        -36.15531403
 O         -0.4214283858        0.2977899840       -1.3863308275
 O          1.7496640045       -1.6453938527       -0.1856411616
 O          2.2175851441        0.8289571153        0.6128691462
 O         -0.7868246313        2.1174162586        0.0094408418
 O         -1.9484950095       -0.4560233118        1.1809143526
 C          0.6059239829       -1.0021687953        0.3023305238
 C         -0.5453772951       -0.9553965341       -0.7196838055
 C          0.8577073077        0.4968076517        0.6142924019
 C          0.1565232630        1.2536805073       -0.5300870495
 C         -1.9159240390       -1.1365138843       -0.0535908454
 H          0.3030682085       -1.5536019742        1.1936149480
 H         -0.4211801960       -1.7216034248       -1.4900857800
 H          0.3604317770        0.7814370748        1.5475860214
 H          0.8998370145        1.8103398903       -1.1236005322
 H         -2.6772453095       -0.7502128770       -0.7403901589
 H         -2.0784685066       -2.2114347039        0.1008898905
 H          2.2298112588       -1.0427517882       -0.7746683155
 H          2.6439431780        0.4492107327        1.3955623304
 H         -1.2521212788        2.5836921862       -0.7019660770
 H         -2.8502509514       -0.4739123046        1.5307291339
  20
        -36.15522138
 O         -0.5008520077        0.2202496499       -1.1294396111
 O          1.7718168497       -1.5635041213       -0.3771799207
 O          2.4939249920        0.8546205271        0.3589181091
 O         -0.6156407403        2.1529329548        0.1576441909
 O         -2.9341060208       -1.0054586714        0.0859205398
 C          0.8058881635       -0.9254532982        0.4156290759
 C         -0.5758122195       -0.8968402232       -0.2466522660
 C          1.1409753670        0.5824241430        0.5589266291
 C          0.2212041858        1.2534048115       -0.4946939391
 C         -1.7202742958       -0.7775574701        0.7653196445
 H          0.8127321492       -1.4393051756        1.3768364521
 H         -0.7623135046       -1.7717460380       -0.8751459475
 H          0.8492172799        0.9634754070        1.5435136309
 H          0.8128147997        1.7573271692       -1.2720322335
 H         -1.5716092242       -1.5341918629        1.5469461997
 H         -1.6978260289        0.2205746175        1.2162594790
 H          1.6134368103       -1.3552719428       -1.3110051393
 H          2.9145017034        0.0364102348        0.0282660104
 H         -1.1860744032        2.6023375159       -0.4849269162
 H         -3.6744362372       -0.8334459068        0.6843882090
  20
        -36.15521917
 O         -0.8037518487        0.6735195812       -0.7308663129
 O          1.4494473797       -1.5965427999        0.9001107936
 O          2.2314091725        0.2999876868       -0.8594047388
 O         -0.2213927382        2.4198445073        0.6791141738
 O         -2.6059823854       -1.7331934492       -0.6175306644
 C          0.6561134803       -0.4656137643        0.7479294100
 C         -0.5127186542       -0.6353369279       -0.2441331846
 C          1.3879767076        0.7562319168        0.1622939868
 C          0.2018169407        1.5868311272       -0.3522934563
 C         -1.7365914735       -1.2824765919        0.3950770137
 H          0.2612265413       -0.2116526002        1.7365956188
 H         -0.1977285354       -1.2536941222       -1.0959155222
 H          1.9318030341        1.3150874578        0.9296226570
 H          0.4602063955        2.1723233950       -1.2484800186
 H         -1.3813361982       -2.1244284204        1.0043745137
 H         -2.2296993625       -0.5446140701        1.0388906556
 H          2.0239405021       -1.6720359885        0.1196697900
 H          2.8171024964        1.0093298147       -1.1572606342
 H         -1.0311670472        2.8836607756        0.4149968348
 H         -3.4031727574       -2.1027834493       -0.2118897441
  20
        -36.15518362
 O         -0.8051130563        0.5819499065       -1.0443525871
 O          1.4821429094       -1.5087728901       -0.2137944317
 O          2.2516125833        0.8294653656        0.8033723000
 O          0.1454745911        2.6468473394       -0.7584650961
 O         -2.1255275044       -2.1825082885        0.9673356459
 C          0.4865000618       -0.7710439701        0.4445287861
 C         -0.7687209803       -0.7104851415       -0.4416974553
 C          0.8762083616        0.7091026763        0.5890565631
 C          0.3826762082        1.2874311574       -0.7584486505
 C         -2.0697968658       -0.9266880737        0.3462490059
 H          0.2551420377       -1.2321665314        1.4139403666
 H         -0.6705170791       -1.4657767971       -1.2322650084
 H          0.3015645126        1.1677281695        1.4062447479
 H          1.1450835762        1.1020014390       -1.5324834309
 H         -2.1311796049       -0.1913521512        1.1517006316
 H         -2.9154195700       -0.7710376613       -0.3336251477
 H          2.3432753275       -1.2409628869        0.1466976584
 H          2.5047945367        1.7633206089        0.7971438117
 H         -0.7163393400        2.8287292288       -0.3519793169
 H         -2.1478070754       -2.8800459355        0.2967652406
  20
        -36.15509397
 O         -0.5247759270        0.2473373232       -1.1161530963
 O          1.8050020092       -1.5363875634       -0.3480535196
 O          2.5016640864        0.8587569955        0.3176360721
 O         -0.6258460885        2.1370763604        0.2280995869
 O         -2.9844537331       -0.8439088211        0.0922142726
 C          0.8073599183       -0.9235383722        0.4282311308
 C         -0.5586092240       -0.9070605706       -0.2833228630
 C          1.1562208806        0.5815811022        0.5427283149
 C          0.2018254959        1.2631900785       -0.4733211082
 C         -1.7270138318       -0.8733220822        0.7154136676
 H          0.7400000422       -1.3836722909        1.4181324261
 H         -0.6695621506       -1.7528911635       -0.9688458613
 H          0.9044025320        0.9686962506        1.5347272027
 H          0.7690773414        1.7957310510       -1.2502075396
 H         -1.6449813836       -1.7415860848        1.3830848022
 H         -1.6675779552        0.0413560814        1.3092939361
 H          1.7566795481       -2.4981052693       -0.2620879537
 H          2.8558509151        0.1689275505       -0.2721255701
 H         -1.2485855357        2.5643054561       -0.3801610778
 H         -3.0865019450       -1.6217479895       -0.4750993024
  20
        -36.15502430
 O         -0.3868228187        0.3690981513       -1.3189510424
 O          1.6839261160       -1.7286179547        0.0134614162
 O          2.4057927257        0.7825523789        0.1855023908
 O         -0.9442661548        1.9815701384        0.2671999607
 O         -2.2544699736       -0.3752443669        0.9389269464
 C          0.6326496508       -0.8958561159        0.4222153601
 C         -0.4535049406       -0.9007478035       -0.6712694589
 C          1.0636187716        0.5960502344        0.5304683809
 C          0.0802489681        1.3363764829       -0.4146864208
 C         -1.8688015149       -1.1980166914       -0.1441725138
 H          0.2290580824       -1.2505000311        1.3790497164
 H         -0.2047111572       -1.6454060012       -1.4333641781
 H          0.9580136004        0.9869330343        1.5445028903
 H          0.5949392624        2.1115913452       -0.9926347507
 H         -2.5730258689       -0.9875662411       -0.9523945039
 H         -1.9323992795       -2.2552909722        0.1216592039
 H          2.4389807635       -1.6052199374        0.6094952280
 H          2.5626072853        0.4218184993       -0.7013737970
 H         -1.5899279971        1.3122830543        0.5860212380
 H         -1.9825612767       -0.7707943741        1.7777748946
  20
        -36.15499606
 O         -0.4186330079        0.2616676898       -1.4000149544
 O          1.7750777515       -1.5565249417       -0.2979234043
 O          2.1708115865        0.8066370835        0.7983334355
 O         -0.7599162818        2.1339872135       -0.0702071874
 O         -1.9053407459       -0.4384886572        1.2506915680
 C          0.6134939695       -1.0132797345        0.2724367681
 C         -0.5704144153       -0.9711583453       -0.6987889893
 C          0.8242610678        0.4796732647        0.6244787919
 C          0.1727489313        1.2329247794       -0.5603946587
 C         -1.9264476941       -1.1041532221        0.0088689611
 H          0.3983271432       -1.6079722454        1.1597654479
 H         -0.5010640513       -1.7555088044       -1.4581547817
 H          0.2649855528        0.7472776239        1.5267194050
 H          0.9392261211        1.7519407322       -1.1581997681
 H         -2.6906638119       -0.6833976696       -0.6544374660
 H         -2.1247081541       -2.1740289920        0.1571394638
 H          1.8764068897       -1.2291429783       -1.2047667567
 H          2.6983355067        0.0192927378        0.5606768600
 H         -1.1853370107        2.6041824136       -0.8038707036
 H         -2.7963883927       -0.4397143555        1.6277719023
  20
        -36.15498633
 O         -0.5914397893        0.5463928670       -0.9635592934
 O          1.5756771411       -1.6665447214        0.6773885071
 O          2.3589719114        0.4908528106       -0.7387727896
 O         -0.4827126175        2.1060330333        0.7667622982
 O         -2.7682862115       -1.3842863162       -0.4810987613
 C          0.7159504244       -0.5684882711        0.7012236146
 C         -0.4848101800       -0.7012118924       -0.2714802404
 C          1.3895789000        0.7430781813        0.2393784870
 C          0.1845574674        1.5185030940       -0.3018035235
 C         -1.7754906401       -1.0591222304        0.4641404201
 H          0.3462622528       -0.4514530486        1.7249760524
 H         -0.2994399720       -1.4726454461       -1.0268320335
 H          1.8817543829        1.2730793692        1.0542072069
 H          0.4681350321        2.2614951244       -1.0591288540
 H         -1.5587145218       -1.9186576003        1.1121026128
 H         -2.0798172397       -0.2048490121        1.0811165313
 H          2.3241763850       -1.4524777131        0.0905108349
 H          1.9244862997        0.2544228755       -1.5730510278
 H         -1.2309344700        2.6311599538        0.4430916577
 H         -3.5945304396       -1.5862768003       -0.0198923883
  20
        -36.15496103
 O         -0.5058026572        0.2928549322       -1.1003670956
 O          1.7643299744       -1.6768255533       -0.1403803484
 O          2.4955374598        0.8401255041        0.0403490390
 O         -0.6473756953        2.1136430025        0.3387648791
 O         -2.9298309735       -0.9977816416       -0.0793415139
 C          0.7929283877       -0.8838941580        0.4784116758
 C         -0.5518545857       -0.8680390603       -0.2772933554
 C          1.1997647754        0.6183745126        0.5174306554
 C          0.1928142860        1.3065421644       -0.4248335124
 C         -1.7500658906       -0.8567885157        0.6785147826
 H          0.6767838728       -1.2949178971        1.4825769814
 H         -0.6517999935       -1.7193545969       -0.9561004363
 H          1.0644126842        1.0377411853        1.5217413724
 H          0.7215093310        1.8930732163       -1.1891395765
 H         -1.6400633770       -1.6978916796        1.3757376187
 H         -1.7478959691        0.0855425900        1.2387745394
 H          1.9942895149       -1.2923413565       -1.0005755697
 H          3.1315238135        0.3853847616        0.6144205627
 H         -1.2720406269        2.5777591106       -0.2395192720
 H         -3.6968606230       -0.9065159222        0.5033124734
  20
        -36.15494022
 O         -0.8949368995        0.8387057899       -0.8209955000
 O          1.1010412579       -1.5622482515        0.9280904051
 O          2.3291433544        0.3784721883       -0.3732900544
 O         -0.0746307975        2.8524665564       -0.1110135927
 O         -1.6327863445       -2.5014290491        0.3406995557
 C          0.3144081200       -0.4233188229        0.7402549845
 C         -0.6501792645       -0.5069714749       -0.4558964676
 C          1.1930652414        0.7774042026        0.3418014848
 C          0.2733189564        1.6074934927       -0.5941574173
 C         -1.9614158078       -1.2122798270       -0.1247996312
 H         -0.2528517761       -0.1848396564        1.6517720629
 H         -0.1403300461       -1.0360827017       -1.2753178384
 H          1.4880876893        1.3839292505        1.2088862022
 H          0.8104039242        1.7810117462       -1.5377299707
 H         -2.4898113210       -0.6367465177        0.6453588787
 H         -2.5814945677       -1.2521318056       -1.0263842418
 H          0.5161554043       -2.3357039976        0.9637830849
 H          2.6350109656       -0.4647199644        0.0050129206
 H         -0.7816049928        2.7661264237        0.5479375674
 H         -2.4440772226       -3.0031655430        0.5019848379
  20
        -36.15492567
 O         -0.9611852983        0.6056310801       -0.7081373697
 O          1.5061788134       -1.7133874005        0.1681577659
 O          2.4414160244        0.7293725460        0.1801152511
 O         -0.1516251273        2.7011074731       -0.2608518709
 O         -2.3773931039       -1.3050474518        0.9275563500
 C          0.5228698848       -0.7731397193        0.5030087938
 C         -0.5543584018       -0.7474897139       -0.5987971469
 C          1.0817553241        0.6795912550        0.4947491581
 C          0.1968587480        1.4063968878       -0.5613376351
 C         -1.7652248289       -1.6316200767       -0.2931239440
 H          0.0475973106       -1.0042263560        1.4613132690
 H         -0.0908603062       -1.0794375140       -1.5398106096
 H          0.9602680016        1.1695468742        1.4655597015
 H          0.7506515091        1.4559588171       -1.5124293517
 H         -2.4761863832       -1.5534294141       -1.1226354121
 H         -1.4257366869       -2.6650653925       -0.2040107888
 H          1.9803990928       -1.9952132230        0.9638488131
 H          2.6640096139       -0.0770928704       -0.3215267676
 H         -0.7278653285        2.7247037876        0.5192582599
 H         -2.7688835513       -0.4239936989        0.8476482528
  20
        -36.15489977
 O         -0.5734175324        0.5573626005       -1.1646884882
 O          1.4218453813       -1.7122398931        0.6200796353
 O          2.3926149659        0.5667682683       -0.3894428242
 O         -0.6464770024        2.1677299051        0.5035191094
 O         -2.3100007530       -0.8891837684        0.7695930128
 C          0.5150987649       -0.6451251328        0.5787343432
 C         -0.3803844731       -0.7641062425       -0.6658316382
 C          1.2210847829        0.7109196664        0.3629474034
 C          0.1567230713        1.4965259143       -0.4116140592
 C         -1.7196948187       -1.4472093466       -0.3821371237
 H         -0.1191431172       -0.5903854011        1.4676966244
 H          0.1486026856       -1.3420891071       -1.4356673686
 H          1.4386211710        1.2268487683        1.3063263998
 H          0.6190520313        2.1953114950       -1.1256221793
 H         -2.3569774667       -1.3041716442       -1.2612382982
 H         -1.5268432347       -2.5181429452       -0.2365643770
 H          1.7148333834       -1.8635491115        1.5301003778
 H          2.6455451090       -0.3757835034       -0.3581529090
 H         -1.3991252077        2.5700516706        0.0431652123
 H         -3.2128755870       -1.2241466064        0.8592962429
  20
        -36.15473780
 O         -0.9751177549        0.6682212877       -0.3151647388
 O          1.5295156114       -1.7228627995        0.3237032033
 O          2.4622525891        0.6020647207       -0.4425327314
 O         -0.1094664689        2.7341896888        0.1081206242
 O         -2.8036569238       -1.6224878276       -0.4868442491
 C          0.6919241211       -0.6626261972        0.6832069230
 C         -0.5736730937       -0.6861446284       -0.1916526680
 C          1.3165100608        0.7209418429        0.3504363221
 C          0.1762103651        1.4816361765       -0.3925886203
 C         -1.7228754684       -1.5006199076        0.4000673215
 H          0.4053984028       -0.7099264540        1.7388044529
 H         -0.3103038867       -1.0919959816       -1.1796545959
 H          1.5931315683        1.2819441160        1.2494816956
 H          0.4827096720        1.6310083872       -1.4395843495
 H         -1.3724087904       -2.5155491168        0.5964561000
 H         -2.0435531007       -1.0337412291        1.3404557260
 H          2.1600443517       -1.9088520478        1.0350575642
 H          2.5195330683       -0.3219377542       -0.7532690774
 H         -0.6364349275        2.6497322660        0.9187053722
 H         -3.1079774955       -0.7357173470       -0.7282623259
  20
        -36.15470902
 O         -0.9322053793        0.5119997626       -0.5422185460
 O          1.6492445865       -1.5399512591       -0.4206494332
 O          2.4937717391        0.8078588936        0.4309931103
 O         -0.0143776257        2.6015080067       -0.3857599416
 O         -2.9922958858       -1.4072124226        0.0329167833
 C          0.7628801684       -0.8682270988        0.4308595652
 C         -0.6370011451       -0.8470076495       -0.2154697669
 C          1.1163991470        0.6245369743        0.5733460340
 C          0.2603673594        1.2610299118       -0.5471793341
 C         -1.7515157556       -1.3787355681        0.6884114832
 H          0.7391925190       -1.3649803448        1.4103884131
 H         -0.5991766183       -1.4378548612       -1.1401328900
 H          0.7628786516        0.9988509769        1.5447883014
 H          0.7876473626        1.1593096611       -1.5095531450
 H         -1.5295451418       -2.4089851822        0.9707288795
 H         -1.8081436037       -0.7572322497        1.5925485216
 H          2.5437812909       -1.1940598208       -0.2619550403
 H          2.6995772496        1.7530071160        0.4078494711
 H         -0.7067875217        2.7164104130        0.2843705400
 H         -3.1642051445       -0.5288670735       -0.3371901680
  20
        -36.15468262
 O         -0.6542755749        0.6003587942       -1.0778279487
 O          1.3689722103       -1.6734787610        0.8267298503
 O          2.3428065605        0.4295875164       -0.5750130796
 O         -0.5497992001        2.2100185719        0.5924132033
 O         -2.4509040248       -1.0574796077        0.6741149391
 C          0.5362181391       -0.5832283080        0.5956425946
 C         -0.3760738709       -0.7307518357       -0.6390761224
 C          1.2747244007        0.7318086956        0.2807898143
 C          0.1531202838        1.5325122131       -0.3995018612
 C         -1.6754962671       -1.5137993833       -0.4049115913
 H         -0.0685978719       -0.4351541522        1.4949109827
 H          0.1831927270       -1.2390487312       -1.4380669347
 H          1.6040757442        1.2452899406        1.1889634462
 H          0.5372174088        2.2352693572       -1.1564335806
 H         -2.3018400444       -1.3932183651       -1.2914133120
 H         -1.4145667517       -2.5711695321       -0.2854211033
 H          2.1092025359       -1.6294387878        0.1990742324
 H          2.9190199978        1.1986720361       -0.6804881705
 H         -1.3766078207        2.5608346175        0.2270711930
 H         -2.0499551815       -1.3374427008        1.5080241425
  20
        -36.15467883
 O         -0.5006384129        0.5330166764       -1.2081672347
 O          1.4754943479       -1.7334492564        0.6368924707
 O          2.3997214713        0.5851002293       -0.3886971207
 O         -0.7497698282        1.9880239980        0.6025424577
 O         -2.3173962125       -0.7067517830        0.7496038734
 C          0.5564151415       -0.6853695665        0.5547165996
 C         -0.3779682644       -0.7890766898       -0.6740250726
 C          1.2226957836        0.6946563719        0.3638508293
 C          0.1130583828        1.4695994502       -0.3526892202
 C         -1.7424442142       -1.3934018816       -0.3372811452
 H         -0.0513615055       -0.6798526597        1.4643777002
 H          0.0829955733       -1.4149415361       -1.4484476167
 H          1.4881150724        1.1656534434        1.3100984494
 H          0.5088082915        2.2680507337       -1.0003758062
 H         -2.3787667647       -1.3157746841       -1.2274550959
 H         -1.5803867371       -2.4505748462       -0.0910836750
 H          2.3222957155       -1.4202111856        0.2696571176
 H          2.1807858349        0.4271337543       -1.3195362652
 H         -1.5514082135        2.3272993632        0.1755248857
 H         -3.1809566760       -1.0933990630        0.9498852035
  20
        -36.15463620
 O         -0.7730103364        0.5575955786       -1.0843712580
 O          1.5580525753       -1.4339695996       -0.2643967079
 O          2.2323665593        0.8804759529        0.8636727240
 O          0.1470193485        2.6294406217       -0.7493529444
 O         -2.1964210951       -2.1194027317        0.9782737845
 C          0.4958555697       -0.8059689502        0.4123615945
 C         -0.7849542948       -0.7133200181       -0.4366859498
 C          0.8850007150        0.6744624743        0.5872716387
 C          0.4025475977        1.2772283999       -0.7560353833
 C         -2.0581661529       -0.8395702605        0.4182886292
 H          0.2922539609       -1.2943018534        1.3699625296
 H         -0.7792004905       -1.4862980648       -1.2162308844
 H          0.3194088719        1.1299563734        1.4060975243
 H          1.1725757766        1.1240337532       -1.5276684771
 H         -1.9993964428       -0.1438564870        1.2585312038
 H         -2.9197342843       -0.5663152324       -0.1995047699
 H          1.4913219900       -2.3942689412       -0.1764034719
 H          2.7487439787        0.2453223549        0.3387811404
 H         -0.6017698222        2.8271391194       -0.1649989608
 H         -2.4620241760       -2.7506726282        0.2942673364
  20
        -36.15460034
 O         -0.4776209579        0.2698709252       -1.3792405548
 O          1.7830928937       -1.4830002877       -0.3386439103
 O          2.1508994529        0.8071553903        0.8545328479
 O         -0.6630898121        2.2037364098       -0.1191221667
 O         -1.9255484400       -0.4716413874        1.2548316065
 C          0.6069389708       -1.0148956845        0.2738666129
 C         -0.5840331317       -0.9755296647       -0.6955680964
 C          0.8197078425        0.4756460696        0.6150360336
 C          0.1984399706        1.2223767558       -0.5899821941
 C         -1.9334753499       -1.1461796306        0.0169022173
 H          0.3689616993       -1.5881440473        1.1733133171
 H         -0.4981600315       -1.7407172188       -1.4730982022
 H          0.2389471394        0.7517859588        1.4994570407
 H          0.9882198205        1.6670641959       -1.2177817992
 H         -2.7095473562       -0.7503309498       -0.6469385916
 H         -2.1046528915       -2.2198776428        0.1739604248
 H          1.7802415663       -2.4491037615       -0.3714965485
 H          2.7055721392        0.2145402731        0.3163644344
 H         -1.0851213376        2.6580506243       -0.8647829327
 H         -2.8241021331       -0.4509547906        1.6128589088
  20
        -36.15457766
 O         -0.8956284809        0.8498886838       -0.7845909330
 O          1.1128882871       -1.5487696075        0.9607706304
 O          2.3149745631        0.3529413230       -0.4455951605
 O         -0.0583942764        2.8551507293       -0.0664618349
 O         -1.7447142291       -2.5532135124        0.2434959190
 C          0.3372731002       -0.4041271974        0.7612158923
 C         -0.6503493342       -0.4967124423       -0.4164813854
 C          1.2218347312        0.7767386260        0.3206171661
 C          0.2765578930        1.6174400715       -0.5784610236
 C         -1.9641797229       -1.1974892227       -0.0619087446
 H         -0.2110484059       -0.1333177669        1.6745086039
 H         -0.1504225926       -1.0222692017       -1.2458346763
 H          1.5649481330        1.3816400073        1.1706806978
 H          0.7870887385        1.8050798798       -1.5340656439
 H         -2.3885099622       -0.7405734230        0.8353537828
 H         -2.6729994534       -1.0673344266       -0.8843342732
 H          0.5261495759       -2.2912176731        1.1713194908
 H          2.6671393805       -0.4569731881       -0.0379255369
 H         -0.7634722924        2.7600337255        0.5932164150
 H         -1.6515258824       -3.0619823878       -0.5742033098
  20
        -36.15451418
 O         -0.5984697199        0.5192172632       -0.9559121297
 O          1.6715841724       -1.6507215142        0.5237195057
 O          2.3757304143        0.5820323317       -0.6693450676
 O         -0.5031404649        2.1071321178        0.7357381466
 O         -2.8989619664       -1.1660771634       -0.4020523965
 C          0.7250132617       -0.6305127440        0.6732181318
 C         -0.4787573143       -0.7416030459       -0.2964676734
 C          1.3722138306        0.7182429830        0.2938748343
 C          0.1840960094        1.4816762318       -0.3012361452
 C         -1.7764248327       -1.1063533199        0.4383725285
 H          0.3620241122       -0.5658488336        1.7051764636
 H         -0.2647781635       -1.4789734837       -1.0802039468
 H          1.7526723006        1.2454321111        1.1782089698
 H          0.5134406261        2.1962970527       -1.0663019000
 H         -1.6306114897       -2.0649569429        0.9559184313
 H         -2.0003642615       -0.3331689499        1.1770025987
 H          1.3743241823       -2.4570256782        0.9654061450
 H          2.8198897418       -0.2702638158       -0.5165271660
 H         -1.2531951947        2.6071967036        0.3784994539
 H         -2.7268598616       -1.7751940497       -1.1341692963
  20
        -36.15435377
 O         -0.5356938581        0.4211441827       -1.0390599591
 O          1.6333800300       -1.7191445941        0.2671363386
 O          2.5051866073        0.6877135297       -0.3869056127
 O         -0.6140105144        2.0814047377        0.5902056773
 O         -2.8555724613       -1.1895148996       -0.3297554893
 C          0.7497598465       -0.6963871476        0.6320207401
 C         -0.5036473247       -0.7737607365       -0.2648246593
 C          1.3289436821        0.7207811319        0.3640555011
 C          0.1681609992        1.4291366617       -0.3610206206
 C         -1.7841700738       -0.9574366895        0.5545476319
 H          0.4601452081       -0.7860126177        1.6864894661
 H         -0.4189916476       -1.6021578440       -0.9749035845
 H          1.5614051120        1.2557354547        1.2864245041
 H          0.5359478927        2.1267044430       -1.1255034966
 H         -1.6406663148       -1.8188742461        1.2201821042
 H         -1.9514896009       -0.0544243742        1.1545451464
 H          2.4424056602       -1.6567059150        0.7976166044
 H          2.3943626432        0.0740718024       -1.1306779724
 H         -1.3334654024        2.5602388098        0.1503888936
 H         -3.6774113561       -1.2598514722        0.1759647910
  20
        -36.15432190
 O         -0.9024868841        0.4734706270       -0.6362348152
 O          1.7208840289       -1.4220257263       -0.5258389123
 O          2.4517076404        0.8665305575        0.5939991899
 O         -0.0033792854        2.5657957662       -0.4119604320
 O         -3.0213974607       -1.2866511283        0.1459716322
 C          0.7649491030       -0.9161432784        0.3719552941
 C         -0.6528341408       -0.8762073352       -0.2340894393
 C          1.0925075215        0.5754691285        0.5872101975
 C          0.2901586880        1.2322073103       -0.5629267965
 C         -1.7524728519       -1.3025849909        0.7458220535
 H          0.7804675268       -1.4695646386        1.3158193659
 H         -0.6991949458       -1.5093629652       -1.1299913945
 H          0.6880750441        0.9229249758        1.5434875920
 H          0.8561055326        1.1532954292       -1.5038839350
 H         -1.5841395531       -2.3314089495        1.0689265043
 H         -1.7301431656       -0.6401814695        1.6216281267
 H          1.6913510544       -2.3881665373       -0.5426699489
 H          2.8865795827        0.3101167694       -0.0743038657
 H         -0.5516210861        2.7055805087        0.3765825122
 H         -3.1609767276       -0.4164239231       -0.2556972952
  20
        -36.15428329
 O         -0.7548724962        0.6094345927       -0.7879062046
 O          1.4529745344       -1.6630244547        0.7879780660
 O          2.2850955993        0.3775149046       -0.8240548709
 O         -0.3107031513        2.3116327884        0.7241088683
 O         -2.7266716503       -1.5593393415       -0.5603263772
 C          0.6854218470       -0.5022552312        0.7361502193
 C         -0.4697408863       -0.6869889494       -0.2566793607
 C          1.3943094812        0.7540569678        0.1857265009
 C          0.1853520821        1.5523553704       -0.3317609994
 C         -1.7223409744       -1.2846989374        0.3823351333
 H          0.2746198140       -0.2501710072        1.7270955091
 H         -0.1317647902       -1.3311420996       -1.0787174948
 H          1.8910272217        1.3197778788        0.9825605479
 H          0.4412806018        2.1893463011       -1.1915401477
 H         -1.4599405928       -2.2378669047        0.8450006259
 H         -2.0944382239       -0.5957208650        1.1532102550
 H          2.2794574591       -1.4923879706        1.2624916430
 H          2.7933142957        1.1432703845       -1.1268403633
 H         -1.1044364604        2.7934208975        0.4439063386
 H         -2.8990404872       -0.7520543197       -1.0667813850
  20
        -36.15427013
 O         -0.5244041788        0.2379488095       -1.1214681345
 O          1.7762638387       -1.5258477967       -0.3682825679
 O          2.5044737675        0.8514263857        0.3503269053
 O         -0.5834021196        2.1784878137        0.1493375081
 O         -2.9430032209       -1.0339632402        0.0737048109
 C          0.7949647250       -0.9179862698        0.4313698582
 C         -0.5827692304       -0.8868716985       -0.2517321797
 C          1.1520735045        0.5836839046        0.5406412319
 C          0.2278285779        1.2562271427       -0.5093027650
 C         -1.7345110817       -0.7875059237        0.7555190284
 H          0.7517822888       -1.3870291233        1.4195036277
 H         -0.7560974774       -1.7504716475       -0.8992950869
 H          0.8766922440        0.9826004219        1.5216950123
 H          0.8168543211        1.7438451796       -1.2986835153
 H         -1.5813723977       -1.5407083971        1.5403262088
 H         -1.7255353716        0.2114355766        1.2052419300
 H          1.6457328360       -2.4836037701       -0.3875789444
 H          2.8651700707        0.1697708571       -0.2442417507
 H         -1.1576854026        2.6285513460       -0.4894675595
 H         -3.6882566540       -0.8472401215        0.6616861192
  20
        -36.15425420
 O         -0.8101717051        0.5931510958       -1.0430773337
 O          1.5236302442       -1.4481379543       -0.2286181181
 O          2.2440783534        0.8736048790        0.8371749549
 O          0.1854577988        2.6389256051       -0.7814123309
 O         -2.0849624303       -2.1857699192        0.9032416296
 C          0.4718857840       -0.7867634597        0.4303722329
 C         -0.8044271196       -0.6914484072       -0.4273110540
 C          0.8897813749        0.6877721623        0.5811142052
 C          0.3977639099        1.2802681595       -0.7634722215
 C         -2.0792000257       -0.8704980629        0.4017462026
 H          0.2591059683       -1.2580873002        1.3944730818
 H         -0.7832377213       -1.4573609977       -1.2131623592
 H          0.3427832045        1.1647912133        1.4005509377
 H          1.1438474106        1.0831944859       -1.5485032731
 H         -2.0832148584       -0.1373772780        1.2186611851
 H         -2.9390120368       -0.6814742613       -0.2503046537
 H          1.3803561643       -2.4037464946       -0.1997896296
 H          2.7415766563        0.2127905752        0.3260902703
 H         -0.5441433384        2.8728196384       -0.1860410521
 H         -2.9165393745       -2.3480807019        1.3707532198
  20
        -36.15416768
 O         -0.6069421753        0.5926781485       -1.1314349702
 O          1.4153419813       -1.6602055786        0.7440549860
 O          2.3686498507        0.5273022871       -0.4722731947
 O         -0.5708145071        2.2279367046        0.5074005647
 O         -2.2949827768       -1.0250262061        0.7843993830
 C          0.4921223895       -0.6192535211        0.5883207188
 C         -0.3904723484       -0.7413391006       -0.6704642392
 C          1.2388160816        0.7015625058        0.3346694072
 C          0.1827376939        1.5148117180       -0.4174368645
 C         -1.7295262578       -1.4457729518       -0.4366657942
 H         -0.1514026369       -0.4951708193        1.4654301214
 H          0.1641378875       -1.2800320870       -1.4518012433
 H          1.5005759889        1.2089131863        1.2720714517
 H          0.6535551429        2.1851866619       -1.1527557625
 H         -2.3793930931       -1.1939330345       -1.2813495897
 H         -1.5562610121       -2.5297427167       -0.4241772164
 H          0.9892660607       -2.4237471861        1.1549272262
 H          2.8227656592       -0.2780140128       -0.1709704752
 H         -1.3168560717        2.6561245276        0.0592678628
 H         -3.2084469076       -1.3382231656        0.8381938238
  20
        -36.15415189
 O         -0.4310517710        0.3061406451       -1.3749133106
 O          1.7104173248       -1.6372891894       -0.1856474372
 O          2.2733856810        0.8085118180        0.6023169292
 O         -0.8015005566        2.1173526640        0.0327012409
 O         -1.9886051779       -0.4713159908        1.1611137087
 C          0.5952354726       -0.9645765408        0.3438510979
 C         -0.5285619131       -0.9429246059       -0.7006224051
 C          0.9049664177        0.5380994695        0.5885190562
 C          0.1476333650        1.2786832151       -0.5385971197
 C         -1.9093483149       -1.1589552065       -0.0671183466
 H          0.2452125709       -1.4430407131        1.2613011075
 H         -0.3562604361       -1.7093905943       -1.4618588586
 H          0.4939012886        0.8741834250        1.5424995344
 H          0.8479446925        1.8570369073       -1.1631292233
 H         -2.6615182309       -0.7977123480       -0.7765627355
 H         -2.0486864871       -2.2367637563        0.0912417229
 H          2.3120805207       -1.8771856414        0.5343165436
 H          2.6861913213        0.3124718631       -0.1268273790
 H         -1.3075351522        2.5663369988       -0.6618423222
 H         -2.9024528842       -0.4868136130        1.4777981725
  20
        -36.15414380
 O         -0.4747169410        0.4971076646       -1.1890004888
 O          1.5769781448       -1.7434140140        0.5481970554
 O          2.3903101080        0.6193615573       -0.4474556947
 O         -0.7942532081        1.8304605222        0.6991467393
 O         -2.5198790067       -0.5063239385        0.5659867630
 C          0.6281701643       -0.7191823930        0.5516347441
 C         -0.3739259162       -0.8171943968       -0.6282273108
 C          1.2498785722        0.6843525690        0.3617080572
 C          0.0869610593        1.4318739696       -0.2982920382
 C         -1.7509412919       -1.3714904216       -0.2284742154
 H          0.0990204401       -0.7640532948        1.5089163092
 H          0.0358788771       -1.4752990885       -1.4031309549
 H          1.5463236070        1.1455724606        1.3035144932
 H          0.4189363423        2.2840848665       -0.9074802470
 H         -2.3444491966       -1.5321153543       -1.1306303114
 H         -1.5886595417       -2.3350300805        0.2737581406
 H          2.3940758676       -1.3974745301        0.1447345593
 H          2.1275986837        0.4726651649       -1.3693866869
 H         -1.5962811449        2.2045142151        0.3017065942
 H         -2.0199927079       -0.2363599105        1.3499455494
  20
        -36.15411323
 O         -0.9679877039        0.7133609162       -0.3487894167
 O          1.4988165936       -1.6917149190        0.6516594202
 O          2.3166054934        0.4102230392       -0.6955256220
 O         -0.1098530173        2.7272858079        0.3215419479
 O         -2.7370464578       -1.7231856147       -0.5552483361
 C          0.6733465192       -0.5744168654        0.7211194692
 C         -0.5563734379       -0.6387217706       -0.2115628935
 C          1.3433738947        0.7386374537        0.2620736274
 C          0.1652224379        1.5492468643       -0.3552071133
 C         -1.6860780387       -1.5005822866        0.3476747384
 H          0.3318696883       -0.4881501750        1.7573466291
 H         -0.2372625192       -1.0236893421       -1.1928286438
 H          1.7752595428        1.2950550811        1.0990129623
 H          0.4274343625        1.8238927023       -1.3911355540
 H         -1.2427957708       -2.4482404598        0.6809985117
 H         -2.1357817773       -0.9928140124        1.2028226341
 H          2.1247567734       -1.5585328010       -0.0817888875
 H          2.9210025287        1.1519723847       -0.8312098818
 H         -0.8482004235        2.5794256272        0.9320295299
 H         -2.4037455792       -2.1848977909       -1.3378546705
  20
        -36.15404320
 O         -0.4874471007        0.3696095771       -1.3332527180
 O          1.6138595834       -1.5507540522       -0.2057407671
 O          2.2931216988        0.8357284248        0.7245110416
 O         -0.3511485974        2.5017515119       -0.4297030416
 O         -2.2317743052       -1.7890240694        1.1050657813
 C          0.5490249107       -0.8547491199        0.3866628579
 C         -0.6945888783       -0.7697575753       -0.5007031528
 C          0.9193459250        0.6354938171        0.5829080739
 C          0.3328914689        1.3228915072       -0.6842366827
 C         -1.9879540854       -0.6469058389        0.3273076137
 H          0.3409703466       -1.3595327149        1.3316581016
 H         -0.7700188842       -1.6332112832       -1.1695401768
 H          0.4276810051        1.0518635469        1.4693158546
 H          1.1390385384        1.6144783487       -1.3690374567
 H         -1.8951923004        0.1776479892        1.0377903801
 H         -2.8201146400       -0.4342620275       -0.3537788141
 H          1.6744254122       -1.3206012349       -1.1453220148
 H          2.7434627746        0.0083938535        0.4662953601
 H         -1.1622253788        2.3323768711        0.0729357003
 H         -2.4564177290       -2.5375511614        0.5341056842
  20
        -36.15402369
 O         -0.9489464640        0.5478038632       -0.8063647901
 O          1.6651247357       -1.5476121488       -0.1867762533
 O          2.3021011887        0.8300422674        0.6672415401
 O         -0.0187981655        2.6235914696       -0.5114133520
 O         -2.2923070695       -1.1409463481        1.1473109263
 C          0.5554780552       -0.8873019176        0.3692115055
 C         -0.6363990091       -0.8275240464       -0.6206552795
 C          0.9323313938        0.6005745065        0.5770378991
 C          0.2493834873        1.2843617039       -0.6362625006
 C         -1.8887245086       -1.5614282471       -0.1310814572
 H          0.2452582562       -1.3443629621        1.3123754476
 H         -0.3102099420       -1.2548164002       -1.5804586338
 H          0.4773374976        0.9876530232        1.4951366856
 H          0.8907317847        1.1839061683       -1.5259289886
 H         -2.6879097326       -1.4113318784       -0.8648685053
 H         -1.6738808944       -2.6279078502       -0.0481964974
 H          1.6584691766       -2.4840691560        0.0489789845
 H          2.7570079524        0.1296202320        0.1661349475
 H         -0.5922465077        2.7872034695        0.2539262099
 H         -2.6007177634       -0.2265928332        1.0861307563
  20
        -36.15395848
 O         -0.7134184013        0.5900381276       -0.8145075380
 O          1.5714217257       -1.6796819366        0.6893352832
 O          2.3385904067        0.4561989601       -0.7597422322
 O         -0.3983832957        2.3475664482        0.6804763602
 O         -2.7949603418       -1.4407747298       -0.5052117310
 C          0.7134501943       -0.5814097890        0.7111360104
 C         -0.4831795453       -0.7127063108       -0.2585818171
 C          1.3853244780        0.7267827761        0.2319879767
 C          0.1856582255        1.5381279311       -0.2858840472
 C         -1.7539503649       -1.2369955000        0.4147948913
 H          0.3472928015       -0.4747337608        1.7383536248
 H         -0.2304017872       -1.3885065246       -1.0855848226
 H          1.9105861849        1.2519921897        1.0309690173
 H          0.4678975408        2.2220380018       -1.0936394759
 H         -1.5400032886       -2.2093878968        0.8628700834
 H         -2.0703602575       -0.5395936794        1.2024155145
 H          2.3152014725       -1.4743311988        0.0930799375
 H          1.8987403356        0.2390913088       -1.5954569285
 H         -0.7675193663        1.8198043912        1.4038140197
 H         -2.9466912852       -0.6132257738       -0.9854923906
  20
        -36.15395305
 O         -0.5039580415        0.4966893344       -1.1680874645
 O          1.6381196322       -1.7196227231        0.4738470719
 O          2.3742031051        0.6565241854       -0.3884181409
 O         -0.8085157001        1.9768732894        0.5950606927
 O         -2.4307481620       -0.4669438246        0.6038328860
 C          0.6123175101       -0.7682174500        0.5321126269
 C         -0.3758857400       -0.8339218745       -0.6578088914
 C          1.2253765852        0.6410846676        0.4101110689
 C          0.1007665669        1.4167269916       -0.2952926646
 C         -1.7610224647       -1.3685696025       -0.2497942609
 H          0.0570582968       -0.8408432534        1.4759213178
 H          0.0422449887       -1.4517177301       -1.4602134524
 H          1.4372532627        1.0839480836        1.3929427184
 H          0.4961752435        2.2389495710       -0.8973958511
 H         -2.3508416004       -1.5639970654       -1.1490503030
 H         -1.6446984861       -2.2989308034        0.3092943439
 H          1.3007774246       -2.5965819500        0.6990102514
 H          2.8521513365       -0.1773693150       -0.2381580831
 H         -1.2859983189        1.2668458918        1.0654429774
 H         -2.8109328188        0.2410481852        0.0633639908
  20
        -36.15394411
 O         -0.4983633605        0.1625203142       -1.1681558923
 O          1.8888398836       -1.4794573569       -0.5616244654
 O          2.3536300318        0.8484508274        0.6080289190
 O         -0.8096434732        2.0227945861        0.1808138108
 O         -2.6519961873       -0.1032816174        0.3390193061
 C          0.8471697072       -1.0591279241        0.2788647271
 C         -0.5138913347       -1.0544049967       -0.4219831804
 C          1.0200424271        0.4377517780        0.6462947675
 C          0.1204558852        1.1690532529       -0.3983077939
 C         -1.6964234922       -1.1054076623        0.5849791142
 H          0.8804196218       -1.7106737330        1.1524070700
 H         -0.5999655507       -1.8545477873       -1.1606114352
 H          0.6290474713        0.6556377370        1.6461793837
 H          0.7311649969        1.7890874653       -1.0653029310
 H         -2.1577409432       -2.0977656897        0.5537651186
 H         -1.3374223779       -0.9203415971        1.5994411374
 H          1.7512550419       -1.1211386803       -1.4523243599
 H          2.8691310281        0.1472495745        0.1644768981
 H         -1.5920864061        1.4974868311        0.4535440564
 H         -3.0044166538       -0.2072725877       -0.5574119820
  20
        -36.15383571
 O         -0.9146566968        0.6393276109       -0.7274586938
 O          1.4660739362       -1.6982313682        0.5546173388
 O          2.4086266723        0.5822611852       -0.2810033030
 O         -0.2464324605        2.6801241555        0.0629808519
 O         -2.3966236507       -1.3445623974        0.7624640863
 C          0.5008596849       -0.6858745281        0.5765089639
 C         -0.4802595370       -0.7084576116       -0.6140654493
 C          1.1874114660        0.6852762947        0.3962245514
 C          0.1878940897        1.4913832897       -0.4781629135
 C         -1.6973953706       -1.6171067804       -0.4248141408
 H         -0.0756298308       -0.6977038993        1.5095029027
 H          0.0664324480       -1.0049983246       -1.5214705246
 H          1.3400748093        1.1960076516        1.3572822310
 H          0.6926293442        1.7515225529       -1.4203783911
 H         -2.3490670846       -1.5108773305       -1.2986360861
 H         -1.3633291647       -2.6535077352       -0.3555815565
 H          1.0832274035       -2.5303560582        0.8617355170
 H          2.8085805094       -0.2737084015       -0.0472683955
 H         -0.8252906775        2.5145856610        0.8238087216
 H         -2.8167038219       -0.4775714048        0.6785085227
  20
        -36.15382544
 O         -0.9326699896        0.7698922178       -0.7957357931
 O          1.3012126123       -1.6308299673        0.2582363540
 O          2.4350985741        0.7238630368        0.3054378722
 O          0.0887336293        2.7999369850       -0.5873986958
 O         -1.9702272211       -2.4204153387        0.6369146020
 C          0.3981411731       -0.6171337189        0.6153135573
 C         -0.7506189723       -0.5809013828       -0.4141424374
 C          1.0547095894        0.7885142011        0.4971591543
 C          0.3054048563        1.4451650550       -0.6978673389
 C         -2.0790055773       -1.1152265232        0.1359059374
 H         -0.0065708882       -0.7830390867        1.6170100764
 H         -0.4290748789       -1.1736540436       -1.2851013439
 H          0.8887737270        1.3878264777        1.3964349850
 H          0.9005073914        1.3068682862       -1.6149355869
 H         -2.3901922672       -0.4900679891        0.9758525467
 H         -2.8383419266       -1.0413821402       -0.6504635124
 H          1.7707822584       -1.9493349740        1.0419726143
 H          2.6307045043       -0.0902229200       -0.1945416954
 H         -0.5999910343        2.9702031112        0.0748136832
 H         -1.7976231839       -3.0373313257       -0.0884159462
  20
        -36.15380985
 O         -0.4617841638        0.4139856384       -1.3301977406
 O          1.5660558175       -1.6487270670       -0.0148772590
 O          2.3609102899        0.8236148345        0.4587878054
 O         -0.4419478287        2.4875912887       -0.2894254079
 O         -2.2347832395       -1.8212590099        1.0118994027
 C          0.5328257686       -0.8214518164        0.4395291621
 C         -0.6629838774       -0.7454732419       -0.5266425322
 C          0.9748966033        0.6618610853        0.5627309210
 C          0.3060834229        1.3705958948       -0.6428843370
 C         -2.0014310821       -0.6774381082        0.2331007746
 H          0.2152387039       -1.2434394774        1.3962852407
 H         -0.6660415378       -1.6011489564       -1.2094018010
 H          0.5944702112        1.1091991782        1.4900801359
 H          1.0809655168        1.7502812144       -1.3204626422
 H         -1.9804271276        0.1557120598        0.9400647094
 H         -2.8086666946       -0.5083519663       -0.4894236350
 H          2.0317959022       -1.2151399942       -0.7463493908
 H          2.7967852116        0.3936235398        1.2104816663
 H         -1.2869469495        2.2249572277        0.1055001295
 H         -2.3565817335       -2.5915660933        0.4390059867
  20
        -36.15379559
 O         -0.4811751858        0.2196171101       -1.1477090031
 O          1.8842886238       -1.6164172607       -0.3718876872
 O          2.3870876856        0.8797745868        0.3114964323
 O         -0.8488900011        1.9698459070        0.3299890198
 O         -2.7097675981       -0.1550994899        0.2020324739
 C          0.8366495045       -1.0303684551        0.3456717169
 C         -0.4937275307       -1.0132627946       -0.4311931829
 C          1.0813243000        0.4825964485        0.6192327485
 C          0.1020270223        1.2074305797       -0.3436000461
 C         -1.7211157006       -1.1058866930        0.5159201487
 H          0.7519553210       -1.6110839488        1.2660993561
 H         -0.5241024078       -1.7986824751       -1.1895912854
 H          0.8155824482        0.7489526019        1.6497125651
 H          0.6613401345        1.8930721058       -0.9922290590
 H         -2.1307416293       -2.1205937596        0.4830326460
 H         -1.4246855742       -0.8833347172        1.5432098503
 H          2.1425978385       -1.0330091840       -1.1022585376
 H          3.0094429552        0.4499030321        0.9176287106
 H         -1.6562210099        1.4274768871        0.4568267032
 H         -2.9987773431       -0.2804302434       -0.7139401010
  20
        -36.15378366
 O         -0.9428266220        0.6781388518       -0.3632748674
 O          1.5933826975       -1.6666184804        0.5802178467
 O          2.3100341647        0.4857722971       -0.7315296640
 O         -0.1189829155        2.6832506147        0.3584438344
 O         -2.7671723143       -1.5781033139       -0.6044344051
 C          0.6852522388       -0.6145277909        0.7218720830
 C         -0.5384148940       -0.6782086620       -0.2127822096
 C          1.3546834186        0.7002598691        0.2686118005
 C          0.1859221543        1.5253479183       -0.3294132091
 C         -1.7229061902       -1.4784401744        0.3285423940
 H          0.3450617719       -0.5159352840        1.7612133776
 H         -0.2268208083       -1.0802273978       -1.1882849963
 H          1.8048914426        1.2447571369        1.1099646327
 H          0.4699102748        1.8357435323       -1.3454091281
 H         -1.4126702271       -2.5037801700        0.5371403361
 H         -2.0763310381       -1.0085996450        1.2557980961
 H          1.2193645508       -2.4882650917        0.9246013337
 H          2.7908613100       -0.3324615272       -0.5179764373
 H         -0.6416776024        2.4725702851        1.1484141977
 H         -3.0315389188       -0.6854875168       -0.8693502478
  20
        -36.15353746
 O         -0.7955207884        0.5981248563       -1.0463440866
 O          1.4860686298       -1.5468261706       -0.1094700870
 O          2.2925518218        0.8470274840        0.6561543489
 O          0.1005523394        2.6678665139       -0.6813374209
 O         -2.1333450242       -2.1860359634        0.9234820435
 C          0.4680006563       -0.7688748242        0.4641394295
 C         -0.7623403578       -0.7012761258       -0.4601279178
 C          0.9023317388        0.7085892418        0.5892247214
 C          0.3746867079        1.3187978192       -0.7307613703
 C         -2.0832708146       -0.9360031030        0.2897230472
 H          0.1894069620       -1.2089092820        1.4301836683
 H         -0.6411421685       -1.4457464579       -1.2583021228
 H          0.3951921569        1.1930695553        1.4291806158
 H          1.1425605813        1.1931439802       -1.5101093481
 H         -2.1833676699       -0.1927013095        1.0839830399
 H         -2.9112777359       -0.8044118220       -0.4163024077
 H          2.3022756585       -1.0124325522       -0.1130524037
 H          2.5890441701        0.8313585540        1.5779131959
 H         -0.7346090644        2.8162508159       -0.2097679844
 H         -2.1178667956       -2.8905551168        0.2602973840
  20
        -36.15347332
 O         -0.5453457711        0.2383586946       -1.1057880500
 O          1.7343655553       -1.5902042453       -0.3632551928
 O          2.4990976018        0.8020364182        0.3231797679
 O         -0.5831228201        2.2037870270        0.1358591891
 O         -2.9290682359       -1.0749003798        0.0469318485
 C          0.8081311475       -0.9035094596        0.4319384637
 C         -0.5665988865       -0.9005113911       -0.2534502396
 C          1.1341324340        0.6021051888        0.5465360799
 C          0.2140352239        1.2597921039       -0.5117836557
 C         -1.7269441150       -0.8511557169        0.7460221142
 H          0.7626521203       -1.3725579193        1.4238451144
 H         -0.6871887185       -1.7685267368       -0.9059236527
 H          0.8266999983        0.9754319210        1.5304021285
 H          0.7994690106        1.7273472934       -1.3182163365
 H         -1.5692573104       -1.6342025800        1.4988696634
 H         -1.7325272837        0.1304158698        1.2356494590
 H          2.5776918729       -1.1066019392       -0.3314556741
 H          2.7503670249        1.7051953220        0.5599716328
 H         -1.2096745365        2.5922104301       -0.4937884018
 H         -3.6753565400       -0.9878111794        0.6571566749
  20
        -36.15345476
 O         -0.9050882338        0.8065658737       -0.8078608891
 O          1.1491933993       -1.6127199003        0.8553591517
 O          2.3619591107        0.3796590602       -0.2928186261
 O         -0.1017361617        2.8429414240       -0.1353017133
 O         -1.8445845579       -2.5004768635        0.4219113916
 C          0.3690546347       -0.4682544398        0.7154942793
 C         -0.6504550462       -0.5406859090       -0.4439294311
 C          1.1862869230        0.7948613160        0.3541526585
 C          0.2509197581        1.5889731385       -0.6025819175
 C         -1.9845450320       -1.1992013484       -0.0787403151
 H         -0.1682327754       -0.3272694001        1.6586611167
 H         -0.1815779411       -1.0711121431       -1.2878101859
 H          1.4103440691        1.3987886726        1.2383152486
 H          0.7719511390        1.7487953825       -1.5601244073
 H         -2.4615602933       -0.6204467791        0.7151976852
 H         -2.6351168983       -1.1759903384       -0.9626481889
 H          1.9390227215       -1.5091123943        0.2953540393
 H          3.0209176141        1.0865272166       -0.2872370550
 H         -0.8838281675        2.7708369946        0.4329401724
 H         -1.4089207314       -3.0607472029       -0.2354563252
  20
        -36.15341761
 O         -0.5184118059        0.1667470309       -1.1624831099
 O          1.8614148927       -1.5134925089       -0.5450585642
 O          2.3680503813        0.8036345918        0.5509838370
 O         -0.8131105513        2.0295944324        0.1875070227
 O         -2.6414297099       -0.1276867095        0.3205823191
 C          0.8503152064       -1.0410346350        0.3016507646
 C         -0.4950076955       -1.0578268927       -0.4360516576
 C          1.0149772718        0.4577112110        0.6354751577
 C          0.1084695581        1.1723133071       -0.4100971566
 C         -1.7079104546       -1.1588557190        0.5319718939
 H          0.8206661369       -1.6551110972        1.2119241910
 H         -0.5125700502       -1.8510029808       -1.1855483338
 H          0.6140704487        0.6669628830        1.6354248711
 H          0.7069321216        1.7834522903       -1.0970876639
 H         -2.1825044254       -2.1391000336        0.4240543567
 H         -1.3786816450       -1.0442028976        1.5668434339
 H          2.6577872851       -0.9771038431       -0.3924738596
 H          2.5001831188        1.7115653417        0.8548933905
 H         -1.6023651356        1.5071425123        0.4439262934
 H         -2.9645938090       -0.1755010341       -0.5917144633
  20
        -36.15327179
 O         -0.4691604176        0.4675080348       -1.3046113066
 O          1.4646156895       -1.6668518826        0.1544430025
 O          2.4582314193        0.7396183549        0.2676651371
 O         -0.5061269644        2.4956795097       -0.1684316799
 O         -2.2196692822       -1.9062417061        0.9051858860
 C          0.5016951927       -0.7169169757        0.5332031451
 C         -0.6281140537       -0.7013139058       -0.5089915375
 C          1.0804130909        0.7276456127        0.4955648402
 C          0.2822277564        1.4440687480       -0.6290169888
 C         -2.0194825408       -0.7409863419        0.1492394872
 H          0.0878681965       -0.9575955309        1.5179195010
 H         -0.5112225844       -1.5561410428       -1.1844946541
 H          0.9216365778        1.2583302570        1.4378604013
 H          0.9668661091        1.9053554500       -1.3503683497
 H         -2.1164996747        0.0859349225        0.8569531626
 H         -2.7797075865       -0.6262330975       -0.6318834565
 H          2.0494435728       -1.8561378771        0.9027649584
 H          2.6684858044        0.0471414255       -0.3835153296
 H         -1.2546356019        2.1677163305        0.3514603259
 H         -2.2528795266       -2.6762581538        0.3201969892
  20
        -36.15316151
 O         -0.8975345822        0.6794930148       -0.8337175157
 O          1.4315576364       -1.5639974276       -0.1015825601
 O          2.3844906456        0.7910744073        0.5725523392
 O          0.1710324473        2.6977497481       -0.7287582795
 O         -2.2680721439       -2.3676031630        0.5872336088
 C          0.5049820593       -0.7126356262        0.5149827568
 C         -0.7853706064       -0.6489426678       -0.3327900884
 C          0.9881672991        0.7496681736        0.5480656654
 C          0.3477201998        1.3296903554       -0.7361362095
 C         -2.0689044858       -0.9877591092        0.4367374909
 H          0.2966826115       -1.0734035811        1.5324507646
 H         -0.6758995626       -1.3488937974       -1.1732247720
 H          0.5577152575        1.2652179604        1.4178641271
 H          0.9905018798        1.0939196342       -1.6005516623
 H         -2.0603763120       -0.4803664042        1.4106318392
 H         -2.9175061227       -0.6188421558       -0.1426467269
 H          2.3247177015       -1.2405671321        0.1050779664
 H          2.6885859477        1.7074258351        0.5121262825
 H         -0.6464723452        2.9148846558       -0.2533887112
 H         -1.5216455619       -2.7597633772        1.0619857477
  20
        -36.15312411
 O         -0.9870159186        0.7355848038       -0.2907301990
 O          1.4775290343       -1.6879601392        0.6762261590
 O          2.2950262064        0.3905158855       -0.7191470818
 O         -0.0809495393        2.7558889928        0.2864786058
 O         -2.5914308107       -1.7998818653       -0.6802950158
 C          0.6645082248       -0.5617803045        0.7341029860
 C         -0.5778158343       -0.6192766932       -0.1810420315
 C          1.3404481075        0.7388687367        0.2497420234
 C          0.1582975926        1.5533633778       -0.3574861215
 C         -1.7050178393       -1.4822204967        0.3671036372
 H          0.3360018647       -0.4576524998        1.7731092095
 H         -0.2908327069       -1.0009783637       -1.1717725149
 H          1.7931014561        1.2998576401        1.0731229384
 H          0.3951212944        1.7921548224       -1.4078687669
 H         -1.2508136877       -2.3916515126        0.7821421130
 H         -2.2170339444       -0.9270930001        1.1615238433
 H          2.0661040677       -1.5968213327       -0.0928206423
 H          2.8872270125        1.1346061668       -0.8917068972
 H         -0.7572021373        2.6246799318        0.9686842114
 H         -3.3329603548       -2.3121305762       -0.3279549541
  20
        -36.15308902
 O         -0.7488997715        0.5731020498       -0.9852415153
 O          1.3553308291       -1.7386562522        0.6931838051
 O          2.3859794089        0.4829694633       -0.4438168344
 O         -0.4876483871        2.3523171423        0.4643134578
 O         -2.4207115135       -1.0883269218        0.6627520029
 C          0.5254727553       -0.6230893519        0.5970469484
 C         -0.3784701095       -0.7568252374       -0.6329883696
 C          1.2410897750        0.7186233823        0.3264164028
 C          0.1553504594        1.5099560353       -0.4316347419
 C         -1.6308633661       -1.5980513488       -0.3807735077
 H         -0.1078074830       -0.5104969953        1.4906112048
 H          0.2077744384       -1.2051035527       -1.4468105152
 H          1.4764008990        1.2450886203        1.2582492626
 H          0.5950638546        2.0804761649       -1.2659670861
 H         -2.2088838948       -1.6597414469       -1.3104668365
 H         -1.3191214013       -2.5986315579       -0.0776676249
 H          1.9886159629       -1.6152479383        1.4147464752
 H          2.9280132002        1.2830016111       -0.4924461803
 H         -1.1726776831        2.8664633689        0.0098111433
 H         -2.6798302700       -0.1848914634        0.4298422980
  20
        -36.15297745
 O         -0.7692098915        0.6439796192       -0.9640077763
 O          1.3250322343       -1.6828638268        0.8103356249
 O          2.3555548421        0.4180493197       -0.4833267746
 O         -0.4466215476        2.5005260982        0.3591268127
 O         -2.3420630620       -1.3310015276        0.7650974647
 C          0.4954294002       -0.5855011754        0.5999091576
 C         -0.4118977498       -0.6987718264       -0.6412596114
 C          1.2400965688        0.7308730885        0.3102779726
 C          0.1729785315        1.5534136209       -0.4538084686
 C         -1.6791805726       -1.5457638809       -0.4565914273
 H         -0.1216609026       -0.4650924608        1.4954744941
 H          0.1698177314       -1.1183373123       -1.4751220078
 H          1.5291644787        1.2561506597        1.2261595348
 H          0.6365528356        2.1028806322       -1.2877286437
 H         -2.3827773077       -1.2578701360       -1.2409999105
 H         -1.4109640826       -2.5988917068       -0.5796994021
 H          2.0881930417       -1.6049085188        0.2139302246
 H          2.9401500493        1.1838431149       -0.5597813423
 H         -1.3002042819        2.1521838073        0.6589454495
 H         -1.9202445017       -1.8562853948        1.4587762553
  20
        -36.15292545
 O         -0.4946635680        0.3624895229       -1.3253377827
 O          1.6009317645       -1.5476665371       -0.2151214429
 O          2.3001330088        0.8295358181        0.7174564836
 O         -0.3348099321        2.5034857218       -0.4450577286
 O         -2.1904782263       -1.8447460327        1.0300549386
 C          0.5453145177       -0.8522371062        0.3944506336
 C         -0.7078396151       -0.7628949456       -0.4779137171
 C          0.9252935702        0.6371795228        0.5803137130
 C          0.3379809401        1.3159194573       -0.6910753342
 C         -1.9896368634       -0.6272111187        0.3545268226
 H          0.3498950079       -1.3597343627        1.3399572980
 H         -0.8110672374       -1.6411829560       -1.1219786676
 H          0.4415682258        1.0651471597        1.4652272535
 H          1.1427029275        1.5933046002       -1.3831790308
 H         -1.8820374424        0.1989758221        1.0697016636
 H         -2.8172089019       -0.4066421300       -0.3302222543
 H          1.6168507652       -1.3535844893       -1.1643136559
 H          2.7450039588        0.0098356881        0.4273226340
 H         -1.1477182531        2.3449197289        0.0581407642
 H         -3.0321290378       -1.8155636515        1.5071129854
  20
        -36.15286846
 O         -0.6365666165        0.2624908368       -1.0242534981
 O          1.7967542875       -1.5245428008       -0.4766586990
 O          2.4554114772        0.8555413063        0.4917357202
 O         -0.4773281584        2.3412897428       -0.0115010850
 O         -2.9694239942       -0.9385117316        0.1473300662
 C          0.8181617168       -0.9664690411        0.3586398821
 C         -0.5771089307       -0.9501328315       -0.2676540714
 C          1.1011434568        0.5376913031        0.5936277393
 C          0.2267619017        1.2438098718       -0.4795385673
 C         -1.7105838480       -1.0037859321        0.7661831580
 H          0.8538347584       -1.5379507920        1.2870434216
 H         -0.7162582778       -1.7656864012       -0.9840203572
 H          0.7588654576        0.8487739286        1.5876800048
 H          0.8519709725        1.6416141517       -1.2882078893
 H         -1.6775861948       -1.9539989690        1.3016491143
 H         -1.5952846680       -0.1842384540        1.4893992433
 H          1.6470355203       -1.2486390211       -1.3935989858
 H          2.9144981609        0.0915286066        0.0926924712
 H         -1.0782969222        2.0920922877        0.7074936263
 H         -2.9513198189       -0.2265024459       -0.5107944939
  20
        -36.15285712
 O         -0.4145723333        0.5857160851       -1.2944921160
 O          1.2993503785       -1.6520910319        0.7295867520
 O          2.4288452643        0.4941680389       -0.3146891880
 O         -0.6352240362        2.3559804057        0.2236884535
 O         -2.1281586619       -1.9145192598        0.7941765909
 C          0.4527994844       -0.5438780959        0.6366710186
 C         -0.5293435976       -0.6357041966       -0.5603586737
 C          1.2280117888        0.7690993604        0.3553160116
 C          0.2358036193        1.5623013840       -0.5106673339
 C         -1.9879412999       -0.8626803451       -0.1239123165
 H         -0.1128848041       -0.4833063229        1.5729580840
 H         -0.2170507773       -1.4467565761       -1.2288801514
 H          1.4963721516        1.3062932134        1.2659061747
 H          0.7337425009        2.2490293206       -1.2020320861
 H         -2.3619515422        0.0291991483        0.3844085467
 H         -2.6015029103       -1.0230419730       -1.0189777057
 H          2.1791507774       -1.3845355932        0.4026515323
 H          2.2467645708        0.2873887908       -1.2441945924
 H         -1.0937571990        1.8411789744        0.9040399138
 H         -1.8453976100       -2.7454769861        0.3876937391
  20
        -36.15266625
 O         -0.8752512883        0.4474261409       -0.6968932190
 O          1.6885607191       -1.4811119141       -0.5170921008
 O          2.4484043060        0.8266051970        0.5653065284
 O         -0.0729799240        2.5610906547       -0.3539933113
 O         -3.0115331729       -1.2329550774        0.1811586912
 C          0.7801475973       -0.8987132580        0.3772049823
 C         -0.6208627934       -0.8879845989       -0.2603119420
 C          1.0713761744        0.5947526913        0.6000449059
 C          0.2775638379        1.2402834810       -0.5602690360
 C         -1.7187815445       -1.3376587323        0.7133156455
 H          0.7823291148       -1.4522853343        1.3258237916
 H         -0.6084764888       -1.5410335036       -1.1429281596
 H          0.6315366556        0.9213374532        1.5528264211
 H          0.8896801953        1.2107165546       -1.4776387277
 H         -1.5023787947       -2.3697094936        1.0197182654
 H         -1.7138948890       -0.6945760743        1.5960470181
 H          2.5754511061       -1.1410652075       -0.3120924471
 H          2.6239064655        1.7759402658        0.6294037716
 H         -0.9153510182        2.5955631115        0.1256315971
 H         -3.0665538678       -1.7361079428       -0.6434488951
  20
        -36.15264468
 O         -0.9706860001        0.8447889457       -0.6539416706
 O          1.1377975080       -1.6479739808        0.6870186779
 O          2.4376930512        0.4955919253       -0.2183506400
 O         -0.0019764548        2.8755491617       -0.2671895243
 O         -1.8846935990       -2.5926101088        0.1182511513
 C          0.3916627222       -0.4666390114        0.7414622173
 C         -0.7120077537       -0.5078867193       -0.3316469110
 C          1.1986825554        0.7998027368        0.3531750248
 C          0.2459597264        1.5644324438       -0.6189616747
 C         -2.0031088587       -1.1942924560        0.1171033944
 H         -0.0635527077       -0.3289295301        1.7320499877
 H         -0.3216716764       -1.0416454147       -1.2127277838
 H          1.4171084161        1.4374569699        1.2135116404
 H          0.7099991210        1.5972377971       -1.6175059441
 H         -2.2945129305       -0.8209919040        1.1080723982
 H         -2.7944062943       -0.9493419810       -0.5940485624
 H          1.8705240793       -1.6042018631        1.3197042531
 H          2.3504722111       -0.2808438853       -0.7943097017
 H         -0.6977292599        2.9050038793        0.4084891423
 H         -1.1034189932       -2.8510123699        0.6301525352
  20
        -36.15260827
 O         -0.5975808596        0.5692565057       -1.1187421063
 O          1.4221102036       -1.7000271001        0.6617947201
 O          2.3804322637        0.5438448232       -0.5115211061
 O         -0.6002190197        2.1573688303        0.5698111719
 O         -2.4868213595       -0.9226831158        0.6603635397
 C          0.5448738467       -0.6120550707        0.5988371161
 C         -0.3737928142       -0.7519384959       -0.6265054864
 C          1.2670499347        0.7228451687        0.3167436169
 C          0.1616282020        1.5091437892       -0.3976882380
 C         -1.7049720984       -1.4749441165       -0.3678312211
 H         -0.0530329580       -0.4991795391        1.5088505227
 H          0.1644687101       -1.3161734208       -1.4011644367
 H          1.5569665828        1.2500760785        1.2343144900
 H          0.5788060937        2.2206581245       -1.1253090450
 H         -2.3061445698       -1.3879843837       -1.2751982281
 H         -1.4856387503       -2.5316626684       -0.1796831163
 H          1.8058618013       -1.7699141335        1.5482513203
 H          2.6359762775       -0.3965226753       -0.4668849529
 H         -1.3790428329        2.5602595434        0.1559989557
 H         -2.1362971394       -1.1792131487        1.5240309242
  20
        -36.15245385
 O         -0.5723423766        0.2758824428       -1.3200790546
 O          1.7596315251       -1.4799297426       -0.4340647684
 O          2.1198701690        0.7800059883        0.9084301090
 O         -0.5024027283        2.3172031125       -0.2310545369
 O         -2.0710380528       -0.5841246530        1.2660255678
 C          0.6389167157       -0.9970086962        0.2582106738
 C         -0.5782010627       -0.9975649678       -0.6726484694
 C          0.7832376663        0.4907457752        0.6197028892
 C          0.2281118411        1.2057774814       -0.6295340423
 C         -1.9195187358       -1.2620707981        0.0395296651
 H          0.4697151699       -1.6112187934        1.1522215285
 H         -0.4458921103       -1.7447251220       -1.4616782868
 H          0.1171279284        0.7399191448        1.4546715137
 H          1.0545450956        1.5056350997       -1.3006543071
 H         -2.7118244452       -0.8923625393       -0.6161672846
 H         -2.0381974262       -2.3411475904        0.1684112396
 H          2.5503898334       -1.0672831222       -0.0484623545
 H          2.1989424195        1.6903687330        1.2236459988
 H         -1.0123549171        2.6601086681       -0.9800536206
 H         -1.7306763606       -1.1275298607        1.9885131139
  20
        -36.15231001
 O         -0.9273951444        0.8448362520       -0.6941261664
 O          1.1346617260       -1.5581459219        1.0206344391
 O          2.2765101017        0.2547459127       -0.5427448345
 O         -0.0705794545        2.8460309145        0.0300321347
 O         -1.7768343460       -2.5791396451       -0.0474214739
 C          0.4071718516       -0.4002482847        0.7788801159
 C         -0.6575740590       -0.5025770120       -0.3338375673
 C          1.2582487714        0.7830869185        0.2676308054
 C          0.2400785233        1.6259638366       -0.5490980599
 C         -1.9621589820       -1.1892680811        0.0598182338
 H         -0.0803335464       -0.1357568689        1.7227852931
 H         -0.2284322702       -1.0451965866       -1.1896723625
 H          1.6687284633        1.3809731872        1.0873079085
 H          0.6634645418        1.8524387700       -1.5399179754
 H         -2.2348450158       -0.9021905457        1.0825406515
 H         -2.7409857236       -0.8390984546       -0.6304982195
 H          1.7810996209       -1.6695168962        0.3041799925
 H          2.9513917836        0.9246344201       -0.7150333254
 H         -0.7980888289        2.7323699509        0.6605929147
 H         -2.5723234145       -3.0330707841        0.2641602857
  20
        -36.15214906
 O         -0.9740089587        0.6918426645       -0.3272671257
 O          1.5055044368       -1.7126597059        0.3616749630
 O          2.4548738434        0.5924392410       -0.4592297516
 O         -0.1019692524        2.7509321088        0.1176547859
 O         -2.8087199405       -1.6590590873       -0.4660227829
 C          0.6786779065       -0.6350966184        0.6950273846
 C         -0.5793102995       -0.6606918037       -0.1939308027
 C          1.3185978976        0.7348947140        0.3442643303
 C          0.1793022300        1.5012312401       -0.3970423326
 C         -1.7141472582       -1.4991346312        0.3957387947
 H          0.3805770190       -0.6606823249        1.7480526071
 H         -0.2918049332       -1.0613904888       -1.1788503329
 H          1.6092099969        1.3034940557        1.2337973597
 H          0.4918704289        1.6566303392       -1.4422795484
 H         -1.2956787343       -2.4729905552        0.6826053139
 H         -2.1091211577       -0.9969679061        1.2809540965
 H          2.1482787198       -1.8724940473        1.0686283107
 H          2.5036112262       -0.3378351524       -0.7522437576
 H         -0.7227125554        2.6605058621        0.8579396887
 H         -2.5227782110       -2.0914779315       -1.2833661213
  20
        -36.15208846
 O         -0.4320436520        0.2502108469       -1.3827854193
 O          1.7978018885       -1.5277741095       -0.3492700414
 O          2.1873448292        0.8160354625        0.7965828276
 O         -0.7414810499        2.1348672937       -0.0562962018
 O         -2.0678964906       -0.3997610376        1.2282813411
 C          0.6440675965       -1.0129054608        0.2651199213
 C         -0.5659206013       -0.9833990844       -0.6739804356
 C          0.8445644781        0.4817887133        0.6195038815
 C          0.1755215912        1.2266486669       -0.5627970715
 C         -1.9281239277       -1.1314125008        0.0353033604
 H          0.4852252374       -1.6282870847        1.1509336017
 H         -0.5041044415       -1.7680512087       -1.4344866090
 H          0.2907037680        0.7601367489        1.5217409179
 H          0.9309026116        1.7407985601       -1.1795577602
 H         -2.6938184375       -0.7502306140       -0.6448917741
 H         -2.1072837295       -2.1976646943        0.2074910862
 H          1.8531346936       -1.2084300344       -1.2626587374
 H          2.7242849912        0.0646269021        0.4773045460
 H         -1.2148172440        2.5712975493       -0.7806510756
 H         -1.6805760478       -0.8878666830        1.9661525019
  20
        -36.15176412
 O         -0.9625313166        0.8477933206       -0.6377277212
 O          1.1959241605       -1.6461454365        0.7537884427
 O          2.3879311377        0.5015331845       -0.2928578857
 O          0.0106979296        2.8691238525       -0.2332585796
 O         -1.8293892305       -2.5664080964        0.0991198666
 C          0.3983332664       -0.5046713723        0.7291658050
 C         -0.7160247903       -0.5141879468       -0.3391889218
 C          1.1910456169        0.7878669463        0.3796602869
 C          0.2559966525        1.5593099002       -0.5865177235
 C         -2.0241625836       -1.1738666434        0.0892013795
 H         -0.0398360227       -0.4260728788        1.7274154707
 H         -0.3430700573       -1.0346581012       -1.2354853947
 H          1.3818149165        1.4016285159        1.2672543178
 H          0.7383689432        1.5855419980       -1.5763728210
 H         -2.3095619520       -0.8019112490        1.0807733768
 H         -2.7961658837       -0.8839516848       -0.6351037625
 H          1.5959806100       -1.7767502523       -0.1202235436
 H          3.0154681298        0.1053726202        0.3319531193
 H         -0.6832417842        2.8976682500        0.4448745149
 H         -2.6375542237       -3.0009238212        0.4055056445
  20
        -36.15147763
 O         -0.4660906565        0.4378443429       -1.2659391148
 O          1.5459301421       -1.6784824028        0.1053789293
 O          2.4583481944        0.7769283624        0.1850619711
 O         -0.4899625270        2.4648537574       -0.1298083932
 O         -2.4525290650       -1.9279783387        0.6890182348
 C          0.5699110921       -0.7617696559        0.5078685191
 C         -0.6494506471       -0.7079079348       -0.4376363158
 C          1.0989801558        0.7022708867        0.5090197464
 C          0.2908469671        1.4142038424       -0.6033942464
 C         -1.9934834077       -0.6554139433        0.3143678300
 H          0.2763080678       -1.0774540370        1.5118474669
 H         -0.6657357963       -1.5752517094       -1.1060377165
 H          0.8953689691        1.1998924837        1.4655276193
 H          0.9784060447        1.8665487230       -1.3274615918
 H         -1.9124152517        0.0005010676        1.1924432950
 H         -2.7508089796       -0.2548658317       -0.3634299129
 H          1.9836897517       -1.3514245074       -0.6958494469
 H          2.9835143365        0.3553450963        0.8828177242
 H         -1.2869036106        2.1298121125        0.3076083274
 H         -1.8160822776       -2.3518103020        1.2820685786
  20
        -36.15142229
 O         -0.6932834606        0.5907764974       -0.8450835664
 O          1.5739475593       -1.6801943279        0.6495833959
 O          2.3620108165        0.4848563994       -0.7188352120
 O         -0.4201314451        2.3459745514        0.6667982549
 O         -2.8401195123       -1.3969025603       -0.4416993306
 C          0.7127801959       -0.5840854637        0.7003396525
 C         -0.4846282922       -0.7057323175       -0.2737901334
 C          1.3802808715        0.7359086901        0.2503381926
 C          0.1847032447        1.5405380763       -0.2924239794
 C         -1.7437501471       -1.2392542643        0.4194905026
 H          0.3472944512       -0.4986784031        1.7295277656
 H         -0.2223200959       -1.3843263959       -1.0966829435
 H          1.8763953495        1.2601430125        1.0681990627
 H          0.4857184088        2.2286679405       -1.0905713778
 H         -1.4779700736       -2.1904776288        0.9008807551
 H         -2.0779948053       -0.5359520637        1.1849682811
 H          2.3343310793       -1.4421225178        0.0866061208
 H          1.9457827214        0.2968199149       -1.5733645493
 H         -0.9104552029        1.8129872866        1.3091704072
 H         -2.6102786574       -2.0052894087       -1.1582456269
  20
        -36.15138745
 O         -0.4577905931        0.3150820823       -1.3775760773
 O          1.6164560223       -1.5236790326       -0.2357366374
 O          2.2720904780        0.8111689497        0.7550940202
 O         -0.3895794789        2.4023878402       -0.3754225588
 O         -2.1568923019       -1.7331627889        1.1133993658
 C          0.5506313893       -0.8626324411        0.3915926962
 C         -0.6938534791       -0.7859561520       -0.5102949463
 C          0.9043244991        0.6291971775        0.5589629887
 C          0.3468305057        1.2760510844       -0.7318286008
 C         -1.9879782535       -0.6020650903        0.2922976752
 H          0.3113093407       -1.3207810758        1.3560628749
 H         -0.7808252588       -1.6737589109       -1.1424332813
 H          0.3265317582        1.0388575374        1.3990513303
 H          1.1634799398        1.5351613947       -1.4229851843
 H         -1.9146636592        0.3159230190        0.8894534642
 H         -2.8167312346       -0.4963161872       -0.4179720179
 H          1.4907925126       -2.4798891457       -0.1607379320
 H          2.4479620528        1.7373511095        0.9752462770
 H         -0.7810712344        2.8062493822       -1.1650045786
 H         -2.9966234922       -1.6612391206        1.5892651070
  20
        -36.15136986
 O         -0.7384562106        0.5345837442       -1.1187707294
 O          1.5118103503       -1.5257910535       -0.1846130626
 O          2.2705766132        0.8544726866        0.7028975876
 O          0.0545381131        2.6338439768       -0.6682308208
 O         -2.1168073742       -2.1389104620        0.9105065132
 C          0.4875169940       -0.7979732678        0.4404691190
 C         -0.7606146545       -0.7264883774       -0.4530171932
 C          0.8866142657        0.6850218756        0.5951933505
 C          0.3847279254        1.2958953943       -0.7339355942
 C         -2.0665954841       -0.8552644519        0.3383095518
 H          0.2419295168       -1.2778888009        1.3958615867
 H         -0.7114595710       -1.5265664845       -1.2004400129
 H          0.3470953616        1.1508204352        1.4260793295
 H          1.1867632483        1.2201674672       -1.4839793558
 H         -2.0938759030       -0.0804821875        1.1169357907
 H         -2.8959367394       -0.6884893108       -0.3578480497
 H          2.3266221380       -0.9910556114       -0.1370291574
 H          2.5448784926        0.8020136323        1.6303449333
 H         -0.8076217545        2.7397607147       -0.2356317168
 H         -2.9900689089       -2.2818482409        1.3031682144
  20
        -36.15133627
 O         -0.7645796490        0.3357758535       -0.9072691895
 O          1.7868053046       -1.3757389012       -0.6043372610
 O          2.3922631990        0.8655135976        0.6963568018
 O         -0.2228901535        2.4661441508       -0.2399907694
 O         -2.9950040865       -0.9455781592        0.2928422314
 C          0.8005674074       -0.9708131669        0.3110053936
 C         -0.6091582058       -0.9476585351       -0.3007622869
 C          1.0474863789        0.5209232626        0.6110586894
 C          0.2779786974        1.2139960889       -0.5437945899
 C         -1.6972467603       -1.2000036338        0.7588640963
 H          0.8351957379       -1.5753820826        1.2226670347
 H         -0.7040761413       -1.6811616123       -1.1102726973
 H          0.5906121513        0.8060624579        1.5636277231
 H          0.9525830027        1.3677281292       -1.3996387711
 H         -1.6052568958       -2.2373412022        1.1092290255
 H         -1.5546994146       -0.5282843498        1.6080634059
 H          1.7917689559       -2.3388156232       -0.6914718582
 H          2.8766499978        0.3752871288        0.0104329154
 H         -0.9961789309        2.3813898257        0.3393829105
 H         -3.1578763836       -1.4502636961       -0.5164948871
  20
        -36.15105307
 O         -0.6721086310        0.2665791904       -1.0160212587
 O          1.7560224710       -1.4380447714       -0.5502508068
 O          2.4217731173        0.8458122878        0.6246868686
 O         -0.3079314632        2.3714551109       -0.1299193659
 O         -2.9876727301       -1.1584740557        0.2224105197
 C          0.8093313100       -0.9486955937        0.3608758084
 C         -0.6071367065       -0.9321011426       -0.2399414016
 C          1.0609209509        0.5526500239        0.5856484059
 C          0.2911598082        1.2034544288       -0.5818576812
 C         -1.7267744918       -0.9627317342        0.8105736696
 H          0.8489158885       -1.4938506514        1.3084518645
 H         -0.7543209612       -1.7587509769       -0.9426822972
 H          0.5605590205        0.8601256117        1.5154382625
 H          0.9740352113        1.4026337351       -1.4239618609
 H         -1.5772104368       -1.8065413952        1.4862813904
 H         -1.7108357313       -0.0289138685        1.3875769219
 H          1.7679295710       -2.4052199648       -0.5259785871
 H          2.5443935124        1.7853009425        0.8233784599
 H         -0.8061200202        2.7929948255       -0.8467459404
 H         -3.1265459725       -0.4747824710       -0.4489102533
  20
        -36.15090589
 O         -0.9910867020        0.7132263071       -0.2758311701
 O          1.4796834583       -1.7130780548        0.3627869817
 O          2.4551115074        0.5871483290       -0.4556720967
 O         -0.0739394056        2.7724504668        0.0637646745
 O         -2.6725715961       -1.7502820155       -0.5852768182
 C          0.6701529019       -0.6262944636        0.7052840873
 C         -0.6047998954       -0.6431253055       -0.1585531452
 C          1.3140746838        0.7379592774        0.3387841886
 C          0.1730860524        1.4991395681       -0.4071215181
 C         -1.7412926789       -1.4690257198        0.4320361022
 H          0.3910828867       -0.6461334538        1.7646671364
 H         -0.3574918456       -1.0514855495       -1.1496208345
 H          1.6089044855        1.3143670700        1.2212178421
 H          0.4615511689        1.6081210481       -1.4648765948
 H         -1.3121270874       -2.3990509063        0.8273747287
 H         -2.2038141888       -0.8949433815        1.2431077619
 H          2.1706650735       -1.8366328393        1.0310340549
 H          2.4500410648       -0.3131524624       -0.8299644373
 H         -0.6510674661        2.7202736618        0.8420666240
 H         -3.4384157943       -2.2015169048       -0.2028746249
  20
        -36.15067331
 O         -0.9439018033        0.6925947897       -0.3651520644
 O          1.5804337601       -1.6600127954        0.5831828197
 O          2.3127322588        0.4912942994       -0.7239605377
 O         -0.1136427702        2.6956142922        0.3541007158
 O         -2.7981817743       -1.5728134950       -0.5614675621
 C          0.6790112459       -0.6011757204        0.7242748573
 C         -0.5421038597       -0.6616297744       -0.2191188038
 C          1.3532302280        0.7109329354        0.2712945367
 C          0.1865984107        1.5349242335       -0.3345826501
 C         -1.7072174392       -1.4945715248        0.3167040873
 H          0.3344507090       -0.4987260427        1.7604212068
 H         -0.2079347036       -1.0503181066       -1.1943183038
 H          1.7980022259        1.2588238622        1.1129802767
 H          0.4770262170        1.8381588331       -1.3519900698
 H         -1.3341609664       -2.5000598227        0.5543211035
 H         -2.0974454074       -1.0301757354        1.2245683412
 H          1.2509480667       -2.4504121755        1.0305111270
 H          2.8004052763       -0.3196437462       -0.4982888794
 H         -0.7451840886        2.4976622614        1.0636216507
 H         -2.5071806741       -1.9149183022       -1.4186433307
  20
        -36.15051475
 O         -0.9695742732        0.7245686820       -0.3580675004
 O          1.4792485989       -1.6860403694        0.6611286741
 O          2.3613869348        0.4419537332       -0.6764791962
 O         -0.1006078337        2.7350684912        0.3110877445
 O         -2.6099615230       -1.7882034079       -0.6542165401
 C          0.6589294443       -0.5620259020        0.7349160531
 C         -0.5774184154       -0.6303917673       -0.1856736832
 C          1.3422455371        0.7344418706        0.2401947674
 C          0.1713338473        1.5582700805       -0.3619804002
 C         -1.7229965574       -1.4542465091        0.3875147052
 H          0.3235873995       -0.4495812064        1.7724882698
 H         -0.3024664935       -1.0672682371       -1.1572541141
 H          1.8212937687        1.2907420915        1.0481489074
 H          0.4228926060        1.8592870167       -1.3916127298
 H         -1.2870622487       -2.3587698777        0.8319109124
 H         -2.2277277246       -0.8661845807        1.1621981553
 H          2.2667316997       -1.4512047258        0.1347500973
 H          1.9886166232        0.1841970622       -1.5327561995
 H         -0.6585699543        2.5540375803        1.0831975685
 H         -3.3706971403       -2.2609545831       -0.2883581267
