  20
        -36.15942901
 O         -0.3672856214        0.3201319098       -1.3814011025
 O          1.7342977637       -1.7043990357       -0.0667120544
 O          2.2932449181        0.8148939236        0.4143423039
 O         -0.9098132417        1.9733234484        0.1489952075
 O         -2.0807692695       -0.4113462811        1.1196386486
 C          0.6104054809       -0.9801965440        0.3429711270
 C         -0.5103575340       -0.9351587160       -0.7155300324
 C          0.9365303793        0.5213249528        0.5932368284
 C          0.1243104033        1.2741008312       -0.4778135456
 C         -1.9060497590       -1.1072075212       -0.0897372250
 H          0.2524778805       -1.4667075493        1.2522352303
 H         -0.3685048157       -1.7032210210       -1.4800558792
 H          0.5837670572        0.8399328523        1.5810164025
 H          0.7750027953        1.9524821700       -1.0434194184
 H         -2.6549742369       -0.7984612453       -0.8305169866
 H         -2.0553855979       -2.1616958174        0.1495792354
 H          2.1814119401       -1.2246862805       -0.7819725686
 H          2.8127006037        0.3443656082        1.0841339401
 H         -1.3603976319        2.5469603926       -0.4899249110
 H         -1.9166591752        0.5377754111        0.9642363539
