20
ribose  charge=0 mult=1  seed=1_b3lyp_pcm
O     -0.39648600     1.00870200    -0.58342700
O      0.52156300    -2.28061300     0.57988000
O      2.16544900    -0.73779800    -0.98415100
O      1.04051200     2.24176800     0.78739000
O     -3.16526900     0.15930600    -0.46408600
C      0.35036500    -0.88249200     0.63566400
C     -0.78148600    -0.34312900    -0.25558200
C      1.56718800    -0.08459200     0.13352700
C      0.95798600     1.27748800    -0.22947700
C     -2.14633400    -0.33036200     0.40189600
H      0.15289800    -0.63096200     1.67957600
H     -0.83657600    -0.92554000    -1.18070600
H      2.34992300     0.01266700     0.88005400
H      1.46212800     1.72668300    -1.08427700
H     -2.42606800    -1.35070200     0.66322000
H     -2.10393800     0.26161200     1.32159200
H      1.08796000    -2.46950200    -0.18102200
H      1.65571100    -0.57629200    -1.78627600
H      0.59351400     1.93125200     1.58362900
H     -2.94803300     1.06840100    -0.69680700
