16
calc_cbdeb70572303b68; angstrom; atom order from source job; valid
N 1.197867 -0.693057 -0.002726
N -1.196501 -0.695606 0.000338
N 2.399528 1.274831 -0.055286
N -2.401951 1.269524 0.063809
N 0.002570 -2.658898 -0.059427
C 1.185458 0.653467 -0.006484
C -1.186892 0.650728 0.005815
C -0.001487 1.383209 -0.002452
C 0.001386 -1.292523 -0.005891
H -0.002795 2.463267 -0.001652
H 3.204914 0.723226 0.193841
H 2.438828 2.249531 0.194896
H -2.444077 2.246272 -0.177644
H -3.207821 0.718355 -0.184660
H -0.849361 -3.124821 0.206575
H 0.858940 -3.122672 0.195763
