35
calc_462b23efdd473dfd; angstrom; atom order from source job; valid
O -1.476862 -0.593363 2.314559
O -4.365056 0.959134 -1.099006
O -3.446518 -3.440923 -0.589357
N -2.407570 -1.982851 0.808422
N -3.865380 -1.224098 -0.852148
C -2.670155 0.447695 0.512202
C -2.132939 -0.728561 1.297955
C -3.708684 0.101995 -0.535579
C -3.246246 -2.292260 -0.239629
H -3.156184 1.120713 1.220674
H -2.015853 -2.773806 1.307524
H -4.526318 -1.457168 -1.584994
P 4.075118 -0.816234 0.069541
O -0.699972 0.385908 -0.916961
O 0.457800 3.294518 -0.942979
O -1.106383 3.222612 1.286450
O 2.901931 0.092657 -0.490804
O 5.362605 0.013042 -0.332883
O 4.174158 -2.102634 -0.847899
O 3.949206 -1.202568 1.489031
C 0.665001 2.162343 -0.100187
C 0.670424 0.850475 -0.889487
C -0.581523 2.011957 0.783120
C -1.534703 1.261710 -0.157378
C 1.511552 -0.255247 -0.271173
H 1.572099 2.288915 0.488849
H 1.001191 1.026364 -1.913544
H -0.333331 1.394487 1.641231
H -2.017706 1.988490 -0.815431
H 1.324603 -0.351845 0.797141
H 1.295331 -1.200116 -0.767279
H 1.286538 3.501696 -1.389145
H -1.133739 3.861867 0.562090
H 5.481631 0.839687 0.157225
H 4.161983 -1.934842 -1.801660
