35
calc_462b23efdd473dfd; angstrom; first printed source-job orientation; unoptimized start
O -1.472902 -0.602673 2.310697
O -4.370252 0.963680 -1.088682
O -3.467132 -3.439557 -0.592046
N -2.416371 -1.986422 0.804973
N -3.877354 -1.221127 -0.845981
C -2.671902 0.446437 0.514354
C -2.134610 -0.734157 1.295938
C -3.713747 0.106057 -0.528458
C -3.259774 -2.293224 -0.240741
H -3.154090 1.116196 1.227335
H -2.023879 -2.782425 1.300314
H -4.542650 -1.450554 -1.576943
P 4.082967 -0.803177 0.067576
O -0.705039 0.378075 -0.914798
O 0.459454 3.285399 -0.943394
O -1.099443 3.214724 1.289235
O 2.899545 0.082958 -0.510100
O 5.360771 0.043978 -0.327357
O 4.224279 -2.097375 -0.836205
O 3.946784 -1.186584 1.489370
C 0.665588 2.151935 -0.101464
C 0.667520 0.838934 -0.892031
C -0.578897 2.005317 0.782377
C -1.534348 1.256401 -0.155291
C 1.512087 -0.267437 -0.278885
H 1.574222 2.276358 0.486055
H 0.995220 1.013671 -1.918512
H -0.330410 1.383538 1.638774
H -2.017604 1.983559 -0.813889
H 1.331495 -0.359463 0.792283
H 1.292740 -1.213358 -0.771127
H 1.287489 3.485443 -1.394475
H -1.126626 3.856235 0.563785
H 5.351352 0.981479 0.038097
H 4.212295 -1.933249 -1.791836
