  31
        -60.80512543
 N         -0.9485360919        1.6132056590        0.2569410613
 N         -0.5337421703        3.1581837774       -1.2699730895
 C         -0.2773486754        2.6311032743        0.8820558975
 C         -1.0544041462        1.9854916644       -1.0444232477
 C         -0.0363221224        3.5718786081       -0.0706975308
 H         -0.0273508995        2.5866565703        1.9204828815
 H         -1.5327956298        1.3912160760       -1.7955007375
 H          0.4570067949        4.5176941969        0.0205561075
 P          2.3478477554       -0.4481884375        0.0957261881
 O         -0.3628986574       -0.6167557266        0.8132564528
 O         -2.8987020966       -2.3664795630       -0.8827292502
 O         -3.3656651025       -0.9336546166        1.2493911124
 O          1.6765178971       -1.7221944895       -0.6353817299
 O          3.8847554446       -0.7886380632       -0.1028252368
 O          2.2069167303       -0.6086338288        1.6474414955
 O          1.9095011694        0.8439769249       -0.4471015488
 C         -2.0859716305       -1.2503494028       -0.7326720207
 C         -0.6775172606       -1.5795364303       -0.1842180964
 C         -2.6336289907       -0.2223041877        0.2904369953
 C         -1.3505361491        0.3860538831        0.8966276140
 C          0.4155628185       -1.5482148438       -1.2485207522
 H         -1.9962999461       -0.7957193672       -1.7233218695
 H         -0.6782775853       -2.5621914970        0.3031082650
 H         -3.2423999827        0.5453626891       -0.1947791589
 H         -1.4727687595        0.6036546227        1.9647055837
 H          0.4011596873       -0.5783377450       -1.7564933655
 H          0.2936410920       -2.3645615607       -1.9608780103
 H         -3.3117498620       -2.5638751794       -0.0225198644
 H         -3.9766263173       -0.3531036776        1.7235767571
 H          4.2351948849       -0.6281775425       -0.9844138341
 H          2.6363246106       -1.3930619614        2.0117324550
