31
imidazole_ribose_phosphate  charge=0 mult=1  seed=1_b3lyp_pcm
N      3.20757900    -0.41110700     0.14810700
N      5.06164800    -1.62324100     0.02145900
C      3.04724200    -1.26764400    -0.92281300
C      4.43688500    -0.67417300     0.67783900
C      4.19611900    -2.00178700    -0.98361800
H      2.15600100    -1.28547600    -1.52248000
H      4.81248000    -0.13779900     1.53363800
H      4.44787900    -2.77679700    -1.68741500
P     -3.73536900    -0.46196100    -0.07926300
O      1.12418800    -0.09043000     1.17375800
O     -0.44362400     2.29529100    -1.01764300
O      1.83669100     2.88369400     0.21208800
O     -2.34079500     0.24136800     0.18950200
O     -4.04902900    -1.09371100     1.34239900
O     -3.44880200    -1.75822400    -0.96300600
O     -4.71075200     0.47937800    -0.64495100
C      0.31641800     1.17212700    -0.62110400
C     -0.06252400     0.57226400     0.73935000
C      1.77254500     1.59963500    -0.38638100
C      2.27789300     0.57419500     0.65159500
C     -1.17723000    -0.45472600     0.69733800
H      0.28218500     0.39218600    -1.38733800
H     -0.33016800     1.37929900     1.42841300
H      2.36825700     1.57316700    -1.29943400
H      2.79127300     1.10886800     1.44967500
H     -1.39056300    -0.84466900     1.69049900
H     -0.92046100    -1.27514300     0.02826000
H     -1.37919400     2.06387000    -0.99721600
H      1.11993000     3.41297200    -0.16239600
H     -4.86171500    -1.61241600     1.38993300
H     -3.53707700    -1.60648000    -1.91256900
