  14
        -25.66512396
 O          2.2863126670       -0.9963827111       -0.0670401523
 O         -2.2184196540       -1.0510093716        0.1149022615
 N         -1.2139980884        0.9743787682        0.0164893242
 N          0.0386561484       -0.9620053453       -0.1466159754
 C         -0.0321485356        1.7566891082       -0.2906595508
 C          1.1849244853        1.1070718702        0.3564386610
 C          1.2520744382       -0.3611437150        0.0208290633
 C         -1.2152638703       -0.3606625394        0.0017326965
 H         -0.1734667451        2.7644930396        0.0974247624
 H          0.1082493774        1.8122641345       -1.3768576519
 H          1.1220770706        1.1790051504        1.4452558400
 H          2.1090498184        1.5868494527        0.0391892443
 H         -2.1133312435        1.4292929673        0.0590526387
 H          0.0274538816       -1.9686362007       -0.2681908130
