14
dihydrouracil  charge=0 mult=1  seed=1_b3lyp_pcm
O      2.26058300    -1.11016100    -0.06916400
O     -2.26751000    -1.07023200     0.08094300
N     -1.20297400     0.94816100     0.07566100
N      0.00192500    -1.02725200    -0.11378000
C     -0.01333400     1.71725700    -0.27838300
C      1.22427200     1.03813000     0.29371200
C      1.24392800    -0.44496800     0.01086800
C     -1.24553400    -0.39914200     0.01719800
H     -0.11919700     2.71780500     0.13156900
H      0.07200200     1.80780500    -1.36448100
H      1.25033000     1.15180800     1.38071200
H      2.13459700     1.47780400    -0.10520200
H     -2.09980800     1.40651600     0.08048300
H     -0.03115700    -2.03260600    -0.21084900
