36
calc_fb123ef5cc4bc102; angstrom; atom order from source job; valid
P -4.689464 -0.279868 0.420890
O -0.162315 -0.755834 0.171184
O 0.416480 2.423841 -1.401877
O -1.921210 2.133349 -0.265594
O -3.747949 -1.052667 -0.584961
O -4.677398 -1.225745 1.698806
O -6.107411 -0.391652 -0.268907
O 6.513729 -1.135571 -0.244071
O -4.358287 1.133752 0.690668
N 2.014003 -0.170536 -0.408432
N 3.649243 -1.326605 -1.415728
N 3.279792 0.858476 1.401822
N 5.548428 0.246860 1.310541
C -0.003383 1.092159 -1.254515
C -1.496981 0.935093 -0.889997
C 0.698618 0.338484 -0.107239
C -1.508828 -0.269216 0.084873
C -2.379275 -1.447217 -0.331287
C 3.162381 0.074938 0.304726
C 2.377409 -1.025181 -1.427630
C 4.162599 -0.642558 -0.336557
C 5.500991 -0.585254 0.171656
C 4.495451 0.905177 1.861088
H 0.198523 0.574701 -2.191374
H -2.097261 0.737152 -1.778783
H 0.809107 0.992649 0.760542
H -1.814474 0.097845 1.068181
H -2.367555 -2.222289 0.432515
H -2.028137 -1.864511 -1.271138
H -0.173363 2.971082 -0.864105
H -2.821794 1.987419 0.079285
H 1.657386 -1.398913 -2.135583
H 4.718545 1.497606 2.737615
H 6.457509 0.347333 1.742308
H -4.917470 -0.785113 2.523890
H -6.418335 -1.288647 -0.446822
