  30
        -59.79767795
 O          1.4999857843        2.3671634083        0.9124089705
 O          4.6855375047       -0.9095110952       -0.0678975947
 O          0.3022808568       -1.7716846966       -0.5356366904
 N          0.8518312267        0.3374970086        0.1363143493
 N          2.4812793870       -1.2864838762       -0.3163442726
 C          3.2198254013        0.9853074118        0.0350865494
 C          1.8047724424        1.3050638055        0.4212384205
 C          3.5612715313       -0.4674613568       -0.1011222913
 C          1.1516692382       -0.9514388051       -0.2640819955
 H          3.9040348698        1.4726597451        0.7340419580
 H          3.4021368976        1.4590332874       -0.9382375645
 H          2.6718447317       -2.2693426151       -0.5023412344
 O         -1.1266306325       -0.2599353861        1.2457836418
 O         -3.3593425068        1.7018949512        0.0028071754
 O         -1.3021700143        1.8581962574       -1.6407551538
 O         -2.5117706286       -2.4001774584       -0.4921311004
 C         -2.8166964297        0.4423747081       -0.3053097475
 C         -2.5230211595       -0.4043143938        0.9491821342
 C         -1.4163066988        0.6865886430       -0.9042514080
 C         -0.5468508978        0.6722941207        0.3748683234
 C         -2.8727106543       -1.8901187984        0.7655065326
 H         -3.4495286657       -0.1110520300       -1.0040671220
 H         -3.0770853117       -0.0100955756        1.8097792397
 H         -1.1315186021       -0.1440048315       -1.5547121786
 H         -0.5425525632        1.6771127100        0.8240599784
 H         -2.3907797332       -2.4520019708        1.5736196519
 H         -3.9552249383       -2.0133466905        0.8372455621
 H         -4.3184429931        1.6415680016        0.1064009922
 H         -1.9037289049        2.5190557514       -1.2528355920
 H         -1.5431592861       -2.3908673005       -0.5692681174
  30
        -59.79738940
 O          0.2689493071       -1.8881334618       -0.1874383496
 O          4.7407813545       -0.5606407084       -0.4513099273
 O          1.5089700974        2.4387173523        0.4294198474
 N          0.8437967825        0.2667935688        0.2059879784
 N          3.0940327499        0.9014055615        0.0114178049
 C          2.5848967823       -1.4592817047        0.0858508887
 C          1.1379957435       -1.0664796061        0.0057710531
 C          3.5835407377       -0.3689704717       -0.1600488582
 C          1.7949978019        1.2787441297        0.2410211621
 H          2.7699542375       -2.3007709550       -0.5867159331
 H          2.7595185124       -1.8442261729        1.0988231176
 H          3.7560506263        1.6701471064       -0.0740203116
 O         -1.1806627841       -0.1082689252        1.3141525851
 O         -3.3179753513        1.7103099505       -0.2555258122
 O         -1.2146948602        1.5795195106       -1.8485646360
 O         -2.5581103759       -2.4417628433       -0.1623563734
 C         -2.8055211045        0.4066375339       -0.3729139768
 C         -2.5701801973       -0.2674488123        0.9931523122
 C         -1.3827658925        0.5296213880       -0.9555448829
 C         -0.5502802162        0.6759030982        0.3403327758
 C         -2.9479331253       -1.7578554195        1.0003983507
 H         -3.4355110475       -0.2197505147       -1.0101424263
 H         -3.1409391056        0.2492039525        1.7741439902
 H         -1.1038323086       -0.3918131532       -1.4723344464
 H         -0.5291959352        1.7343935414        0.6408694557
 H         -2.5067069323       -2.2131692755        1.8942515257
 H         -4.0349061472       -1.8491602871        1.0493061478
 H         -4.2794769952        1.6885415972       -0.1580033512
 H         -1.8012158237        2.3070219154       -1.5737942700
 H         -1.5872238504       -2.4682261672       -0.2020839863
  30
        -59.79713458
 O          0.2524720050       -1.6866900539       -0.8519526682
 O          4.7738198113       -0.6820579462       -0.0741866945
 O          1.5301249436        2.1068230596        1.2971200266
 N          0.8455291945        0.2462662363        0.1658426380
 N          3.1173445749        0.7095238803        0.5413793179
 C          2.5663618265       -1.1855580956       -0.8551419745
 C          1.1288775224       -0.9223597903       -0.5107702886
 C          3.5982187378       -0.4022457739       -0.1033615952
 C          1.8102734528        1.0921176589        0.7013198760
 H          2.6896010409       -0.9560072570       -1.9214704495
 H          2.7676258723       -2.2567031738       -0.7659359817
 H          3.7991202841        1.3056328530        1.0072555445
 O         -1.1537877457       -0.4505694720        1.1679499926
 O         -3.3340908450        1.7301081520        0.2259006103
 O         -1.2620852304        2.0810280892       -1.3675504538
 O         -2.5742619145       -2.2761492063       -0.8615806795
 C         -2.8175900252        0.5178904658       -0.2634024432
 C         -2.5517935962       -0.5113001364        0.8534137181
 C         -1.4082657375        0.8148534796       -0.8165172731
 C         -0.5455772737        0.5857635536        0.4460248745
 C         -2.9382605839       -1.9444355465        0.4533674549
 H         -3.4583233438        0.0886566282       -1.0382173824
 H         -3.0995222977       -0.2319975115        1.7618495786
 H         -1.1440074020        0.0869971150       -1.5869927195
 H         -0.5197144664        1.5127035075        1.0385240600
 H         -2.4815545452       -2.6305103784        1.1757726103
 H         -4.0244283072       -2.0467942321        0.4969921011
 H         -4.2949022585        1.6764502488        0.3159130756
 H         -1.8419028002        2.6927282478       -0.8792358246
 H         -1.6044821465       -2.2796076213       -0.9294273602
  30
        -59.79662454
 O          1.5358686279        2.3641329829        1.0131332954
 O          4.7643442031       -0.8606017930        0.0473479064
 O          0.4175865841       -1.6767850221       -0.7491860958
 N          0.9254207853        0.3858169080        0.0860420180
 N          2.5806207181       -1.2149739787       -0.3662008424
 C          3.2952004392        1.0329169240        0.1378121104
 C          1.8625950887        1.3313193848        0.4750447196
 C          3.6446844534       -0.4133606968       -0.0401841507
 C          1.2477674170       -0.8799673269       -0.3750826042
 H          3.9458861419        1.4933984392        0.8850206295
 H          3.5162622439        1.5435402723       -0.8081968325
 H          2.7810808913       -2.1878195472       -0.5896735475
 O         -1.0480922437       -0.2250712894        1.2047251760
 O         -3.3293418501        1.5545098935       -0.0100710290
 O         -1.3058943606        1.8882864686       -1.6757770976
 O         -3.8341816193       -2.3223324182        0.1672157354
 C         -2.7298901327        0.3415795885       -0.3912847494
 C         -2.3792310073       -0.5565810190        0.8058822018
 C         -1.3465373894        0.6908656964       -0.9735649140
 C         -0.4829845425        0.6987638321        0.3099258465
 C         -2.4849084164       -2.0465368089        0.4666524426
 H         -3.3524265770       -0.1983940199       -1.1099716908
 H         -3.0407804205       -0.3386610133        1.6524229930
 H         -1.0031434173       -0.0972572573       -1.6467616372
 H         -0.4928345498        1.7067693673        0.7502778121
 H         -1.8289850361       -2.2705121396       -0.3816121971
 H         -2.1423672123       -2.6173575379        1.3375001426
 H         -4.2654550219        1.4150029940        0.1868572019
 H         -1.9352894472        2.5043448405       -1.2599715097
 H         -3.9301156896       -3.2648626582       -0.0288226212
  30
        -59.79636496
 O          0.3958669311       -1.7320793868       -0.7142896839
 O          4.8492947163       -0.4017776798       -0.3844326847
 O          1.5444040769        2.3238392338        0.9797522666
 N          0.9142932563        0.2594071684        0.2365885896
 N          3.1653968486        0.9186474610        0.3133837231
 C          2.6801166345       -1.3978791782       -0.1593153704
 C          1.2368442754       -0.9911563131       -0.2589339615
 C          3.6777532590       -0.2802186952       -0.1126471124
 C          1.8505314485        1.2341293457        0.5520920917
 H          2.9204101478       -2.0885357943       -0.9710014159
 H          2.7881383063       -1.9721290003        0.7695417459
 H          3.8202596497        1.6884001866        0.4363701957
 O         -1.1306202087       -0.3210577191        1.2209982729
 O         -3.2953315748        1.5822288392       -0.0178996455
 O         -1.1757651756        1.9368283237       -1.5581789140
 O         -3.9168605302       -2.2830970695       -0.0547260979
 C         -2.7092981605        0.3726480023       -0.4290837232
 C         -2.4469269494       -0.5937744883        0.7369804049
 C         -1.2877940070        0.7083058919       -0.9204361501
 C         -0.4909420552        0.6231213729        0.4035957628
 C         -2.5755826261       -2.0613758134        0.3173114712
 H         -3.3068858750       -0.1120557539       -1.2060247167
 H         -3.1462758233       -0.3986716656        1.5582696273
 H         -0.9320401021       -0.0548849800       -1.6158150787
 H         -0.4870923824        1.6088636505        0.8913114263
 H         -1.8889160689       -2.2620972674       -0.5122571155
 H         -2.2883545552       -2.6847097666        1.1718750105
 H         -4.2438632290        1.4600147993        0.1235461309
 H         -1.8026288643        2.5535450340       -1.1396367270
 H         -4.0288934117       -3.2124066996       -0.2992234922
  30
        -59.79634872
 O          1.6903335366        2.0877536997        1.4773148017
 O          4.5880425181       -1.1868531354       -0.1858133024
 O          0.2055740912       -1.2775530566       -1.1847654575
 N          0.9184202847        0.4744845089        0.0850968071
 N          2.3977901651       -1.1698042911       -0.6992902834
 C          3.3384889462        0.7806280838        0.3742697814
 C          1.9315580653        1.1754391363        0.7213471180
 C          3.5295171819       -0.6037186121       -0.1680045834
 C          1.1126753453       -0.6902008608       -0.6404709236
 H          3.9820562388        0.9383948397        1.2433845875
 H          3.6938711287        1.4857774664       -0.3878744128
 H          2.4992677577       -2.0784273723       -1.1473809635
 O         -1.1157577329       -0.1453053461        1.0436816477
 O         -3.6432093893        0.7064684661       -1.2216025831
 O         -1.7664979925        2.4944483825       -0.9208999137
 O         -2.7793683908       -2.3988297085        1.8577233216
 C         -2.3980158886        0.1298612425       -0.9516755173
 C         -2.3959521598       -0.4210552802        0.4820337538
 C         -1.2648436828        1.1927212716       -0.9449465505
 C         -0.4654116417        0.8790240458        0.3419824923
 C         -2.6497693183       -1.9281719440        0.5411086500
 H         -2.1482738641       -0.6714879605       -1.6509804827
 H         -3.1634480698        0.1050790681        1.0674643561
 H         -0.6176804237        1.0956173409       -1.8225537956
 H         -0.3988431865        1.7860700721        0.9586239600
 H         -3.5949303901       -2.1519015251        0.0434922434
 H         -1.8286022738       -2.4372341794        0.0191830131
 H         -3.8072403479        0.7244823636       -2.1755567005
 H         -2.7345401333        2.4416850989       -0.7943120892
 H         -1.9850163838       -2.1533998984        2.3527418859
  30
        -59.79628414
 O          0.3866413607       -1.7300178742       -0.7128235052
 O          4.8453796105       -0.4143053722       -0.3999365513
 O          1.5550410413        2.3190110989        0.9836182911
 N          0.9154568850        0.2587328333        0.2375719356
 N          3.1688473028        0.9097493748        0.3082113088
 C          2.6742757188       -1.4046779078       -0.1642752364
 C          1.2321040658       -0.9929528488       -0.2601497433
 C          3.6755638093       -0.2901069107       -0.1220849952
 C          1.8559681298        1.2292150461        0.5521845179
 H          2.9090639936       -2.0974271839       -0.9757481837
 H          2.7830213334       -1.9782103424        0.7649667097
 H          3.8268397555        1.6768589880        0.4300730605
 O         -1.1316016790       -0.3099980254        1.2251178662
 O         -3.2985431334        1.5965110950       -0.0279913288
 O         -1.1700196180        1.9420080631       -1.5566698794
 O         -3.8836048083       -2.3656336156       -0.0918169516
 C         -2.7099358534        0.3836571902       -0.4288244882
 C         -2.4520732977       -0.5760602928        0.7447016427
 C         -1.2853819294        0.7138592270       -0.9186231386
 C         -0.4879862180        0.6282923655        0.4049424933
 C         -2.5798885568       -2.0512423052        0.3248843992
 H         -3.2991849168       -0.1102801223       -1.2062954644
 H         -3.1395863244       -0.3599947962        1.5719797515
 H         -0.9330996876       -0.0515364437       -1.6131434694
 H         -0.4792717023        1.6153875987        0.8901830934
 H         -1.9203014875       -2.2423193841       -0.5235297660
 H         -2.2534109078       -2.6802130373        1.1592003430
 H         -4.2604670124        1.5090289742        0.0096965821
 H         -1.7950671477        2.5602867717       -1.1367971336
 H         -4.4679184948       -2.4268087095        0.6776047240
  30
        -59.79608700
 O          0.3942681490       -1.2778564142       -1.3683164116
 O          4.8388947371       -0.6839162130       -0.0249391664
 O          1.5385543706        1.7097679380        1.8608805321
 N          0.9177126480        0.2734704262        0.1976453373
 N          3.1608102269        0.5343953039        0.8486944842
 C          2.7025620246       -0.8064309312       -1.1048428596
 C          1.2442195004       -0.6543170812       -0.7736325890
 C          3.6776522335       -0.3501439198       -0.0635149736
 C          1.8489185667        0.8988002068        1.0184286670
 H          2.8890175665       -0.2138907981       -2.0097550745
 H          2.9026128350       -1.8437830871       -1.3845923682
 H          3.8071684439        0.9340125869        1.5263322175
 O         -1.0852435632       -0.6519281570        0.9994816418
 O         -3.3154552026        1.4934582639        0.5102977366
 O         -1.2617881177        2.3811499789       -0.8971468501
 O         -3.8773821866       -2.1644527667       -0.7765972325
 C         -2.7302357009        0.4976071328       -0.2904922476
 C         -2.4119843787       -0.7885169775        0.4886504570
 C         -1.3327299215        1.0095840314       -0.6904757384
 C         -0.4882674111        0.5222499509        0.5097949587
 C         -2.5292277062       -2.0420185972       -0.3839355656
 H         -3.3508980082        0.2773066256       -1.1634412897
 H         -3.0861716805       -0.8912622693        1.3469265436
 H         -0.9965131712        0.5233205035       -1.6082360327
 H         -0.4861675902        1.2983704695        1.2889169757
 H         -1.8645926846       -1.9432583588       -1.2490062789
 H         -2.2051511795       -2.9021447912        0.2131985434
 H         -4.2552457270        1.3064358586        0.6383112104
 H         -1.8806548082        2.8136067833       -0.2820393808
 H         -3.9826305609       -2.9680437435       -1.3050106278
  30
        -59.79606590
 O          0.2044667348       -0.1692580820       -1.7443168497
 O          4.7505921619       -0.4206929603       -0.6791763316
 O          1.6838105298        0.3735903470        2.5132132691
 N          0.8899980838        0.0370549421        0.4008042337
 N          3.1806385235       -0.0525647652        0.8905470388
 C          2.4634407674       -0.7654829186       -1.3054894933
 C          1.0961936925       -0.2682280725       -0.9325422288
 C          3.5806810556       -0.3951098698       -0.3767680174
 C          1.8986193407        0.1214525642        1.3498191082
 H          2.6993934241       -0.4524830016       -2.3256417479
 H          2.4118473700       -1.8614893659       -1.3345947552
 H          3.9111099161        0.1269413995        1.5766474355
 O         -1.2684979475       -0.8206833850        0.5786907072
 O         -3.4780063395        1.6899985923       -0.4336290279
 O         -1.5443731491        2.4675204521        1.1335528118
 O         -3.0997554684       -2.7552411954       -0.6051297004
 C         -2.3026930894        0.9592724686       -0.6386046100
 C         -2.4840156784       -0.4569558172       -0.0722970231
 C         -1.1180634598        1.5417673957        0.1813079342
 C         -0.4796512113        0.3020953191        0.8524525964
 C         -2.8000428581       -1.4960331112       -1.1497406405
 H         -2.0283059768        0.8999229319       -1.6944641568
 H         -3.2930880248       -0.4416757659        0.6716327489
 H         -0.3847096862        2.0358935500       -0.4647058857
 H         -0.4101666549        0.4701915140        1.9357203947
 H         -3.6886569759       -1.1831927267       -1.7005189046
 H         -1.9440574143       -1.5564013857       -1.8348783447
 H         -3.5436182051        2.4133124451       -1.0739218198
 H         -2.5216053185        2.4468427339        1.1560256504
 H         -2.3612593477       -3.0315093478       -0.0441334561
  30
        -59.79599936
 O          1.7611321905        2.2766957393        1.2835458593
 O          4.7182698305       -1.0591235662       -0.1200976416
 O          0.3081189507       -1.4319118340       -0.8992085780
 N          0.9969975508        0.4921116784        0.1114028474
 N          2.5103132586       -1.1819750464       -0.5333472331
 C          3.4123282749        0.9164300997        0.2529462053
 C          2.0064382786        1.2957772484        0.6210359938
 C          3.6384544874       -0.5160779518       -0.1255215853
 C          1.2091031922       -0.7463019089       -0.4739218182
 H          4.0875799876        1.2057691388        1.0619546084
 H          3.6987515853        1.5335961915       -0.6081422680
 H          2.6305132172       -2.1344434431       -0.8724641149
 O         -0.9833315487       -0.0870017643        1.2040414480
 O         -3.5565896542        0.4381897998       -1.1918038459
 O         -1.7894940582        2.3304665511       -0.9267073793
 O         -3.8931615908       -2.1059584032        0.4888115991
 C         -2.3212261936       -0.0545669374       -0.7599505819
 C         -2.2892635570       -0.3924416485        0.7419035653
 C         -1.2466550530        1.0429674312       -0.8979888757
 C         -0.3873478436        0.8804702404        0.3758509691
 C         -2.6061293779       -1.8613063212        1.0071733112
 H         -2.0182410982       -0.9329924426       -1.3412119092
 H         -3.0206716615        0.2447231491        1.2613317942
 H         -0.6349479588        0.8836662500       -1.7958365274
 H         -0.3341684393        1.8494186238        0.8913061054
 H         -1.8464417225       -2.4724869859        0.5040634862
 H         -2.5623880059       -2.0474897199        2.0858703844
 H         -4.2307252049       -0.2386000291       -1.0285500610
 H         -2.7157438942        2.2556185162       -1.2206070025
 H         -4.1361493469       -3.0281451900        0.6519073915
  30
        -59.79598976
 O          1.4903940204        2.2228842996        1.2090193026
 O          4.6614220532       -0.9567615417       -0.0584627618
 O          0.3063847177       -1.5829488674       -0.9779665801
 N          0.8510916555        0.3692692322        0.0694848276
 N          2.4750337590       -1.2168587302       -0.5244110271
 C          3.2330099513        0.9496501231        0.2193700179
 C          1.8030630966        1.2459022485        0.5682652363
 C          3.5526967610       -0.4776042885       -0.1076904456
 C          1.1510626398       -0.8495278236       -0.5169248760
 H          3.8833868676        1.3126700746        1.0186046666
 H          3.4794703949        1.5517752329       -0.6645434742
 H          2.6574150238       -2.1647586006       -0.8483445499
 O         -1.1834090055       -0.2922633084        1.0396124945
 O         -3.3556293151        1.7154162885       -0.0795839835
 O         -1.2396790212        2.1164148959       -1.6098690442
 O         -2.6940251000       -2.8279997817        1.2619683433
 C         -2.7833543358        0.5185537033       -0.5417400214
 C         -2.5311317041       -0.4951743729        0.5874691372
 C         -1.3615057506        0.8612457302       -1.0292189890
 C         -0.5540221369        0.7034102784        0.2796944572
 C         -2.7181248455       -1.9569176933        0.1581688162
 H         -3.3801976237        0.0796279026       -1.3462272353
 H         -3.1846690598       -0.2906675876        1.4446616732
 H         -1.0253696733        0.1245531235       -1.7620833644
 H         -0.5512572583        1.6577427892        0.8271215912
 H         -3.7014691113       -2.0853561366       -0.2972446765
 H         -1.9373168166       -2.2196312355       -0.5647885595
 H         -4.3054966378        1.6032590992        0.0622980695
 H         -1.8523124312        2.7228369145       -1.1565980019
 H         -1.8434619830       -2.7320776032        1.7120379126
  30
        -59.79590924
 O          0.2214083778        0.1117003535       -1.7561480444
 O          4.6435641881       -0.9487877623       -0.6189770148
 O          1.6253831886        0.0431924375        2.5595411903
 N          0.8992619856        0.1763593848        0.4002706308
 N          3.1176965508       -0.3788021907        0.9339719773
 C          2.5623603903       -0.0537075539       -1.3964802488
 C          1.1303461878        0.0647763664       -0.9583854959
 C          3.5439612014       -0.5170677770       -0.3633123856
 C          1.8636216798       -0.0408165045        1.3767716739
 H          2.8830037163        0.9412804627       -1.7305003525
 H          2.6177863682       -0.6915904909       -2.2824676049
 H          3.7823697073       -0.6144819795        1.6686825285
 O         -1.2174525379       -0.7996865087        0.5331224331
 O         -3.5482868455        1.6425100466       -0.3513337498
 O         -1.6662747054        2.4224528798        1.2782657713
 O         -2.8910993027       -2.7592952801       -0.8206195623
 C         -2.3332554498        0.9927214587       -0.5937293889
 C         -2.4385418247       -0.4659319269       -0.1235600491
 C         -1.1858176725        1.5859271696        0.2703114465
 C         -0.4821838499        0.3447761139        0.8657576324
 C         -2.6708717783       -1.4482253209       -1.2736961353
 H         -2.0523154225        1.0172313300       -1.6492384073
 H         -3.2613440679       -0.5493482979        0.6002127050
 H         -0.4812153621        2.1634835968       -0.3364289828
 H         -0.4166554678        0.4534408970        1.9567757792
 H         -3.5728246213       -1.1587960241       -1.8155384425
 H         -1.8055527459       -1.4043872782       -1.9480676114
 H         -3.6470479156        2.4060594477       -0.9387681271
 H         -2.6396903110        2.3380021805        1.3035770888
 H         -2.1385184199       -3.0281476917       -0.2749986393
  30
        -59.79570269
 O          0.2987357738       -1.1415309307       -1.5111127018
 O          4.7784850910       -0.3748228253       -0.4415139497
 O          1.4932062205        1.5456978907        1.9520275612
 N          0.8381258422        0.1367316086        0.2801075112
 N          3.1019458490        0.5405950139        0.7479172873
 C          2.5669681453       -1.2208576319       -0.8151527247
 C          1.1438868777       -0.7442521374       -0.7417085092
 C          3.5970572108       -0.3296981010       -0.1898801787
 C          1.7874722886        0.7814070447        1.0613570051
 H          2.8262263950       -1.4286814732       -1.8561946327
 H          2.6115847339       -2.1872650733       -0.2969133290
 H          3.7761728763        1.1108122769        1.2546312353
 O         -1.2847636341       -0.7054883933        0.7960642646
 O         -3.2732791139        1.7270037246        0.5230542761
 O         -1.0468466587        2.5718222528       -0.6302783153
 O         -2.9507588234       -2.9956490101       -0.1336411683
 C         -2.7331630472        0.7915284517       -0.3754869497
 C         -2.6038567914       -0.6141247392        0.2358445324
 C         -1.2671767401        1.2010895361       -0.6191348205
 C         -0.5599391518        0.4667401089        0.5437678270
 C         -2.8206415147       -1.7504084054       -0.7736173623
 H         -3.2975215427        0.7708359619       -1.3119822458
 H         -3.3079304104       -0.7414355304        1.0673764685
 H         -0.9175066634        0.8044510328       -1.5747044165
 H         -0.5526566890        1.1134689723        1.4336703064
 H         -3.7594746779       -1.5949916289       -1.3077971084
 H         -1.9876355998       -1.7602292607       -1.4859138620
 H         -4.2358324681        1.6426832852        0.5623829895
 H         -1.6558187358        2.9834660900        0.0085129097
 H         -2.1420137729       -3.1746909027        0.3654757024
  30
        -59.79568783
 O          0.2377871464       -1.0023579469       -1.3919005551
 O          4.8247844691       -0.4702059387       -0.6549340196
 O          1.8233186171        1.4468899090        2.0900790307
 N          0.9808651883        0.1767433551        0.3911383430
 N          3.2883006591        0.4478854888        0.7091414175
 C          2.5543723385       -1.1950732142       -0.9039048538
 C          1.1625523495       -0.6728746014       -0.6855345537
 C          3.6691547631       -0.3877903145       -0.3103786838
 C          2.0139433397        0.7267083095        1.1372869515
 H          2.7231399712       -1.3447960537       -1.9732102465
 H          2.5975218138       -2.1943978965       -0.4522619996
 H          4.0256862811        0.9533639840        1.1964310161
 O         -1.1004159687       -0.6447845110        1.0452638956
 O         -3.4572328229        1.1442526261       -0.9204239906
 O         -1.6175272384        2.5333010422        0.2837280762
 O         -4.0066893394       -1.8726393909       -0.7187384022
 C         -2.2831559635        0.4076829992       -0.7322677432
 C         -2.3762780239       -0.6045668914        0.4241626224
 C         -1.1455097577        1.3494551557       -0.2886837446
 C         -0.3847133314        0.5332914796        0.7803207780
 C         -2.7639873671       -1.9971287952       -0.0661072920
 H         -1.9885360966       -0.1095549997       -1.6524116993
 H         -3.1227438236       -0.2439993766        1.1474378951
 H         -0.4810071755        1.5892374101       -1.1301172657
 H         -0.2917670799        1.1422735553        1.6897842965
 H         -1.9829350692       -2.3492126927       -0.7513402228
 H         -2.8254575653       -2.6754167864        0.7920411355
 H         -4.1740865693        0.5286119312       -1.1353829112
 H         -2.5203948837        2.6846274759       -0.0509987789
 H         -4.2861667856       -2.7392510473       -1.0456764223
  30
        -59.79564293
 O          0.2778424965       -0.4834402848       -1.6504525906
 O          4.7939391011       -0.8297375405       -0.4762092009
 O          1.7691623994        0.7126787563        2.4674094274
 N          0.9891877108        0.2322603148        0.3762242857
 N          3.2555251509       -0.0053246771        0.9444895791
 C          2.6294399949       -0.3201901599       -1.3680148676
 C          1.2005276949       -0.2254691760       -0.9124390238
 C          3.6671443387       -0.4328246915       -0.2926571857
 C          1.9876931324        0.3445445409        1.3364094363
 H          2.8472731091        0.5914442800       -1.9388892187
 H          2.7301336339       -1.1447842948       -2.0781122486
 H          3.9504694384        0.0007531384        1.6888980328
 O         -1.0487126326       -0.8192817523        0.8170989116
 O         -3.5062282100        1.2796009144       -0.6617218575
 O         -1.7085676795        2.4237238168        0.8299102539
 O         -3.9566619338       -1.7153935094       -1.1324031453
 C         -2.3016457963        0.5691101194       -0.6523546111
 C         -2.3386019584       -0.6838385777        0.2417853761
 C         -1.1962935594        1.4296611075       -0.0080720501
 C         -0.3871455108        0.4211266304        0.8365107146
 C         -2.6942608384       -1.9402285837       -0.5482117115
 H         -1.9989035280        0.2887313738       -1.6678165351
 H         -3.0795034809       -0.5242586144        1.0394226763
 H         -0.5585127071        1.8910829139       -0.7736447505
 H         -0.3141445213        0.8028398720        1.8639954146
 H         -1.9203960199       -2.0973451943       -1.3097725987
 H         -2.7113221840       -2.7991290367        0.1317191125
 H         -4.2027435813        0.6974562238       -1.0009728369
 H         -2.6241781944        2.6038980723        0.5485798653
 H         -4.2192766486       -2.4957230216       -1.6402536580
  30
        -59.79567252
 O          1.5232809861        2.3559166779        0.9308204343
 O          4.6843024767       -0.9333972896       -0.0940231629
 O          0.2917786217       -1.7674489729       -0.5261076372
 N          0.8586673404        0.3384404467        0.1376934468
 N          2.4756269994       -1.2955984064       -0.3240142640
 C          3.2319369028        0.9693336596        0.0395615445
 C          1.8204454512        1.2962616685        0.4295152745
 C          3.5626656760       -0.4843487873       -0.1132143214
 C          1.1488586637       -0.9529228648       -0.2625168831
 H          3.9206835100        1.4433616288        0.7433952761
 H          3.4182465359        1.4532027706       -0.9280984907
 H          2.6590590347       -2.2787901747       -0.5155306842
 O         -1.1287997527       -0.2184571436        1.2621808376
 O         -3.4885085205        1.6358479435       -0.0773533055
 O         -1.3223133392        1.9054029688       -1.6040909809
 O         -2.5007014624       -2.4026226118       -0.4848284407
 C         -2.8120165585        0.4317207754       -0.3151667076
 C         -2.5191396724       -0.3940984583        0.9463479209
 C         -1.4077341037        0.7053337370       -0.9047666651
 C         -0.5369249138        0.6908412567        0.3727199871
 C         -2.8483227695       -1.8874681203        0.7732703710
 H         -3.4313998316       -0.1301560150       -1.0166699388
 H         -3.0966331449       -0.0149200184        1.7986424143
 H         -1.1062991890       -0.1116307879       -1.5667618611
 H         -0.5033952760        1.7016686988        0.8083162103
 H         -2.3498859002       -2.4385445047        1.5790087192
 H         -3.9289384223       -2.0177654376        0.8601095335
 H         -3.1535185745        2.0662471250        0.7233181272
 H         -2.1272237097        2.4241542137       -1.4110897608
 H         -1.5331083594       -2.3912416394       -0.5741647898
  30
        -59.79547711
 O          0.3112335056       -0.7384911606       -1.7467543403
 O          4.7338829543       -0.7911159044       -0.2036243304
 O          1.4562355393        1.0027573694        2.2908509154
 N          0.8420902678        0.2114750510        0.2391837413
 N          3.0681353898        0.1417513269        0.9867720141
 C          2.6267669688       -0.4858890834       -1.3031966689
 C          1.1657038117       -0.3754822477       -0.9704484078
 C          3.5844668248       -0.4202663823       -0.1533751010
 C          1.7662248621        0.4938131331        1.2379332078
 H          2.8651955511        0.3468216469       -1.9773779293
 H          2.7970680365       -1.3940353741       -1.8872008076
 H          3.7063214316        0.2756002504        1.7687800932
 O         -1.2452525960       -0.7843156735        0.6353243136
 O         -3.3120765656        1.5870436150        0.8080187702
 O         -1.1399448229        2.6928367519       -0.2198716149
 O         -2.8100013783       -2.9420573173       -0.6587847087
 C         -2.7624284585        0.8371210670       -0.2453279324
 C         -2.5757692524       -0.6465257214        0.1143252689
 C         -1.3154920847        1.3331357382       -0.4390846545
 C         -0.5620660340        0.4391253531        0.5715046142
 C         -2.7695351607       -1.5990492386       -1.0739530560
 H         -3.3463868691        0.9557836344       -1.1623471990
 H         -3.2604024289       -0.9407337366        0.9193414162
 H         -0.9770634669        1.1185333144       -1.4547380977
 H         -0.5601988967        0.9274405321        1.5572464744
 H         -3.7339335588       -1.4073708541       -1.5473052263
 H         -1.9627711142       -1.4378079163       -1.7980746972
 H         -4.2699989541        1.4616277744        0.8490185372
 H         -1.7432801028        2.9673845700        0.4933715858
 H         -1.9767968885       -3.1523111120       -0.2151927858
  30
        -59.79539948
 O          0.1710005410       -0.9062675381       -1.4280578557
 O          4.7755199941       -0.6579254179       -0.6013985429
 O          1.8397638819        1.4238268914        2.0929065122
 N          0.9549411920        0.2180008969        0.3694567801
 N          3.2679330635        0.3468462020        0.7323438503
 C          2.4697450159       -1.2251562343       -0.9221896074
 C          1.1058875406       -0.6327413582       -0.7099115111
 C          3.6187519800       -0.5019907989       -0.2868569235
 C          2.0045656635        0.6989618495        1.1384492467
 H          2.6481568411       -1.3513793486       -1.9931450437
 H          2.4480226677       -2.2401661928       -0.5051742153
 H          4.0248234144        0.7986314627        1.2418410514
 O         -1.1328818785       -0.5075365526        1.1220478247
 O         -3.5764765257        1.2029350502       -0.6067419606
 O         -1.5465811174        2.6580231873        0.0720487323
 O         -3.7372709451       -2.1748118266       -0.8413264015
 C         -2.3780079881        0.4799279951       -0.6806105848
 C         -2.3669178633       -0.5940927439        0.4200991310
 C         -1.1579824270        1.3889575267       -0.3565239925
 C         -0.4001849645        0.6284565854        0.7570459825
 C         -2.5345926058       -2.0150290020       -0.1384749624
 H         -2.2460425800        0.0036998045       -1.6541162190
 H         -3.1815573510       -0.3696205924        1.1246476639
 H         -0.5117481741        1.5167878121       -1.2299551521
 H         -0.2694818199        1.2875930275        1.6257569218
 H         -1.7307941197       -2.2076182692       -0.8528508131
 H         -2.4503953183       -2.7283390068        0.6898420831
 H         -3.8232112631        1.5382484331       -1.4800081159
 H         -2.5059413893        2.6280076816        0.2617954557
 H         -4.4845735503       -2.0818098160       -0.2330950378
  30
        -59.79538860
 O          0.2523539506       -1.8825223509       -0.1814928506
 O          4.7325112057       -0.5980047920       -0.4856684259
 O          1.5415370872        2.4264588064        0.4578037808
 N          0.8517399477        0.2647853312        0.2114248954
 N          3.1082024279        0.8773480309        0.0140409778
 C          2.5748220096       -1.4780013974        0.0757775324
 C          1.1314767874       -1.0709437250        0.0067732751
 C          3.5818038011       -0.3969049303       -0.1766191488
 C          1.8154415459        1.2659881678        0.2537783719
 H          2.7463831978       -2.3208427242       -0.5986100517
 H          2.7536525785       -1.8650663094        1.0873016700
 H          3.7783665001        1.6393481209       -0.0681754656
 O         -1.1824622188       -0.0678016357        1.3267174526
 O         -3.4454200531        1.6437626288       -0.3235321664
 O         -1.2290895170        1.6498503687       -1.8060828397
 O         -2.5560749744       -2.4382278406       -0.1666445654
 C         -2.7981203198        0.4018938878       -0.3794148407
 C         -2.5657946355       -0.2572681472        0.9880693772
 C         -1.3698483268        0.5595181916       -0.9529729651
 C         -0.5371365564        0.6946716147        0.3434346959
 C         -2.9262429720       -1.7537210408        1.0008469243
 H         -3.4131251163       -0.2315666627       -1.0212319484
 H         -3.1610170682        0.2411173756        1.7630339960
 H         -1.0721117937       -0.3460657082       -1.4889620097
 H         -0.4824232372        1.7540756745        0.6379320079
 H         -2.4662136879       -2.2036951512        1.8880250104
 H         -4.0119504755       -1.8478707472        1.0692122259
 H         -3.1152648558        2.1703636071        0.4196706368
 H         -2.0200993120        2.2143122834       -1.7065374326
 H         -1.5861343927       -2.4724327046       -0.2205135287
  30
        -59.79533930
 O          1.7528696289        2.2471143735        1.3260855897
 O          4.7280116756       -1.0544809085       -0.1301028445
 O          0.3253328725       -1.4062356079       -0.9630846456
 N          1.0036923632        0.4905992014        0.1034804376
 N          2.5236771659       -1.1680578566       -0.5650869858
 C          3.4175587333        0.9077697924        0.2902173671
 C          2.0068376053        1.2808022032        0.6454035955
 C          3.6475437403       -0.5126595981       -0.1293000304
 C          1.2221868255       -0.7334961731       -0.5096212960
 H          4.0791942257        1.1679730287        1.1203609320
 H          3.7224639635        1.5521653126       -0.5441068232
 H          2.6471317004       -2.1117715030       -0.9267411055
 O         -0.9802911679       -0.1084348695        1.1771476828
 O         -3.5429611396        0.4399087316       -1.2319764518
 O         -1.7826810205        2.3329593655       -0.9216792220
 O         -3.9525313284       -2.1617278930        0.6417713514
 C         -2.3130044033       -0.0545962331       -0.7855802651
 C         -2.2934999402       -0.3923704078        0.7180469698
 C         -1.2381139369        1.0455164963       -0.9101442675
 C         -0.3827612978        0.8711151426        0.3636862384
 C         -2.6282171997       -1.8603679330        1.0026863647
 H         -1.9985230851       -0.9311646468       -1.3615678094
 H         -3.0061668708        0.2710423856        1.2333192224
 H         -0.6257869421        0.8959840483       -1.8091916021
 H         -0.3364717900        1.8344727006        0.8905673590
 H         -1.9779623679       -2.4912573624        0.3912328782
 H         -2.4292064414       -2.0740690637        2.0569392096
 H         -4.1859881048       -0.2834415160       -1.2497327476
 H         -2.6917104565        2.2688725658       -1.2663691683
 H         -4.5574334968       -1.8479160217        1.3292176817
  30
        -59.79531022
 O          1.6878175397        2.0914367896        1.4636521142
 O          4.5959418931       -1.1791378112       -0.1910460761
 O          0.2135865446       -1.2827417079       -1.1938514503
 N          0.9217266785        0.4712793020        0.0765248090
 N          2.4058249947       -1.1697937497       -0.7061177519
 C          3.3403883637        0.7852112917        0.3655205682
 C          1.9325576509        1.1768606004        0.7116614848
 C          3.5355068210       -0.5996004323       -0.1745829018
 C          1.1189884862       -0.6949432819       -0.6485452220
 H          3.9831972949        0.9457734499        1.2347072272
 H          3.6952222958        1.4898244849       -0.3973896017
 H          2.5104020435       -2.0783302683       -1.1536647352
 O         -1.1042595933       -0.1739897668        1.0318997245
 O         -3.6351546738        0.6653715429       -1.3329496492
 O         -1.7494488081        2.4978855895       -0.8158044588
 O         -2.8330257070       -2.3941129130        1.8665342343
 C         -2.4082654862        0.1369093639       -0.9404730939
 C         -2.4015175418       -0.4221484223        0.4937915075
 C         -1.2639924632        1.1890047977       -0.9307807593
 C         -0.4629249897        0.8634689691        0.3415423012
 C         -2.6888037423       -1.9227559751        0.5512083127
 H         -2.1702806043       -0.6579342590       -1.6502332431
 H         -3.1402927524        0.1131400341        1.1085155108
 H         -0.6303922020        1.0852272732       -1.8179758115
 H         -0.4051470169        1.7654735791        0.9674258822
 H         -3.6371046470       -2.1209392412        0.0483254539
 H         -1.8805265143       -2.4495870275        0.0279662086
 H         -3.8793485881        1.3917629350       -0.7355884893
 H         -2.1920040821        2.7472935027       -1.6423395332
 H         -2.0239480921       -2.1929611939        2.3578061962
  30
        -59.79527602
 O          0.1925463697       -0.5346315728       -1.6095227985
 O          4.7036465075       -1.0326397797       -0.4209461547
 O          1.7902450355        0.9355308798        2.3764001049
 N          0.9614492187        0.2900931258        0.3499469284
 N          3.2203147759       -0.0039743365        0.9218165483
 C          2.5506645291       -0.5268710368       -1.3413824917
 C          1.1366777044       -0.2857843987       -0.8941285256
 C          3.5964216282       -0.5717144191       -0.2691938725
 C          1.9758972630        0.4450725751        1.2864690282
 H          2.8175015720        0.2864165777       -2.0281247568
 H          2.5876481274       -1.4395054755       -1.9421161435
 H          3.9252967486        0.0461785841        1.6548172912
 O         -1.0913366976       -0.6255674827        1.0029858870
 O         -3.6160634736        1.2291604212       -0.4351336018
 O         -1.6448835986        2.6377872540        0.4765387625
 O         -3.6344775705       -2.0780861851       -1.1973886780
 C         -2.3890190703        0.5784403663       -0.6222952302
 C         -2.3245374208       -0.6545819111        0.2949042819
 C         -1.2061543805        1.4761827039       -0.1593066874
 C         -0.4031005371        0.5798049840        0.8101316234
 C         -2.4336396235       -1.9758842246       -0.4807986817
 H         -2.2437644859        0.2669285433       -1.6585313335
 H         -3.1435027166       -0.5808045081        1.0257963342
 H         -0.5791637313        1.7773710956       -1.0033754314
 H         -0.2827103410        1.0987816126        1.7704730115
 H         -1.6285018712       -2.0167875739       -1.2179949376
 H         -2.3092312665       -2.8061477470        0.2243683000
 H         -3.8835297016        1.6857578578       -1.2451075280
 H         -2.6011711363        2.5378062892        0.6568824281
 H         -4.3792424602       -2.1239816962       -0.5806561646
  30
        -59.79522246
 O          1.6909814170        2.0916123162        1.4723272024
 O          4.5876702250       -1.1693503920       -0.2192177153
 O          0.1919124926       -1.2984267016       -1.1505491561
 N          0.9094247753        0.4667965440        0.0982738911
 N          2.3891696518       -1.1724104064       -0.6960374503
 C          3.3316056148        0.7910336152        0.3513317758
 C          1.9270037146        1.1780910976        0.7164928936
 C          3.5250060431       -0.5944216520       -0.1870452309
 C          1.1018934556       -0.7001510989       -0.6231419497
 H          3.9865579926        0.9579010755        1.2101859323
 H          3.6705573683        1.4950513869       -0.4193348394
 H          2.4903361444       -2.0826830998       -1.1408627468
 O         -1.1334189077       -0.1390988427        1.0581262262
 O         -3.5892416390        0.7553899035       -1.3200877652
 O         -1.7639018706        2.5068098831       -0.8403866643
 O         -2.7642824526       -2.4181429744        1.8456143485
 C         -2.3885402673        0.1351550584       -0.9564684818
 C         -2.4039063654       -0.4323043121        0.4767227764
 C         -1.2700494490        1.2029477395       -0.9213706171
 C         -0.4726612643        0.8773834494        0.3585722067
 C         -2.6195596472       -1.9467581851        0.5303317033
 H         -2.1076262270       -0.6530347247       -1.6616114401
 H         -3.1802009795        0.0791085902        1.0639807697
 H         -0.6238514459        1.1155035255       -1.8048621547
 H         -0.4016314847        1.7840765003        0.9748823318
 H         -3.5454316520       -2.2094981034        0.0162763833
 H         -1.7725706446       -2.4316409146        0.0273843361
 H         -4.2492328846        0.0966598503       -1.5725222317
 H         -2.6924878319        2.4948637952       -1.1365445522
 H         -1.9886650286       -2.1487432112        2.3571999042
  30
        -59.79513821
 O          0.2363568334       -1.6897431404       -0.8322492755
 O          4.7737362702       -0.7101943091       -0.0987194864
 O          1.5580080355        2.1003985100        1.2920541522
 N          0.8519387253        0.2461557755        0.1637861166
 N          3.1298650378        0.6914262713        0.5265429249
 C          2.5554931407       -1.2145108518       -0.8471651442
 C          1.1221553787       -0.9318049220       -0.5021755258
 C          3.5989276201       -0.4269853546       -0.1162333246
 C          1.8277898217        1.0838553474        0.6940228484
 H          2.6763866071       -1.0099725820       -1.9188353731
 H          2.7471966922       -2.2856197986       -0.7368197571
 H          3.8197719068        1.2861427356        0.9821521210
 O         -1.1541731812       -0.4016325334        1.1957528066
 O         -3.4577184700        1.6883008537        0.1460182676
 O         -1.2835995435        2.1204508945       -1.3316639389
 O         -2.5670173741       -2.2723462372       -0.8553267141
 C         -2.8142442858        0.5142558370       -0.2687396924
 C         -2.5463342611       -0.4961211326        0.8562711438
 C         -1.4018298775        0.8335940553       -0.8150885343
 C         -0.5341827691        0.6087110293        0.4441867447
 C         -2.9099201322       -1.9392585566        0.4636813225
 H         -3.4477268788        0.0791189618       -1.0439352587
 H         -3.1189440995       -0.2345009567        1.7546658239
 H         -1.1244413666        0.1166104737       -1.5926713452
 H         -0.4746847829        1.5459441720        1.0186394239
 H         -2.4304215748       -2.6147814526        1.1814457849
 H         -3.9939216484       -2.0537200621        0.5277544350
 H         -3.1133564997        1.9852801562        1.0014343046
 H         -2.0700580348        2.6299727796       -1.0558375887
 H         -1.5984647300       -2.2773546036       -0.9389868575
  30
        -59.79510661
 O          1.7169618947        2.1820218083        1.3326474893
 O          4.6066489710       -1.1950569578       -0.1754414241
 O          0.2212941355       -1.3122029082       -1.1566434478
 N          0.9314186823        0.4587985590        0.0917994891
 N          2.4132440758       -1.1915287684       -0.6772267221
 C          3.3593011943        0.7830569717        0.3459762471
 C          1.9534126836        1.2050986250        0.6581383129
 C          3.5471109736       -0.6135182303       -0.1644109127
 C          1.1257548160       -0.7171816389       -0.6198290214
 H          3.9853415883        0.9488712697        1.2269436850
 H          3.7474714348        1.4697503240       -0.4170253899
 H          2.5141964898       -2.1066713575       -1.1119059274
 O         -1.1072256836       -0.2055240056        1.0362270174
 O         -3.5608756941        0.5924347544       -1.4523446815
 O         -1.9549371122        2.4785401903       -0.6084088500
 O         -2.9148165022       -2.4030796527        1.7905739148
 C         -2.3346982017        0.1525927704       -0.9681983195
 C         -2.3958063676       -0.4216340572        0.4609287902
 C         -1.2767618648        1.2748746728       -0.8378614575
 C         -0.4482731196        0.8537724516        0.3983549762
 C         -2.7171881477       -1.9140471749        0.4882968572
 H         -1.9753012827       -0.6206183150       -1.6516908126
 H         -3.1430153088        0.1284387713        1.0505845522
 H         -0.6475257429        1.3294326442       -1.7307904973
 H         -0.3579977149        1.7038058930        1.0900339611
 H         -3.6520861387       -2.0803233769       -0.0498856431
 H         -1.9048005660       -2.4523310392       -0.0166139083
 H         -3.7217697654        1.4898653311       -1.1118411941
 H         -1.3843996519        3.2402479098       -0.7779428776
 H         -2.1166043832       -2.2305409548        2.3100019678
  30
        -59.79505750
 O          1.7146273216        2.2548698131        1.2054430306
 O          4.6704943450       -0.9405774538       -0.5564133292
 O          0.2255462213       -1.4111992944       -1.0116448893
 N          0.9257129230        0.3862390483        0.2053311929
 N          2.4373661995       -1.1501823569       -0.7196207380
 C          3.3281028262        0.5846303738        0.7120214945
 C          1.9458846661        1.1654560778        0.7311663846
 C          3.5720818467       -0.5483478730       -0.2385392937
 C          1.1300194108       -0.7735065147       -0.5258034573
 H          3.5371804195        0.2170534783        1.7249854026
 H          4.0551126342        1.3830825248        0.5402944817
 H          2.5641479557       -1.9585207142       -1.3256136692
 O         -1.1687056980       -0.1966875519        1.0764791372
 O         -3.4716729446        0.5771992557       -1.5619209758
 O         -1.9015167363        2.4587828354       -0.6361003344
 O         -3.0767129472       -2.3406371552        1.7758984463
 C         -2.2802711840        0.1360656889       -0.9989054552
 C         -2.4276231033       -0.4072848712        0.4357100593
 C         -1.2203772231        1.2504998404       -0.8279090436
 C         -0.4534029931        0.8283488054        0.4465809899
 C         -2.7763780165       -1.8930070181        0.4782635519
 H         -1.8910543540       -0.6543808590       -1.6453209112
 H         -3.1959621192        0.1670373347        0.9728079317
 H         -0.5494999369        1.2985630853       -1.6911323672
 H         -0.3632917199        1.6896016991        1.1246049643
 H         -3.6729050770       -2.0590259564       -0.1217838066
 H         -1.9393007276       -2.4577511843        0.0486470270
 H         -3.6530477057        1.4750908367       -1.2336525260
 H         -1.3124257394        3.2155648020       -0.7572365842
 H         -2.3151925457       -2.1629090848        2.3460500366
  30
        -59.79505177
 O          0.2309783809       -0.2539274884       -1.7526505927
 O          4.7821266791       -0.4211357467       -0.6704611903
 O          1.7064909988        0.5811054536        2.4514740067
 N          0.9087125577        0.0358651563        0.3882191658
 N          3.2060049533        0.0352833276        0.8682082841
 C          2.4983107226       -0.7942732053       -1.2914034405
 C          1.1205235318       -0.3107531177       -0.9370257561
 C          3.6107702999       -0.3797674645       -0.3766661998
 C          1.9240196903        0.2239377149        1.3148106776
 H          2.7293560964       -0.5080061496       -2.3207164690
 H          2.4647769724       -1.8913473771       -1.2914480879
 H          3.9354767149        0.2645122987        1.5408105909
 O         -1.2453151744       -0.8661761850        0.5295935613
 O         -3.3764229801        1.7374722407       -0.7135446743
 O         -1.7904831456        2.2380924532        1.3118909343
 O         -3.2610734750       -2.7102807739       -0.5928918718
 C         -2.2324888237        0.9517368053       -0.6426915994
 C         -2.4755465090       -0.4587230101       -0.0709096417
 C         -1.1442639369        1.5136805855        0.3033303859
 C         -0.4637240915        0.2440543711        0.8672407417
 C         -2.8793624780       -1.4730269979       -1.1383233584
 H         -1.8374382534        0.8667365835       -1.6580369268
 H         -3.2502008345       -0.4146976498        0.7080400516
 H         -0.4242621997        2.1336311534       -0.2401328242
 H         -0.3814011578        0.3224919447        1.9607264329
 H         -3.7498344233       -1.0889483071       -1.6732884268
 H         -2.0431452612       -1.5909326583       -1.8393272856
 H         -3.5526621587        2.1074222756        0.1688650510
 H         -1.1638722405        2.7820118984        1.8074620266
 H         -2.5236168408       -3.0582501289       -0.0716650813
  30
        -59.79500667
 O          0.2387847591       -0.8066282461       -1.5120026922
 O          4.8287129477       -0.4538645655       -0.6512810039
 O          1.8150862346        1.1925478334        2.2501410647
 N          0.9789990746        0.1585597134        0.3948862938
 N          3.2847817443        0.3272387182        0.7866966974
 C          2.5485325851       -1.0814324347       -1.0347497082
 C          1.1615084928       -0.5704926002       -0.7664793067
 C          3.6678039022       -0.3846810696       -0.3220729860
 C          2.0087775431        0.5872082565        1.2209384513
 H          2.7311016355       -1.0856698331       -2.1124148072
 H          2.5681943786       -2.1350028565       -0.7281192878
 H          4.0236958131        0.7470813248        1.3475049975
 O         -1.1098525370       -0.6997930689        0.9725775909
 O         -3.4524682642        1.2640849784       -0.8282383256
 O         -1.6046163159        2.5310358814        0.4757358927
 O         -4.0149350189       -1.9833175505       -0.8315895246
 C         -2.2836335093        0.5018546012       -0.7186053798
 C         -2.3788460173       -0.6174726541        0.3374405234
 C         -1.1393363897        1.3955362831       -0.1928142330
 C         -0.3866564621        0.4908478988        0.8062236147
 C         -2.7267977086       -1.9816025543       -0.2711091812
 H         -1.9924373961        0.0732358959       -1.6825320228
 H         -3.1328650361       -0.3270334292        1.0855758793
 H         -0.4724764493        1.7001509686       -1.0108591748
 H         -0.2930768633        1.0222047202        1.7630456114
 H         -2.0243288616       -2.1897348414       -1.0821843631
 H         -2.6116412021       -2.7522541855        0.4969064077
 H         -4.1183052188        0.7608329078       -1.3177016254
 H         -2.5007048932        2.7248827384        0.1451544978
 H         -4.6740753310       -2.0788042302       -0.1295667678
  30
        -59.79498566
 O          1.5666930827        2.3403387650        1.0420056087
 O          4.7498090220       -0.9123399073        0.0397797427
 O          0.3928039179       -1.6593030496       -0.7723669525
 N          0.9277937864        0.3899887138        0.0753178247
 N          2.5617987846       -1.2319183990       -0.3820490949
 C          3.3071484402        1.0008325609        0.1422990457
 C          1.8797152056        1.3137495024        0.4839620268
 C          3.6370314568       -0.4487821427       -0.0472412506
 C          1.2343620813       -0.8776902954       -0.3928439500
 H          3.9653551960        1.4475167567        0.8912372304
 H          3.5323606162        1.5148178588       -0.8010064329
 H          2.7478031518       -2.2058290927       -0.6134412231
 O         -1.0560645429       -0.1415736033        1.2310333595
 O         -3.4595140543        1.5023822197       -0.0815026169
 O         -1.3475263233        1.9276019611       -1.6559533215
 O         -3.7197017419       -2.4300257127        0.1128789790
 C         -2.7340915472        0.3417798464       -0.3905118441
 C         -2.3753745768       -0.5207185355        0.8237410334
 C         -1.3521677301        0.7112453227       -0.9788944169
 C         -0.4748737868        0.7334485619        0.2950644736
 C         -2.4353887075       -2.0264033011        0.5077110625
 H         -3.3465336037       -0.2153302927       -1.1021100280
 H         -3.0461818930       -0.3011923498        1.6639004966
 H         -1.0026713401       -0.0687247644       -1.6593285871
 H         -0.4446236985        1.7555598672        0.7022534690
 H         -1.7666120658       -2.2489800047       -0.3251481313
 H         -2.0862253051       -2.5799685313        1.3866091733
 H         -3.1191593119        1.9128930227        0.7275717144
 H         -2.1655983329        2.4064901007       -1.4203238472
 H         -4.3271804548       -2.3818317056        0.8653342598
  30
        -59.79497333
 O          0.2128861313       -0.1123217510       -1.7577886136
 O          4.7587206862       -0.4213118919       -0.6783959439
 O          1.6822854601        0.3300686770        2.5145642743
 N          0.8948853891        0.0429184090        0.3928443207
 N          3.1829154596       -0.0720335154        0.8892417939
 C          2.4725320267       -0.7148141706       -1.3320168564
 C          1.1036219118       -0.2305719771       -0.9483931671
 C          3.5869686581       -0.3872089454       -0.3842402841
 C          1.9006750913        0.1004856464        1.3471359638
 H          2.7146350430       -0.3609594896       -2.3374136095
 H          2.4182214138       -1.8083128649       -1.4095427426
 H          3.9119358676        0.0808288339        1.5835103216
 O         -1.2531811897       -0.8419666499        0.5347649963
 O         -3.4590312886        1.7475742258       -0.5228934662
 O         -1.5661053547        2.3526127315        1.2749332787
 O         -3.1411507143       -2.7419959495       -0.6598328982
 C         -2.3081601073        0.9685228681       -0.6096813623
 C         -2.4860317518       -0.4646474161       -0.0773068347
 C         -1.1266867752        1.5290401465        0.2306509030
 C         -0.4771051188        0.2790589860        0.8499512305
 C         -2.8295427180       -1.4726533231       -1.1746912815
 H         -2.0300776842        0.9429861420       -1.6652348278
 H         -3.2722806939       -0.4841299109        0.6916450215
 H         -0.4077927303        2.0569589054       -0.4055244347
 H         -0.4151454825        0.4117851943        1.9390870383
 H         -3.7193417954       -1.1292136900       -1.7053526215
 H         -1.9851056392       -1.5254041678       -1.8738047367
 H         -3.7386883405        1.8074682990        0.4056430505
 H         -1.9024772516        3.1845389894        0.9064826148
 H         -2.3904594631       -3.0543985860       -0.1350633174
  30
        -59.79493909
 O          0.2915832515       -0.3705422018       -1.6877550560
 O          4.7957718186       -0.8244673429       -0.4954285061
 O          1.7597551792        0.5937348391        2.4983288703
 N          0.9931533797        0.2259141095        0.3798656128
 N          3.2530056945       -0.0579014864        0.9523027991
 C          2.6425812697       -0.2541028774       -1.3777244633
 C          1.2110950677       -0.1651230629       -0.9295733125
 C          3.6706443682       -0.4279769793       -0.3013409866
 C          1.9848410334        0.2811975617        1.3519457356
 H          2.8747866327        0.6800393721       -1.9047652285
 H          2.7396224782       -1.0460502935       -2.1245806354
 H          3.9427191501       -0.0939667873        1.7007162960
 O         -1.0501412216       -0.8377269564        0.7626360511
 O         -3.4917082326        1.3350983407       -0.6411495904
 O         -1.7051796442        2.3959661203        0.9230081173
 O         -4.0004137764       -1.8350868347       -1.1456103688
 C         -2.2921095402        0.6150006595       -0.6510498070
 C         -2.3407844273       -0.6743046859        0.1922498456
 C         -1.1887833815        1.4440680126        0.0392335426
 C         -0.3850723206        0.3982904653        0.8403831897
 C         -2.6925927533       -1.9140900725       -0.6376240473
 H         -1.9767263032        0.3739152192       -1.6713818666
 H         -3.0746394404       -0.5334014211        1.0015802818
 H         -0.5479067681        1.9403877848       -0.7015714641
 H         -0.3163075365        0.7335028017        1.8843613454
 H         -2.0176801497       -1.9629063702       -1.4959396509
 H         -2.5420814236       -2.8079648505       -0.0250773005
 H         -4.1439339358        0.8715687540       -1.1856523009
 H         -2.6025684467        2.6255609011        0.6209974004
 H         -4.6333981571       -2.0631725291       -0.4499441263
  30
        -59.79491924
 O          0.1952310562       -0.1839315783       -1.7418035901
 O          4.7484945455       -0.3884812936       -0.6857703668
 O          1.6797320195        0.3544184616        2.5158940456
 N          0.8840475629        0.0290312166        0.4016643717
 N          3.1765725837       -0.0498150841        0.8886774865
 C          2.4639545991       -0.7438063856       -1.3145489598
 C          1.0908282024       -0.2694098279       -0.9327120077
 C          3.5786039721       -0.3750456773       -0.3825524236
 C          1.8939790037        0.1135030759        1.3502060316
 H          2.6938053899       -0.4108875695       -2.3298931936
 H          2.4260682738       -1.8396363834       -1.3635206271
 H          3.9061972791        0.1288242270        1.5760688904
 O         -1.2798777066       -0.8250420680        0.5829738874
 O         -3.4049489565        1.7880535856       -0.4876659014
 O         -1.5655603839        2.4056861394        1.2068099520
 O         -3.0955673824       -2.7584843764       -0.6057792751
 C         -2.2845748125        0.9636878801       -0.6436704307
 C         -2.4897786619       -0.4566418112       -0.0810210773
 C         -1.1261957754        1.5341003382        0.2082465737
 C         -0.4846523710        0.2910253921        0.8596083090
 C         -2.7860790092       -1.5041269962       -1.1570664967
 H         -1.9649002190        0.9039888397       -1.6881354616
 H         -3.3008379880       -0.4409346986        0.6611379249
 H         -0.3938203107        2.0514541585       -0.4264252313
 H         -0.4125090190        0.4534698279        1.9433815640
 H         -3.6632342049       -1.2073703915       -1.7340056126
 H         -1.9157630125       -1.5694496517       -1.8232066595
 H         -4.0475589600        1.6267220773       -1.1906615256
 H         -2.4562686045        2.7173672784        0.9619727779
 H         -2.3689270070       -3.0274638006       -0.0264244959
  30
        -59.79487160
 O          1.5574610136        2.3228055178        1.0172199802
 O          4.6774403054       -0.9756248960       -0.0771118107
 O          0.2795411023       -1.7122819443       -0.6292567879
 N          0.8731190984        0.3621696073        0.1052494793
 N          2.4690459693       -1.2883845439       -0.3737659786
 C          3.2571392860        0.9489349309        0.0861635881
 C          1.8451653464        1.2853619221        0.4682072825
 C          3.5650677278       -0.5052150228       -0.1078283369
 C          1.1477565725       -0.9245401925       -0.3248213107
 H          3.9435608341        1.3881399897        0.8142208997
 H          3.4647813701        1.4593094392       -0.8632267682
 H          2.6394571588       -2.2691818480       -0.5885843942
 O         -1.0996251304       -0.2213595219        1.2151805858
 O         -3.6365117716        1.4786628208       -0.2591975298
 O         -1.3223837297        2.0551170006       -1.4551424253
 O         -2.5055627554       -2.4770521945       -0.2889621031
 C         -2.7904631778        0.3747740695       -0.3936737691
 C         -2.4993727782       -0.3486920091        0.9407136350
 C         -1.3859300810        0.7635269094       -0.9258603485
 C         -0.5215875677        0.7124234088        0.3468892409
 C         -2.8757771099       -1.8373415186        0.9048957501
 H         -3.2984623533       -0.3094816327       -1.0776746680
 H         -3.0540776001        0.1376011841        1.7531593850
 H         -1.0376905837        0.0132614784       -1.6454939334
 H         -0.4966788797        1.7165120205        0.7984414113
 H         -2.4156758037       -2.3248806955        1.7728209167
 H         -3.9614473123       -1.9297995230        0.9703211776
 H         -3.1560068254        2.2236448229        0.1336954695
 H         -1.9210699273        2.1257631067       -2.2145883330
 H         -1.5415404013       -2.4160168390       -0.3985986956
  30
        -59.79486135
 O          0.2253889046        0.1315280552       -1.7622382384
 O          4.6485966764       -0.9355447899       -0.6285313587
 O          1.6285304887        0.0392037725        2.5535571643
 N          0.9035676885        0.1814720775        0.3947406647
 N          3.1226611490       -0.3720158189        0.9264647546
 C          2.5666512700       -0.0400369234       -1.4035162458
 C          1.1343764695        0.0774053066       -0.9659614355
 C          3.5485295791       -0.5060048484       -0.3717370198
 C          1.8679253249       -0.0401856427        1.3707069365
 H          2.8875978338        0.9551029055       -1.7368038320
 H          2.6216025674       -0.6762230227       -2.2907987692
 H          3.7880851918       -0.6099776647        1.6598462638
 O         -1.2021063761       -0.8153989720        0.4982801316
 O         -3.5356653247        1.7023859955       -0.4307742353
 O         -1.6643832010        2.3245368173        1.3755337965
 O         -2.9348127494       -2.7546881266       -0.8494010278
 C         -2.3454813613        0.9925311256       -0.5687217091
 C         -2.4428928344       -0.4770803020       -0.1205157606
 C         -1.1892768750        1.5698750753        0.2953659963
 C         -0.4793283287        0.3285743310        0.8590367810
 C         -2.7041578929       -1.4380173453       -1.2818106433
 H         -2.0763047608        1.0430190146       -1.6256820962
 H         -3.2404739270       -0.5903688372        0.6282624092
 H         -0.5001589996        2.1613130685       -0.3169198505
 H         -0.4227102863        0.4166056129        1.9529289357
 H         -3.6098633092       -1.1238667164       -1.8036819392
 H         -1.8507107639       -1.3912531280       -1.9701955980
 H         -3.8099281215        1.6943234207        0.5012280713
 H         -2.0587432934        3.1454032250        1.0407012102
 H         -2.1658403119       -3.0531299900       -0.3434865464
  30
        -59.79484061
 O          0.2489327954        0.1044568492       -1.7703357798
 O          4.6798585345       -0.9067471880       -0.6229750559
 O          1.6604243747        0.1111453883        2.5469937003
 N          0.9180425669        0.1593416006        0.3912971521
 N          3.1534970570       -0.3299565734        0.9271803595
 C          2.5896753545       -0.0333938535       -1.4037691779
 C          1.1536727422        0.0623150943       -0.9699061343
 C          3.5773930728       -0.4816721075       -0.3703729941
 C          1.8956911449       -0.0090014745        1.3658048556
 H          2.8958177953        0.9652938712       -1.7403740102
 H          2.6544362639       -0.6710542270       -2.2892532487
 H          3.8245140069       -0.5424518953        1.6633624366
 O         -1.1924207403       -0.8548435943        0.4351889626
 O         -3.4658460071        1.7335471508       -0.5482568886
 O         -1.8572078964        2.1663641473        1.4683319040
 O         -3.0725116292       -2.7024339559       -0.8711806601
 C         -2.2812993782        1.0066699687       -0.5723493224
 C         -2.4416111780       -0.4622457424       -0.1335625844
 C         -1.2019228677        1.5396742380        0.4013159756
 C         -0.4665398032        0.2623017636        0.8692034148
 C         -2.7826166045       -1.3942278945       -1.2943679670
 H         -1.9056694662        1.0373908260       -1.5981854867
 H         -3.2193191806       -0.5359612170        0.6398522307
 H         -0.5156741469        2.2227221864       -0.1072698656
 H         -0.3998115683        0.2565601314        1.9662867050
 H         -3.6813520592       -1.0224664476       -1.7896364647
 H         -1.9448975952       -1.3856003910       -2.0034665517
 H         -3.6271080002        2.0316557769        0.3640827164
 H         -1.2577959546        2.7478035869        1.9551138289
 H         -2.3078920332       -3.0448226296       -0.3868229534
  30
        -59.79480742
 O          1.5074097043        2.3491882662        0.9464394363
 O          4.6817952331       -0.9363827072       -0.0263970527
 O          0.3006514989       -1.7496321675       -0.5999640093
 N          0.8565816419        0.3482229646        0.0987075176
 N          2.4805797086       -1.2884482579       -0.3334046297
 C          3.2324099515        0.9711137573        0.0712979914
 C          1.8131657409        1.2977053635        0.4355588717
 C          3.5631718683       -0.4830324663       -0.0788455748
 C          1.1538988148       -0.9431366519       -0.3019235573
 H          3.9069126493        1.4411013918        0.7912479149
 H          3.4399038881        1.4575080819       -0.8906061471
 H          2.6667481523       -2.2714726894       -0.5235741182
 O         -1.1111840094       -0.2509705272        1.2161570473
 O         -3.4815090133        1.6255657319       -0.0357221460
 O         -1.3167928664        1.9376804518       -1.5535095086
 O         -2.5116122758       -2.4323051811       -0.3912223309
 C         -2.8173113547        0.4266289544       -0.3314184081
 C         -2.5155692910       -0.3736097712        0.9505079424
 C         -1.4160313783        0.6910817109       -0.9295495758
 C         -0.5427815792        0.6798582881        0.3381284191
 C         -2.8902765764       -1.8576989742        0.8334356723
 H         -3.4387439483       -0.1715588525       -1.0083950286
 H         -3.0612350646        0.0739543675        1.7897565404
 H         -1.1270824586       -0.1325909349       -1.5875753731
 H         -0.5402840970        1.6903189859        0.7753031190
 H         -2.4362727731       -2.3906001361        1.6768519363
 H         -3.9763048326       -1.9524649435        0.8875674242
 H         -2.9758866018        2.3602478371       -0.4300065563
 H         -1.6376953168        1.8788906694       -2.4658845026
 H         -1.5424385849       -2.4117662746       -0.4654989536
  30
        -59.79479607
 O          0.2141372662        0.0815027889       -1.7566076334
 O          4.6519515380       -0.9122057412       -0.6213806620
 O          1.6255606182        0.0507548527        2.5577212606
 N          0.8933405399        0.1665395239        0.3989079685
 N          3.1194806730       -0.3592053299        0.9311794782
 C          2.5568285810       -0.0510259194       -1.3995930491
 C          1.1242124395        0.0519267392       -0.9594154343
 C          3.5465023495       -0.4955394516       -0.3659313072
 C          1.8621133310       -0.0342448726        1.3748165511
 H          2.8636689149        0.9458773467       -1.7407238292
 H          2.6186150111       -0.6936071345       -2.2818084374
 H          3.7881742992       -0.5829334245        1.6660524690
 O         -1.2276875808       -0.8066905659        0.5341730381
 O         -3.4841469710        1.7453208737       -0.3918941863
 O         -1.6764330245        2.3590196387        1.3373284883
 O         -2.8978258814       -2.7659660816       -0.8122287588
 C         -2.3210013346        0.9944822982       -0.5982341873
 C         -2.4469808373       -0.4684539050       -0.1284205073
 C         -1.1933440674        1.5739100836        0.2881450655
 C         -0.4871311636        0.3324596266        0.8681564835
 C         -2.6656400626       -1.4598324553       -1.2746933930
 H         -2.0021967988        1.0192652177       -1.6446089968
 H         -3.2671007817       -0.5499580875        0.5990752410
 H         -0.4921868758        2.1675913755       -0.3134329749
 H         -0.4210648264        0.4390190550        1.9591828269
 H         -3.5559805800       -1.1824396340       -1.8411387986
 H         -1.7881053320       -1.4243714951       -1.9333453275
 H         -4.1258842457        1.5787762205       -1.0944969673
 H         -2.5787974193        2.6470451649        1.1071432082
 H         -2.1542813677       -3.0330913856       -0.2538808399
  30
        -59.79473418
 O          0.3605844318       -1.6465452315       -0.8795251844
 O          4.8460534028       -0.4609111347       -0.3825569513
 O          1.5884807447        2.2141497492        1.1775724936
 N          0.9157456702        0.2476671636        0.2326175727
 N          3.1825620105        0.8355069902        0.4023684160
 C          2.6477683642       -1.4136540053       -0.2912511680
 C          1.2154092827       -0.9653335280       -0.3618093194
 C          3.6726617394       -0.3335791621       -0.1226787650
 C          1.8738497229        1.1620373623        0.6516179552
 H          2.8794660211       -2.0242724882       -1.1672960892
 H          2.7316488999       -2.0847465929        0.5731190061
 H          3.8554277468        1.5709611883        0.6092057700
 O         -1.1376725612       -0.3146610033        1.2246588532
 O         -3.4161555955        1.5599025333        0.0140411590
 O         -1.2181104594        2.0860533675       -1.4079995469
 O         -3.8086784606       -2.3617984106       -0.2797919481
 C         -2.7162926643        0.4172429178       -0.4019726050
 C         -2.4452536999       -0.5967762917        0.7136609024
 C         -1.2960612010        0.8001502041       -0.8801129565
 C         -0.4802713300        0.6365154465        0.4252176665
 C         -2.5331108112       -2.0510247564        0.2149504339
 H         -3.3126129536       -0.0265230770       -1.2013805143
 H         -3.1506885856       -0.4552452111        1.5420550495
 H         -0.9397304440        0.0936828851       -1.6334259960
 H         -0.4293423340        1.6025068897        0.9496299785
 H         -1.8339412656       -2.1945101475       -0.6103342764
 H         -2.2397756905       -2.7171199339        1.0339778810
 H         -3.0922803894        1.8619580212        0.8758256629
 H         -2.0268654487        2.5686504126       -1.1485693919
 H         -4.4471657210       -2.3938676689        0.4473841718
  30
        -59.79459423
 O          1.7706228455        2.3091540018        1.2071185703
 O          4.7153712015       -1.1144697110       -0.0373686246
 O          0.3352424562       -1.3849164970       -1.0150361445
 N          1.0141711128        0.4895882056        0.0909584676
 N          2.5251774017       -1.1887924033       -0.5503846012
 C          3.4342003645        0.8836791207        0.2942889080
 C          2.0231024331        1.2945144285        0.5978095024
 C          3.6473300068       -0.5509500872       -0.0838389738
 C          1.2296098749       -0.7358795590       -0.5262565111
 H          4.0743290101        1.1511453501        1.1390207792
 H          3.7831921062        1.5005492211       -0.5436715117
 H          2.6421999953       -2.1363781982       -0.9039216083
 O         -0.9627205268       -0.1603025840        1.1577464458
 O         -3.5375452519        0.3043814085       -1.2996478210
 O         -1.9567023518        2.3247847142       -0.7383695866
 O         -4.0111621824       -2.1186078152        0.7123137837
 C         -2.2818100387       -0.0324459927       -0.8031159224
 C         -2.2811145182       -0.4126130476        0.6923400206
 C         -1.2521723434        1.1199160051       -0.8506578273
 C         -0.3692463283        0.8615058055        0.3946064434
 C         -2.6473334737       -1.8766525305        0.9392068815
 H         -1.9127717317       -0.8765984546       -1.3922013947
 H         -2.9906307079        0.2341889293        1.2312008250
 H         -0.6567340653        1.0832479805       -1.7674448104
 H         -0.3001149117        1.7807769596        0.9942001392
 H         -2.0152675407       -2.5124743781        0.3044723393
 H         -2.4574821658       -2.1242259833        1.9856364777
 H         -3.7145593930        1.2367453313       -1.0870418585
 H         -1.4054470454        3.0780832588       -0.9890510250
 H         -4.2470525152       -1.8054421965       -0.1743285882
  30
        -59.79450476
 O          0.2683682940       -1.8690226226       -0.3420243599
 O          4.7522682199       -0.5516068070       -0.4190010432
 O          1.5145124332        2.3991878252        0.5960161041
 N          0.8443770054        0.2547542827        0.1884719852
 N          3.1021252324        0.8850413952        0.1074177422
 C          2.5806858525       -1.4724422494        0.0054367271
 C          1.1379443126       -1.0679438480       -0.0794112966
 C          3.5898618092       -0.3738221284       -0.1410866478
 C          1.8002400367        1.2548441442        0.3309791212
 H          2.7782656377       -2.2684611048       -0.7171816069
 H          2.7300088355       -1.9264045626        0.9937309939
 H          3.7720566001        1.6516849122        0.1032310996
 O         -1.1765440397       -0.1755633227        1.2748395964
 O         -3.4121709613        1.6755369446       -0.1820481930
 O         -1.2153226038        1.7460705456       -1.6973173710
 O         -2.5671309192       -2.4360100095       -0.2301690448
 C         -2.8087300190        0.4245988767       -0.3766268878
 C         -2.5734258533       -0.2899663662        0.9668650290
 C         -1.3831016033        0.5738525615       -0.9548918735
 C         -0.5505047164        0.6544606105        0.3379675780
 C         -2.9784172402       -1.7706942136        0.9366531463
 H         -3.4459078091       -0.1895704863       -1.0242970539
 H         -3.1372935668        0.2258643992        1.7528606277
 H         -1.1112204146       -0.3228749319       -1.5180232985
 H         -0.5315138006        1.7005804310        0.6799787390
 H         -2.5699334324       -2.2537344448        1.8315849660
 H         -4.0676964053       -1.8379312013        0.9540225680
 H         -2.8849501869        2.3450514866       -0.6555056688
 H         -1.5089540610        1.6066987221       -2.6101880109
 H         -1.5951378524       -2.4555742352       -0.2578976555
  30
        -59.79450085
 O          0.3752816853       -1.1748921748       -1.4529766338
 O          4.8255715666       -0.7402654790       -0.0811797903
 O          1.5571227660        1.5328766960        1.9975742204
 N          0.9180826442        0.2694241144        0.2055905822
 N          3.1620068915        0.4198801661        0.8929659567
 C          2.6889042972       -0.7426438700       -1.1681676548
 C          1.2332135659       -0.5990907391       -0.8236293066
 C          3.6691712324       -0.3891750576       -0.0925060090
 C          1.8577833223        0.7955961445        1.0861909958
 H          2.8831808700       -0.0787219705       -2.0203525329
 H          2.8745179795       -1.7554226340       -1.5344042759
 H          3.8119631609        0.7464423974        1.6055707838
 O         -1.1039238840       -0.6154072702        1.0292155376
 O         -3.4370763869        1.4753087987        0.4802819449
 O         -1.2919517301        2.4539788129       -0.7697632708
 O         -3.7574290617       -2.1904396789       -0.9863275125
 C         -2.7338433256        0.5262076917       -0.2768141015
 C         -2.4148041930       -0.7693877457        0.4750841813
 C         -1.3335042714        1.0673739716       -0.6501473418
 C         -0.4813805266        0.5441338721        0.5294055909
 C         -2.4779681127       -2.0053006535       -0.4411372291
 H         -3.3462850112        0.3300423481       -1.1588137337
 H         -3.1047556020       -0.9072202410        1.3171833242
 H         -0.9911969598        0.6282485682       -1.5896233278
 H         -0.4363784738        1.3141556889        1.3141760402
 H         -1.7960746243       -1.8694711674       -1.2819173129
 H         -2.1477778301       -2.8791951815        0.1315677400
 H         -3.0981682434        1.5044433904        1.3873804137
 H         -2.1013389432        2.8163404632       -0.3603854523
 H         -4.3765097362       -2.4576105946       -0.2916272167
  30
        -59.79449872
 O          1.7671679890        2.3772247315        1.0699118808
 O          4.7642820012       -0.9159688561       -0.4386167053
 O          0.3251750160       -1.4697514146       -0.8542658085
 N          1.0049147501        0.4318642497        0.2042045108
 N          2.5341501222       -1.1585109071       -0.5907488594
 C          3.4059591095        0.7039026172        0.6860099385
 C          2.0140795936        1.2608935530        0.6725063446
 C          3.6615086685       -0.5069012364       -0.1594558357
 C          1.2230645395       -0.7841425303       -0.4246072015
 H          3.6346646940        0.4362578391        1.7257559075
 H          4.1162118751        1.4957050063        0.4320125411
 H          2.6715249669       -2.0171805675       -1.1205531469
 O         -1.0307168067       -0.1229938261        1.2079969035
 O         -3.4740762074        0.2910464453       -1.3891743557
 O         -1.9071846936        2.3103763647       -0.7824291318
 O         -4.0508453272       -2.0974268343        0.6517231236
 C         -2.2472373879       -0.0433374451       -0.8236563418
 C         -2.3225461054       -0.3884323734        0.6784204011
 C         -1.2068699340        1.0997262609       -0.8465234336
 C         -0.3788497711        0.8542082183        0.4374868409
 C         -2.7004151676       -1.8469303624        0.9418411256
 H         -1.8580405776       -0.9036300064       -1.3751721604
 H         -3.0586322386        0.2699527371        1.1648383544
 H         -0.5739564410        1.0472152387       -1.7379648034
 H         -0.3026736074        1.7902068141        1.0099685595
 H         -2.0353711774       -2.4966200890        0.3571964615
 H         -2.5648622664       -2.0672201065        2.0026578479
 H         -3.6580773122        1.2269926366       -1.2002761982
 H         -1.3312061210        3.0589733932       -0.9878880696
 H         -4.2400079060       -1.8144084296       -0.2558702900
  30
        -59.79448945
 O          0.2151213760       -1.7558388985       -0.6084422822
 O          4.7467319692       -0.5962472913       -0.5080807336
 O          1.6127916346        2.2616750740        0.9872023335
 N          0.8704206119        0.2371367339        0.2384156994
 N          3.1489205244        0.7906780427        0.2590061127
 C          2.5436871128       -1.4974951625       -0.2337476085
 C          1.1154961238       -1.0363845242       -0.2364865425
 C          3.5909813045       -0.4256992010       -0.1993891230
 C          1.8596825861        1.1665279121        0.5383536767
 H          2.7112999902       -2.1643866640       -1.0834937685
 H          2.6805549978       -2.1194408977        0.6603308153
 H          3.8458843001        1.5232410650        0.3792176782
 O         -1.1719515629       -0.2831824947        1.2298156163
 O         -3.6035181000        1.5209411127       -0.3464439750
 O         -1.2039826748        2.1408615934       -1.3030672414
 O         -2.6012685794       -2.4469435814       -0.3837609202
 C         -2.7522671678        0.4180388658       -0.4469567351
 C         -2.5597103788       -0.3414880618        0.8849302217
 C         -1.3131242078        0.8161164054       -0.8723003170
 C         -0.5129089856        0.6595026983        0.4342068452
 C         -2.9978217339       -1.8114940659        0.8035145402
 H         -3.2110412227       -0.2457337867       -1.1840276499
 H         -3.1326445407        0.1546109203        1.6789781163
 H         -0.9372846252        0.1168215543       -1.6289107143
 H         -0.4579478313        1.6396394616        0.9328670806
 H         -2.5991423651       -2.3329367825        1.6821026950
 H         -4.0882899746       -1.8574335601        0.8182520797
 H         -3.1675093624        2.2366149668        0.1414934247
 H         -1.7971888168        2.2856526463       -2.0563076910
 H         -1.6319647707       -2.4169037507       -0.4556624922
  30
        -59.79447655
 O          1.5590602850        2.3319302120        1.0655707698
 O          4.7464934394       -0.9131657476        0.0484497079
 O          0.3956997894       -1.6480217257       -0.7991138190
 N          0.9244978716        0.3945982941        0.0693609484
 N          2.5612519671       -1.2236703811       -0.3928321704
 C          3.3052870626        1.0004209442        0.1668599184
 C          1.8749018972        1.3114014994        0.4983844701
 C          3.6351370976       -0.4465085679       -0.0401137022
 C          1.2341557917       -0.8686259842       -0.4073002727
 H          3.9558322530        1.4349757277        0.9296270823
 H          3.5418341526        1.5280153772       -0.7662090866
 H          2.7483519022       -2.1948129924       -0.6347772785
 O         -1.0619785249       -0.1344060526        1.2225998787
 O         -3.4519269098        1.4981306886       -0.0739313788
 O         -1.3595864084        1.9327806462       -1.6638013779
 O         -3.7465893975       -2.3817100910        0.2244435026
 C         -2.7352875176        0.3368996490       -0.4005322633
 C         -2.3692092614       -0.5361805246        0.8028233152
 C         -1.3554219547        0.7149380520       -0.9901349507
 C         -0.4796243073        0.7384980702        0.2847457939
 C         -2.4056529658       -2.0336541435        0.4792381032
 H         -3.3555617904       -0.2085207567       -1.1131229251
 H         -3.0589469402       -0.3541420332        1.6353842124
 H         -1.0004660251       -0.0583657268       -1.6749342236
 H         -0.4505636879        1.7609957149        0.6903423109
 H         -1.7651179860       -2.2371285225       -0.3849507558
 H         -2.0099439225       -2.5743018852        1.3477251335
 H         -3.1408579675        1.8647550360        0.7668046469
 H         -2.1673653108        2.4165544124       -1.4031745781
 H         -3.7971650534       -3.3267816761        0.0233510521
  30
        -59.79441869
 O          1.5178266066        2.1971827532        1.2365376763
 O          4.6411288727       -1.0147305012       -0.0506975585
 O          0.2837089523       -1.5541478631       -1.0130890353
 N          0.8535552966        0.3788492228        0.0547330690
 N          2.4550552622       -1.2299984219       -0.5415314801
 C          3.2444406709        0.9146561018        0.2306808274
 C          1.8184460237        1.2286345816        0.5773979551
 C          3.5422435903       -0.5149719374       -0.1068465000
 C          1.1380893967       -0.8397674780       -0.5403406476
 H          3.8981410870        1.2612767173        1.0345175736
 H          3.5021557638        1.5193295782       -0.6484209702
 H          2.6228634421       -2.1780354744       -0.8728609853
 O         -1.1856864096       -0.2240469662        1.0629384613
 O         -3.5033310250        1.6391357951       -0.1721505290
 O         -1.2988697517        2.1736717050       -1.5700227209
 O         -2.5919220497       -2.8117042081        1.2984791530
 C         -2.7842197796        0.4980182920       -0.5555908591
 C         -2.5167923866       -0.4864678324        0.5881272519
 C         -1.3662739090        0.8906263258       -1.0349636411
 C         -0.5463075578        0.7392910993        0.2666212344
 C         -2.6497211049       -1.9607308330        0.1799713544
 H         -3.3617196836        0.0408181410       -1.3600833325
 H         -3.1981853458       -0.3051774437        1.4288265086
 H         -1.0078063298        0.1804376873       -1.7843250953
 H         -0.5060138073        1.7047304932        0.7934463862
 H         -3.6304111536       -2.1258992033       -0.2686695707
 H         -1.8642413187       -2.2092472261       -0.5421270999
 H         -3.2180062640        1.9472629787        0.7009937215
 H         -2.1170286331        2.6480116959       -1.3249449532
 H         -1.7426450161       -2.6821645261        1.7429297268
  30
        -59.79434288
 O          1.7156863069        2.1155271491        1.4276470858
 O          4.5163505580       -1.2886972554       -0.1211536320
 O          0.1524438117       -1.2415459890       -1.2008517651
 N          0.9020637517        0.5014838192        0.0593839062
 N          2.3371767779       -1.2047532596       -0.6759524093
 C          3.3288149665        0.7372312597        0.3617023100
 C          1.9320267540        1.1805689729        0.6917590942
 C          3.4792731052       -0.6679847267       -0.1375748589
 C          1.0687898685       -0.6794496046       -0.6449645499
 H          3.9735838544        0.9021229886        1.2284222676
 H          3.7054071902        1.4076848120       -0.4211359373
 H          2.4114715386       -2.1276551395       -1.0991617625
 O         -1.1298113158       -0.0355368540        1.0867406043
 O         -3.6844287232        0.7339408543       -1.1196002718
 O         -1.7956914127        2.5285514618       -0.9537028860
 O         -2.4788058928       -2.5234798601        1.7778959278
 C         -2.4232924488        0.1592195553       -0.9234786756
 C         -2.3636496119       -0.4294366442        0.4960617220
 C         -1.2939592992        1.2266334655       -0.9501955342
 C         -0.4732013581        0.9398819168        0.3288905617
 C         -2.4916028804       -1.9569642514        0.4947994082
 H         -2.2092965548       -0.6233319878       -1.6554457798
 H         -3.1791827586        0.0105517662        1.0890071092
 H         -0.6599255368        1.1171998760       -1.8344390646
 H         -0.3677154601        1.8634296013        0.9144382345
 H         -3.4131654930       -2.2199170651       -0.0409112320
 H         -1.6338056364       -2.3815023446       -0.0312700659
 H         -3.8628918100        0.8373829296       -2.0658475449
 H         -2.7323426941        2.4984385761       -0.6791943520
 H         -3.2145063016       -2.1687470176        2.2978528044
  30
        -59.79427908
 O          0.2146457654       -1.4654125950       -1.1323492985
 O          4.7691736010       -0.7778911992       -0.1789649295
 O          1.6077625852        1.8231943376        1.6700976649
 N          0.8737864837        0.2412749994        0.1973642141
 N          3.1537821965        0.5342045145        0.6731335500
 C          2.5505692345       -1.0818543399       -1.0254319062
 C          1.1197475505       -0.8136926013       -0.6598512779
 C          3.6022670695       -0.4640107192       -0.1555559061
 C          1.8603293109        0.9299402098        0.8951923516
 H          2.7018668346       -0.7080857145       -2.0463173872
 H          2.7075339138       -2.1623242511       -1.0918573824
 H          3.8518812017        1.0118620113        1.2404608212
 O         -1.1444622629       -0.5476851842        1.0633053908
 O         -3.6333074062        1.5549601744        0.0145416701
 O         -1.2560064609        2.4405559560       -0.7639756788
 O         -2.5929057426       -2.2673295783       -0.9880209303
 C         -2.7637168097        0.5277311760       -0.3581294079
 C         -2.5393436439       -0.5291372334        0.7469722884
 C         -1.3381166085        1.0476525482       -0.6888742617
 C         -0.5098352521        0.5756584702        0.5193850422
 C         -2.9753178721       -1.9390304285        0.3221118430
 H         -3.2206735585        0.0542333795       -1.2306706372
 H         -3.0945423090       -0.2428508670        1.6498377174
 H         -0.9705337183        0.5762104619       -1.6081032642
 H         -0.4564465245        1.3984817742        1.2489443681
 H         -2.5615417832       -2.6535238871        1.0441540136
 H         -4.0652793768       -1.9945757445        0.3399820723
 H         -3.2123620806        2.1268213254        0.6749592952
 H         -1.8811379173        2.7643841289       -1.4309178509
 H         -1.6257515325       -2.2025592040       -1.0650297180
  30
        -59.79427226
 O          1.7720369175        2.2540746268        1.3218575280
 O          4.6535934329       -1.1527043761       -0.0792916486
 O          0.2568743483       -1.3455195921       -0.9939136775
 N          0.9816217026        0.5178522393        0.0976762801
 N          2.4555418302       -1.1870929437       -0.5583674598
 C          3.4056246383        0.8558912209        0.3139663224
 C          2.0032596205        1.2759462789        0.6496108160
 C          3.5934039500       -0.5727013296       -0.0987502083
 C          1.1696543715       -0.7084961164       -0.5191878326
 H          4.0642908979        1.0970325501        1.1520299453
 H          3.7427201186        1.4868958702       -0.5182588330
 H          2.5523629251       -2.1337011888       -0.9204590484
 O         -1.0150353295       -0.0148206970        1.1886944078
 O         -3.6171533342        0.5076547161       -1.0757244938
 O         -1.7901251483        2.3891970025       -1.0137250636
 O         -3.7521327392       -2.3735644786        0.7935739545
 C         -2.3378176187        0.0085619113       -0.8042083837
 C         -2.2726729871       -0.4282640011        0.6695370100
 C         -1.2467853838        1.1071978628       -0.9227664462
 C         -0.3998833060        0.9342099596        0.3603441811
 C         -2.4210764571       -1.9406120036        0.8816647913
 H         -2.0789731388       -0.8323345624       -1.4552134852
 H         -3.0759564365        0.0838817443        1.2206244936
 H         -0.6198637940        0.9598845272       -1.8064609195
 H         -0.3164773840        1.8980915303        0.8807106595
 H         -1.7742284159       -2.4697557697        0.1700992762
 H         -2.0903952054       -2.1735743950        1.8959531709
 H         -3.7257625476        0.6428685078       -2.0292302427
 H         -2.7027770104        2.3688059597       -0.6713162116
 H         -4.1093214703       -2.1598894469       -0.0802155739
  30
        -59.79423511
 O          0.2488807317       -1.6346485019       -0.9482060512
 O          4.7754848766       -0.7039551146       -0.0580437261
 O          1.5318181154        2.0554564107        1.3692016633
 N          0.8493440298        0.2510325425        0.1480408465
 N          3.1186489569        0.6763318871        0.5797352212
 C          2.5727735234       -1.1916387784       -0.8589239324
 C          1.1315385569       -0.9043234538       -0.5536564643
 C          3.6004702617       -0.4223898279       -0.0870913204
 C          1.8132977326        1.0629507806        0.7388828828
 H          2.7299679072       -0.9819437379       -1.9247041957
 H          2.7525926708       -2.2654060804       -0.7522922034
 H          3.7993971330        1.2525314620        1.0714621963
 O         -1.1457589830       -0.4745981989        1.1267180213
 O         -3.4488444228        1.6646780577        0.2338506099
 O         -1.2664412575        2.1893280232       -1.1941384918
 O         -2.5741590992       -2.2798051150       -0.8713778776
 C         -2.8176144164        0.5219630336       -0.2778338605
 C         -2.5491004035       -0.5110706617        0.8333479939
 C         -1.4045877074        0.8516613135       -0.8133732499
 C         -0.5429750202        0.5823618067        0.4332255960
 C         -2.9557636388       -1.9372851078        0.4362354155
 H         -3.4508150914        0.0789672124       -1.0557251098
 H         -3.0939308031       -0.2156258272        1.7378484683
 H         -1.1362966347        0.1577834361       -1.6140381088
 H         -0.5178036552        1.4976113195        1.0442960225
 H         -2.5241794970       -2.6299092921        1.1680070996
 H         -4.0442152586       -2.0141795898        0.4628457165
 H         -2.9156293776        2.4430809345       -0.0123914655
 H         -1.5831472189        2.3118768156       -2.1017552784
 H         -1.6033246231       -2.2718063808       -0.9306370522
  30
        -59.79419395
 O          0.3679432875       -1.6318596839       -0.9088146216
 O          4.8464264065       -0.4546559029       -0.3661067268
 O          1.5791527388        2.2094179924        1.1934465401
 N          0.9121708448        0.2483674418        0.2328283285
 N          3.1779013372        0.8375946666        0.4157670413
 C          2.6478819113       -1.4083272034       -0.2902987338
 C          1.2169607163       -0.9573636034       -0.3726843053
 C          3.6717371477       -0.3287513092       -0.1115213222
 C          1.8676400515        1.1609881816        0.6621775905
 H          2.8871176200       -2.0179340955       -1.1649470847
 H          2.7235474019       -2.0793334507        0.5749125246
 H          3.8488669091        1.5727579143        0.6295853883
 O         -1.1443034611       -0.3295291007        1.2117434328
 O         -3.4056458467        1.5546344398        0.0475796799
 O         -1.2267120648        2.1074665765       -1.3868311187
 O         -3.8437471473       -2.3211882127       -0.2054290914
 C         -2.7174506463        0.4189503633       -0.4056277418
 C         -2.4399789668       -0.6234923356        0.6806449044
 C         -1.2981942561        0.8140219110       -0.8784043598
 C         -0.4855531936        0.6330325714        0.4265283036
 C         -2.5061076024       -2.0602954242        0.1513487489
 H         -3.3229841163        0.0023214900       -1.2115495491
 H         -3.1649715378       -0.5319253212        1.4977851683
 H         -0.9360591196        0.1232529117       -1.6431702662
 H         -0.4372294532        1.5914492327        0.9643834778
 H         -1.8333679709       -2.1676452008       -0.7055809425
 H         -2.1683165327       -2.7289662686        0.9524335652
 H         -3.1130248319        1.7950474731        0.9389321625
 H         -2.0221723716        2.5907545818       -1.0898239695
 H         -3.9131620565       -3.2280210875       -0.5354834237
  30
        -59.79419175
 O          1.7669852689        2.2829504770        1.2673941497
 O          4.6411089187       -1.1518491368       -0.0584699025
 O          0.2360899567       -1.3916019995       -0.9176009285
 N          0.9658228101        0.5126737724        0.0987437238
 N          2.4385135011       -1.2094533509       -0.5136973714
 C          3.3903564448        0.8684817777        0.2649413618
 C          1.9914622691        1.2900513084        0.6151641243
 C          3.5793795738       -0.5751044434       -0.0908783296
 C          1.1510583744       -0.7323820656       -0.4779896297
 H          4.0667161205        1.1515928757        1.0750092464
 H          3.6988550931        1.4645031446       -0.6034456256
 H          2.5344455435       -2.1678818010       -0.8433827276
 O         -1.0271561166        0.0468362829        1.2341221534
 O         -3.6581870805        0.6420383631       -0.9223785608
 O         -1.7389152493        2.3492599076       -1.1183408669
 O         -3.6129183279       -2.3726698451        0.4834275871
 C         -2.4147000040        0.0259661912       -0.7286927843
 C         -2.2736613143       -0.4217706709        0.7373833312
 C         -1.2629061721        1.0510229344       -0.9387381061
 C         -0.4145380408        0.9430359541        0.3479777469
 C         -2.3418590223       -1.9407844776        0.9045698667
 H         -2.2728566873       -0.8324797672       -1.3859220300
 H         -3.0867572355        0.0399785956        1.3147596154
 H         -0.6559565589        0.7909788115       -1.8116631515
 H         -0.3304273280        1.9340632031        0.8142829531
 H         -1.5445616868       -2.3913928360        0.3001911273
 H         -2.1677324853       -2.1740100998        1.9618983692
 H         -4.0469352623        0.3737576625       -1.7658667278
 H         -2.7014827134        2.3362339432       -0.9401649420
 H         -3.6802649322       -3.3303265895        0.6044675685
  30
        -59.79416365
 O          0.1654162630       -0.1416215085       -1.7369985108
 O          4.6956483509       -0.6248020600       -0.6786748566
 O          1.7022727698        0.4822907102        2.4879501702
 N          0.8717032010        0.1022398352        0.3971530994
 N          3.1590973379       -0.0910286270        0.8756185358
 C          2.3879954842       -0.8499715463       -1.2854741244
 C          1.0535643537       -0.2632974101       -0.9239434834
 C          3.5307071804       -0.5131628741       -0.3756863172
 C          1.8913781763        0.1691516464        1.3345961055
 H          2.6347041463       -0.5891441406       -2.3176274782
 H          2.2700068413       -1.9413326397       -1.2737004451
 H          3.9027778467        0.0704167595        1.5518445332
 O         -1.2852816112       -0.7313534442        0.7082273288
 O         -3.5345193307        1.6416936556       -0.4069595042
 O         -1.5682305269        2.5779952558        1.0253248657
 O         -2.7583003917       -2.8319622698       -0.6288252988
 C         -2.3378982738        0.9529187411       -0.6393339688
 C         -2.4599923598       -0.4627215132       -0.0506176954
 C         -1.1485549656        1.5943805162        0.1296996227
 C         -0.4878212577        0.4048767813        0.8654059815
 C         -2.6501350018       -1.5287151185       -1.1361340458
 H         -2.0997334091        0.8911469582       -1.7038389423
 H         -3.3164976735       -0.4784266837        0.6394650436
 H         -0.4305632355        2.0572325951       -0.5534279993
 H         -0.3811898199        0.6454612403        1.9317204844
 H         -3.5383042496       -1.2610226118       -1.7236091002
 H         -1.7735577601       -1.5314135079       -1.7876874297
 H         -3.6159230507        2.3908826454       -1.0152189121
 H         -2.5308885157        2.4791708144        1.1574645290
 H         -3.5029104413       -2.8806347098       -0.0122138950
  30
        -59.79411337
 O          1.7484293057        2.2414278788        1.3318367495
 O          4.7050407492       -1.0973120374       -0.0871395666
 O          0.3167785098       -1.3645161711       -1.0276604922
 N          1.0021300805        0.5030109200        0.0836600881
 N          2.5105454633       -1.1694767324       -0.5775620861
 C          3.4168857696        0.8800987603        0.3295005106
 C          2.0045162801        1.2733229745        0.6543792763
 C          3.6335498175       -0.5385112644       -0.1036420958
 C          1.2153414708       -0.7174473232       -0.5414716309
 H          4.0610508103        1.1166600832        1.1801458869
 H          3.7563969515        1.5304491911       -0.4866436129
 H          2.6285415400       -2.1099642680       -0.9493217289
 O         -0.9702990087       -0.1145835013        1.1557499533
 O         -3.5941787986        0.3950423342       -1.2138943447
 O         -1.7729271765        2.3493496020       -0.9122450526
 O         -3.9490606338       -2.1861449852        0.7933387561
 C         -2.3382877856       -0.0321812677       -0.7868049493
 C         -2.2846939164       -0.4101290342        0.7072985944
 C         -1.2365719429        1.0541675975       -0.9217705560
 C         -0.3858288924        0.8770257061        0.3493452799
 C         -2.5898159089       -1.8876769656        0.9725480942
 H         -2.0718639680       -0.8948158342       -1.4020433277
 H         -3.0047525385        0.2087543554        1.2657394728
 H         -0.6271711651        0.8880504781       -1.8150721642
 H         -0.3438636137        1.8359394236        0.8854661776
 H         -1.9512052329       -2.5037358415        0.3259376917
 H         -2.3581597739       -2.1152130917        2.0149910275
 H         -3.8215701027        1.2221665076       -0.7576028151
 H         -2.1524194265        2.5483826733       -1.7819610909
 H         -4.2149512973       -1.9513615711       -0.1081864935
  30
        -59.79408085
 O          0.2725333031       -1.0700361963       -1.5511295881
 O          4.7647866779       -0.4202701166       -0.4765131694
 O          1.5239562246        1.4492545604        2.0164350241
 N          0.8373464976        0.1288192041        0.2856367790
 N          3.1102206969        0.4736741432        0.7598890131
 C          2.5382724775       -1.2231355020       -0.8592356969
 C          1.1256363954       -0.7200872460       -0.7679734030
 C          3.5864444332       -0.3684603474       -0.2135295985
 C          1.8022914127        0.7213264862        1.0906577310
 H          2.7900572603       -1.4077360998       -1.9063843507
 H          2.5659619778       -2.2036460043       -0.3667864232
 H          3.7957748716        1.0144657385        1.2834274382
 O         -1.3017211006       -0.6737971929        0.8241234527
 O         -3.4149790169        1.7155477771        0.4279625077
 O         -1.0841996402        2.6334278734       -0.4832600356
 O         -2.8510730758       -2.9845966691       -0.1895724209
 C         -2.7263684834        0.8068069342       -0.3884395920
 C         -2.5993202138       -0.5983818305        0.2097654156
 C         -1.2572481479        1.2553641971       -0.5727644230
 C         -0.5526272454        0.4841729615        0.5676880118
 C         -2.7641863962       -1.7285873377       -0.8166718295
 H         -3.2608793348        0.7997461208       -1.3392063372
 H         -3.3395190004       -0.7533888151        1.0046290239
 H         -0.8748753002        0.9192510711       -1.5398308674
 H         -0.5041014004        1.1166992861        1.4667657815
 H         -3.7058751235       -1.5977889202       -1.3518495762
 H         -1.9287602994       -1.7012881225       -1.5248881057
 H         -3.1789656422        1.5877939840        1.3590171216
 H         -1.8932475966        3.0146250442       -0.0902032148
 H         -2.0417831212       -3.1346455977        0.3187131803
  30
        -59.79404448
 O          0.1937861548       -0.6988551312       -1.5412236931
 O          4.7859506124       -0.5917551814       -0.6276075965
 O          1.8236525933        1.1614599744        2.2648757439
 N          0.9576621596        0.1816870399        0.3953493443
 N          3.2657918946        0.2451110127        0.8045243556
 C          2.4819981695       -1.0994519487       -1.0459843426
 C          1.1192272025       -0.5275026673       -0.7803430977
 C          3.6260659573       -0.4700871659       -0.3097971022
 C          1.9991693354        0.5557908501        1.2324103185
 H          2.6759778218       -1.0940989126       -2.1216071986
 H          2.4475650956       -2.1579269682       -0.7575658283
 H          4.0180457991        0.6217435274        1.3780384890
 O         -1.1445995530       -0.6263405235        1.0085626899
 O         -3.5394943388        1.2583556142       -0.6415573820
 O         -1.5733920341        2.6399160062        0.3957821847
 O         -3.8746379813       -2.2208590542       -0.7905617821
 C         -2.3180177644        0.5762790465       -0.7022246758
 C         -2.3635859019       -0.6125934985        0.2731342606
 C         -1.1397723952        1.4526743131       -0.1933611638
 C         -0.4018345907        0.5436312159        0.8180431425
 C         -2.5478342747       -1.9776759338       -0.4059847053
 H         -2.0981130063        0.2238635358       -1.7150308535
 H         -3.1977620859       -0.4556838394        0.9730555038
 H         -0.4650840990        1.7322414811       -1.0067791191
 H         -0.2785117893        1.0743351714        1.7715326217
 H         -1.8584359842       -2.0556863462       -1.2559865613
 H         -2.2962862534       -2.7509152670        0.3229255946
 H         -3.5870019240        1.9192728660       -1.3486096736
 H         -2.4841748847        2.5159227407        0.7190639051
 H         -4.1554270412       -1.5615442616       -1.4407561453
  30
        -59.79397245
 O          0.3840453416       -1.1297497662       -1.4897964013
 O          4.8211880766       -0.7461685796       -0.0736182931
 O          1.5461203223        1.4882995269        2.0370592135
 N          0.9156843829        0.2691393952        0.2112838359
 N          3.1557608191        0.3982014053        0.9169762725
 C          2.6949095681       -0.7020199142       -1.1798669298
 C          1.2371662029       -0.5702745910       -0.8390735361
 C          3.6674169067       -0.3867856341       -0.0854104767
 C          1.8509561532        0.7723442002        1.1104242596
 H          2.8945236641       -0.0062129949       -2.0049799107
 H          2.8836175698       -1.7007778780       -1.5812142244
 H          3.8007159566        0.7031907567        1.6436131901
 O         -1.1097654597       -0.6382956240        1.0040810084
 O         -3.4298075510        1.4529923657        0.5169328023
 O         -1.2983060203        2.4771200363       -0.7124234274
 O         -3.7929259309       -2.1620340916       -0.9294215590
 C         -2.7331532833        0.5307160981       -0.2784999376
 C         -2.4094439521       -0.7892165987        0.4262797724
 C         -1.3334892936        1.0880257321       -0.6321395705
 C         -0.4859719640        0.5343396068        0.5365938545
 C         -2.4548576069       -1.9917051700       -0.5229615345
 H         -3.3512315512        0.3688117545       -1.1625654237
 H         -3.1183503970       -0.9756578752        1.2414060154
 H         -0.9836805288        0.6801301768       -1.5826729292
 H         -0.4450568343        1.2836311219        1.3411021668
 H         -1.7946909243       -1.8100474552       -1.3770274047
 H         -2.0891987762       -2.8678427167        0.0265753956
 H         -3.1241855479        1.4082617156        1.4348047920
 H         -2.0965603943        2.8235107091       -0.2686159534
 H         -3.8471712235       -2.9133736060       -1.5364784481
  30
        -59.79403848
 O          1.5591757505        2.3429159822        1.0423007577
 O          4.7389045367       -0.9298499084        0.0966793478
 O          0.3963546349       -1.6386004482       -0.8197438262
 N          0.9286684027        0.4064794460        0.0411740139
 N          2.5600183492       -1.2285761263       -0.3832921648
 C          3.3102816772        0.9949433305        0.1751371996
 C          1.8771582832        1.3183555078        0.4854444266
 C          3.6326203607       -0.4564240454       -0.0145451890
 C          1.2359299972       -0.8659013288       -0.4173664940
 H          3.9530500138        1.4304118925        0.9438652080
 H          3.5648775771        1.5130611154       -0.7582644977
 H          2.7438716505       -2.2037190767       -0.6112337523
 O         -1.0292380839       -0.1601157508        1.1978405908
 O         -3.4688727309        1.4619918599       -0.0592450851
 O         -1.3528818911        1.9695796939       -1.5905428471
 O         -3.7378247375       -2.4229316692        0.1685418216
 C         -2.7319203147        0.3206403445       -0.4109887579
 C         -2.3666924795       -0.5075189158        0.8303032278
 C         -1.3536796345        0.7024949458       -0.9979543211
 C         -0.4771007930        0.7333520126        0.2673296178
 C         -2.4566841900       -2.0215541776        0.5755619488
 H         -3.3243654296       -0.2882187749       -1.1050732907
 H         -3.0233545831       -0.2193947502        1.6603999827
 H         -1.0046653668       -0.0774276760       -1.6777701311
 H         -0.4759198626        1.7570973214        0.6714068266
 H         -1.7736542937       -2.2889375042       -0.2334703256
 H         -2.1368038039       -2.5450487540        1.4838177794
 H         -3.0258081254        2.2406166896       -0.4435387061
 H         -1.6494286269        1.9071601999       -2.5109848024
 H         -4.3670176398       -2.2927248009        0.8925765455
  30
        -59.79394655
 O          1.5457475592        2.3475386471        1.0550989721
 O          4.7411848937       -0.9016485217        0.0625185001
 O          0.3948790044       -1.6322389012       -0.8191263057
 N          0.9213439046        0.4006761185        0.0733982626
 N          2.5598442404       -1.2123111807       -0.3975357586
 C          3.2989888757        1.0112869821        0.1748273357
 C          1.8660221985        1.3227033306        0.4981635449
 C          3.6299605597       -0.4354917522       -0.0329322931
 C          1.2323659032       -0.8584166234       -0.4143818182
 H          3.9447742831        1.4437400517        0.9427186643
 H          3.5421511812        1.5408044481       -0.7552521248
 H          2.7493238691       -2.1824791225       -0.6413639024
 O         -1.0585240786       -0.2042173640        1.1817742785
 O         -3.3279864445        1.5750122550       -0.0100490126
 O         -1.3086658045        1.9386601253       -1.6755000171
 O         -3.7685864582       -2.5280649934        0.3547699877
 C         -2.7299799384        0.3694606405       -0.4142152254
 C         -2.3819611309       -0.5541598730        0.7644305305
 C         -1.3463029077        0.7331189527       -0.9878867610
 C         -0.4856317230        0.7229483281        0.2970847697
 C         -2.4463157715       -2.0563127445        0.4301878254
 H         -3.3469791897       -0.1386067705       -1.1620437328
 H         -3.0479565796       -0.3625076599        1.6150058723
 H         -0.9992508308       -0.0438326802       -1.6720767381
 H         -0.4869265317        1.7264814673        0.7475479048
 H         -1.8810542601       -2.2617806699       -0.4827174318
 H         -1.9716879831       -2.5929889907        1.2548505304
 H         -4.2389441356        1.4220202220        0.2762453937
 H         -1.9208045746        2.5586435344       -1.2410823292
 H         -4.1518676827       -2.3162715530       -0.5072406247
  30
        -59.79392596
 O          0.2955760849       -0.6579966096       -1.7722053932
 O          4.7179396979       -0.8376141034       -0.2467970147
 O          1.4687458012        0.8780808699        2.3377618809
 N          0.8420249490        0.2074003046        0.2471622575
 N          3.0664889371        0.0587759110        0.9906096926
 C          2.6151704040       -0.4450851182       -1.3275370958
 C          1.1565065501       -0.3345549383       -0.9858801236
 C          3.5745940632       -0.4523331096       -0.1773674219
 C          1.7717352919        0.4202861099        1.2593706347
 H          2.8627427169        0.4199631773       -1.9563234884
 H          2.7737045480       -1.3225824800       -1.9597110768
 H          3.7066028459        0.1416435915        1.7781055537
 O         -1.2625076764       -0.7564026839        0.6707490594
 O         -3.4526779351        1.5866016302        0.7125870965
 O         -1.1758041447        2.7256814555       -0.0838859466
 O         -2.7087801033       -2.9182389095       -0.7147942885
 C         -2.7576973827        0.8522438053       -0.2591316214
 C         -2.5712513632       -0.6278715768        0.0906553619
 C         -1.3076547540        1.3753022512       -0.3934363077
 C         -0.5563406492        0.4556878737        0.5953306693
 C         -2.7102971068       -1.5696589730       -1.1144083662
 H         -3.3155033388        0.9861236329       -1.1868370052
 H         -3.2914330650       -0.9453799795        0.8549904819
 H         -0.9400864279        1.2157591828       -1.4098321344
 H         -0.5170300679        0.9359069678        1.5846239363
 H         -3.6749274935       -1.4023805423       -1.5959208115
 H         -1.9009145762       -1.3724773617       -1.8258245674
 H         -3.1936565067        1.3057427206        1.6027447790
 H         -1.9809633557        3.0080084969        0.3915788044
 H         -1.8737181292       -3.1039878780       -0.2634796094
  30
        -59.79389087
 O          0.2072201430       -0.5253774270       -1.6215713640
 O          4.6995881443       -1.0381256548       -0.3975154337
 O          1.7711367492        0.9304980775        2.3842056659
 N          0.9573615833        0.2951120144        0.3480269368
 N          3.2114063274       -0.0050694776        0.9374220543
 C          2.5633477086       -0.4968730314       -1.3374777981
 C          1.1440870849       -0.2720826787       -0.8977428767
 C          3.5960379997       -0.5661395995       -0.2538285560
 C          1.9645635150        0.4452246004        1.2934748983
 H          2.8345212116        0.3380068626       -1.9960747611
 H          2.6113266449       -1.3921566027       -1.9626391736
 H          3.9081540220        0.0345230688        1.6788610071
 O         -1.0907203416       -0.6372303790        0.9888617317
 O         -3.6259006286        1.2380308474       -0.3704581463
 O         -1.6333689822        2.6410512168        0.4595640429
 O         -3.6602901569       -2.0374146323       -1.1462282607
 C         -2.4129876679        0.5784159751       -0.6113377361
 C         -2.3180443401       -0.6783600477        0.2723910432
 C         -1.2151345458        1.4679840664       -0.1674724611
 C         -0.4119517051        0.5740180657        0.8028176773
 C         -2.3958463859       -1.9783378300       -0.5312610610
 H         -2.3001574171        0.2954990788       -1.6584332826
 H         -3.1487003350       -0.6543430876        0.9910827588
 H         -0.5943181447        1.7516350465       -1.0224949784
 H         -0.3002270114        1.0909443170        1.7652150638
 H         -1.5890832109       -1.9786270010       -1.2745828690
 H         -2.2468862508       -2.8146587208        0.1623396430
 H         -4.0064248553        1.5683872464       -1.1953539187
 H         -2.5949312279        2.5604225025        0.6247840461
 H         -3.7343418710       -2.8645989770       -1.6426497736
  30
        -59.79387424
 O          0.2053545081       -0.4066566566       -1.6468982261
 O          4.7289320936       -0.9621583714       -0.4696441890
 O          1.7831694796        0.7831136840        2.4389336001
 N          0.9659199469        0.2587720291        0.3740948721
 N          3.2279033892       -0.0411012796        0.9293705777
 C          2.5583054660       -0.4760622744       -1.3552239768
 C          1.1462223270       -0.2304636623       -0.9055323908
 C          3.6103818319       -0.5396444014       -0.2903382013
 C          1.9771706648        0.3637993442        1.3209620892
 H          2.8290914087        0.3355643995       -2.0421710415
 H          2.5867876928       -1.3855480430       -1.9620446834
 H          3.9352356667       -0.0164235475        1.6615749278
 O         -1.1004317888       -0.6999297003        0.9047093501
 O         -3.5833315088        1.2690207115       -0.4969306459
 O         -1.6572657283        2.5964585940        0.6856179438
 O         -3.7864190325       -2.1712990763       -1.0586147698
 C         -2.3364159437        0.6497418549       -0.6456292100
 C         -2.3253739460       -0.6475562104        0.1813483800
 C         -1.1868764117        1.5047389476       -0.0437314738
 C         -0.4027506946        0.5123296741        0.8458776906
 C         -2.4650671551       -1.9272253993       -0.6555944297
 H         -2.1141156606        0.4289184129       -1.6947246850
 H         -3.1583948744       -0.6090251811        0.8989743115
 H         -0.5352155036        1.9081016713       -0.8225776070
 H         -0.2887598983        0.9309896376        1.8547096675
 H         -1.7825060359       -1.8763242137       -1.5130975336
 H         -2.1771173233       -2.7727442083       -0.0272537648
 H         -3.6587026386        2.0161021815       -1.1093762977
 H         -2.5448380925        2.3903926230        1.0290060602
 H         -4.1011690063       -1.4420754823       -1.6114821645
  30
        -59.79387133
 O          0.1974000448        0.1386053660       -1.7507603416
 O          4.5781027940       -1.0789215777       -0.6197698093
 O          1.6282680618        0.1019536273        2.5569912599
 N          0.8884886478        0.2187912223        0.4009280633
 N          3.0879107375       -0.4160823838        0.9309140568
 C          2.5312467810       -0.1087225361       -1.3999183574
 C          1.1072745677        0.0701664409       -0.9550975792
 C          3.4991336649       -0.5967781679       -0.3655521218
 C          1.8514141331       -0.0188985332        1.3743220272
 H          2.8879538580        0.8687843839       -1.7485917849
 H          2.5553642651       -0.7607773586       -2.2768893943
 H          3.7454994057       -0.6682864462        1.6663720896
 O         -1.2325682053       -0.7404018379        0.6407665900
 O         -3.5817900799        1.6002212361       -0.3370938901
 O         -1.6826171818        2.5073199104        1.2050653317
 O         -2.6337063419       -2.8025556881       -0.8575731387
 C         -2.3505521731        0.9860067347       -0.5960663105
 C         -2.4118851849       -0.4724446254       -0.1109701995
 C         -1.2035916149        1.6250773772        0.2359878115
 C         -0.4868320272        0.4177229131        0.8818588244
 C         -2.5437610307       -1.4652771486       -1.2716979620
 H         -2.0942242776        1.0096932362       -1.6578723325
 H         -3.2724509490       -0.5780999740        0.5659006468
 H         -0.5081717928        2.1821271587       -0.3979398674
 H         -0.3936907857        0.5833843321        1.9635450017
 H         -3.4215339454       -1.1794454982       -1.8661035801
 H         -1.6491336775       -1.4021155212       -1.8948606673
 H         -3.6898374903        2.3860889870       -0.8930022643
 H         -2.6404332672        2.3523835845        1.3143990825
 H         -3.4015661055       -2.9119002920       -0.2781900300
  30
        -59.79385481
 O          0.2536487410       -0.6628424664       -1.5869057157
 O          4.8294281336       -0.4958918484       -0.6296721589
 O          1.8097589974        1.1107317569        2.2904524180
 N          0.9799462949        0.1580838677        0.3914619137
 N          3.2829197121        0.2763374294        0.8105959754
 C          2.5404401271       -1.0529119115       -1.0685797664
 C          1.1656251308       -0.5085334569       -0.8080857054
 C          3.6657120219       -0.4096921573       -0.3150138917
 C          2.0069878199        0.5375267178        1.2435488011
 H          2.7437129122       -1.0337352646       -2.1422048108
 H          2.5215409784       -2.1141770160       -0.7888560630
 H          4.0230502831        0.6613545186        1.3943258086
 O         -1.0984074456       -0.7527764334        0.8965683755
 O         -3.4943969359        1.2529798573       -0.8246241127
 O         -1.6157646424        2.4915782381        0.6414373900
 O         -4.0643958870       -2.0277817502       -0.7999441477
 C         -2.2952327475        0.5543915795       -0.6967543951
 C         -2.3722139907       -0.6395217670        0.2759792997
 C         -1.1383212061        1.4170925239       -0.1217857794
 C         -0.3892491585        0.4545561570        0.8179698260
 C         -2.7175892899       -1.9657928926       -0.4110676786
 H         -2.0255055080        0.2089908893       -1.6974319328
 H         -3.1287726259       -0.4322819103        1.0488161000
 H         -0.4723037136        1.7659932724       -0.9170867256
 H         -0.3049073437        0.9187858973        1.8104934488
 H         -2.0419966973       -2.1110436794       -1.2639800802
 H         -2.5654403208       -2.7794679313        0.3009311764
 H         -3.7196007106        1.6594158321        0.0284186395
 H         -1.9094443234        3.2031917488        0.0522705342
 H         -4.2594350302       -1.3045312376       -1.4139640439
  30
        -59.79371842
 O          0.3695768556       -1.6077952139       -0.9377431731
 O          4.8433451576       -0.4207016571       -0.3740141070
 O          1.5625114893        2.1957067476        1.2390602393
 N          0.9090216623        0.2463151282        0.2480929319
 N          3.1695784328        0.8455209249        0.4380655115
 C          2.6507427806       -1.3887627932       -0.3152150132
 C          1.2173617397       -0.9440874119       -0.3862312840
 C          3.6682530957       -0.3066123850       -0.1146054703
 C          1.8568723112        1.1574712490        0.6915784128
 H          2.8931212467       -1.9788004198       -1.2022616442
 H          2.7307975995       -2.0766882020        0.5361409891
 H          3.8369025441        1.5801032965        0.6646903689
 O         -1.1477701900       -0.4052974066        1.1583844512
 O         -3.2831118620        1.6162116825        0.1249070938
 O         -1.1625688817        2.1268652124       -1.3717332946
 O         -3.8825721166       -2.4820919720       -0.1176550023
 C         -2.7064384315        0.4569662901       -0.4212171445
 C         -2.4555389862       -0.6402273961        0.6260668225
 C         -1.2808958985        0.8393761566       -0.8658845346
 C         -0.4929714890        0.6092396055        0.4456475683
 C         -2.5505530386       -2.0748218307        0.0733819265
 H         -3.2975804590        0.0883865157       -1.2653505434
 H         -3.1620936384       -0.5476358909        1.4600399061
 H         -0.9233786878        0.1534177010       -1.6366769307
 H         -0.4787844240        1.5391209564        1.0328262085
 H         -1.9554844907       -2.1674181236       -0.8390330690
 H         -2.1276244272       -2.7426275138        0.8272238370
 H         -4.2197491281        1.4712979650        0.3172376410
 H         -1.7707297357        2.7060048920       -0.8792743333
 H         -4.2254485681       -2.1292417702       -0.9498799027
  30
        -59.79371397
 O          0.3647771962       -1.5987864421       -0.9627348424
 O          4.8518916967       -0.4882771638       -0.3128229604
 O          1.5864312486        2.2021556574        1.2061778060
 N          0.9159535607        0.2624669736        0.2054644225
 N          3.1831684768        0.8184180283        0.4430776635
 C          2.6394048010       -1.4110766714       -0.3099983965
 C          1.2152290007       -0.9437625963       -0.4051669289
 C          3.6729002216       -0.3487954930       -0.0864317524
 C          1.8723248596        1.1563997943        0.6698445130
 H          2.8878259601       -2.0032496587       -1.1942059535
 H          2.6917993420       -2.1047518273        0.5389577729
 H          3.8604841480        1.5382260507        0.6872571897
 O         -1.1130071598       -0.3586403568        1.1809510915
 O         -3.4307248975        1.5161702877        0.0706410317
 O         -1.2291522863        2.1587124560       -1.2778943798
 O         -3.8284181788       -2.3572268060       -0.2882814435
 C         -2.7164684981        0.4102086499       -0.4158437055
 C         -2.4381888030       -0.6044649414        0.7030794175
 C         -1.2998139328        0.8194176343       -0.8803968345
 C         -0.4834297728        0.6304915533        0.4123157349
 C         -2.5557727771       -2.0609186707        0.2224564983
 H         -3.2950291643       -0.0656146528       -1.2172914528
 H         -3.1284585737       -0.4197009655        1.5351425557
 H         -0.9439281705        0.1353747407       -1.6537255347
 H         -0.4598419429        1.5867110856        0.9564687206
 H         -1.8466540899       -2.2286461436       -0.5908604728
 H         -2.2885324944       -2.7223148427        1.0544900398
 H         -2.9429676010        2.3240101232       -0.1732737572
 H         -1.4792451953        2.2446786570       -2.2099890780
 H         -4.4835315573       -2.3221158953        0.4235876280
  30
        -59.79364842
 O          0.2587856615       -0.3059078279       -1.6911999050
 O          4.7556933547       -0.9156334780       -0.4913660437
 O          1.7654867664        0.6255330314        2.4877969328
 N          0.9851550205        0.2519347622        0.3765194448
 N          3.2380723985       -0.0846905598        0.9465920918
 C          2.6120283133       -0.3195272294       -1.3779673798
 C          1.1875452002       -0.1520578127       -0.9315658044
 C          3.6401389678       -0.4910001433       -0.3012671668
 C          1.9805143990        0.2895931215        1.3460505601
 H          2.8816701660        0.5763101952       -1.9516282459
 H          2.6707425489       -1.1480118240       -2.0888295196
 H          3.9307069346       -0.1252151819        1.6920734128
 O         -1.0528550420       -0.8039395506        0.7790752560
 O         -3.5517880711        1.3058906745       -0.6308195203
 O         -1.6922648565        2.4242318327        0.9382146975
 O         -3.9374060746       -1.9908099678       -1.1107240488
 C         -2.3231829018        0.6472806775       -0.6272139962
 C         -2.3292985294       -0.6747131953        0.1669197049
 C         -1.1890542696        1.4726059607        0.0406551999
 C         -0.3917718833        0.4321870088        0.8448798141
 C         -2.5972247498       -1.9086381543       -0.7030878099
 H         -2.0662044419        0.4591150030       -1.6721384788
 H         -3.0971962151       -0.6243069080        0.9543543826
 H         -0.5507834673        1.9459793258       -0.7120406487
 H         -0.3153635801        0.7709180153        1.8874380031
 H         -1.9122285034       -1.8950471128       -1.5605677769
 H         -2.4003939865       -2.8041627272       -0.1101309611
 H         -3.7786810240        1.5632889204        0.2779488797
 H         -2.0744102466        3.1646732055        0.4415972378
 H         -4.1700870592       -1.2023254896       -1.6228006241
  30
        -59.79360059
 O          0.2247314175        0.6256367094       -1.7616612059
 O          4.3488648469       -1.1918217158       -0.6861348497
 O          1.4378301506       -0.0907521049        2.5554350497
 N          0.6938890876        0.1604878824        0.4126654621
 N          2.8586907775       -0.6185583137        0.9005213153
 C          2.0843841462       -0.7920040073       -1.3713763171
 C          0.9280160584        0.0684642630       -0.9504929106
 C          3.2158492469       -0.8844027850       -0.3966037842
 C          1.6377298105       -0.1946441321        1.3654817722
 H          2.4434175124       -0.4746791758       -2.3520724909
 H          1.6689171341       -1.8012037771       -1.4999862999
 H          3.5691917463       -0.7479865781        1.6176292230
 O         -1.4973388146       -0.5380961264        0.9150017190
 O         -3.7094192900        1.5084670794       -0.2964512622
 O         -1.8622032932        2.6234614531        1.1569045417
 O         -0.8026657638       -2.2200369253       -0.9301853156
 C         -2.4332617837        1.0257874504       -0.6186515202
 C         -2.3606303456       -0.4597727503       -0.2164092459
 C         -1.3271623785        1.7217121229        0.2353830688
 C         -0.6250774351        0.5488527141        0.9518313482
 C         -1.8769898099       -1.4128433244       -1.3458290836
 H         -2.2196993589        1.1495477863       -1.6833387781
 H         -3.3467011876       -0.7749903148        0.1391155243
 H         -0.6287800535        2.2873228144       -0.3810975667
 H         -0.4446637669        0.7967972719        2.0037236312
 H         -2.7153650750       -2.0317217192       -1.6835586351
 H         -1.5009386690       -0.8410765532       -2.1958107963
 H         -3.8378057665        2.3868030841       -0.6839110176
 H         -2.7211420091        2.2846657355        1.4659431234
 H         -1.0845151314       -2.7324940707       -0.1578622998
  30
        -59.79344119
 O          0.3756220610       -1.1405072515       -1.4748069962
 O          4.8224573973       -0.7243698375       -0.0567495168
 O          1.5409244182        1.5605189043        1.9892523252
 N          0.9129123813        0.2742419629        0.2103250269
 N          3.1535122729        0.4431171893        0.8990041135
 C          2.6905476146       -0.7452810596       -1.1510606462
 C          1.2322056790       -0.5846583533       -0.8250174188
 C          3.6648488253       -0.3764067193       -0.0750917859
 C          1.8462995542        0.8140086348        1.0873459740
 H          2.8990172694       -0.1037426188       -2.0168197603
 H          2.8722346530       -1.7675318003       -1.4926695428
 H          3.8005499855        0.7794460132        1.6096037609
 O         -1.1049871252       -0.6698988691        0.9489827587
 O         -3.3013228997        1.5034274233        0.5919303063
 O         -1.2460216536        2.4700589587       -0.7658525144
 O         -3.8271356411       -2.3751607532       -0.8129994535
 C         -2.7283534493        0.5617377693       -0.2797302653
 C         -2.4229071083       -0.7814557952        0.4027893156
 C         -1.3254888406        1.0895941517       -0.6402991056
 C         -0.4917600841        0.5224006914        0.5314129939
 C         -2.5007754060       -1.9996943619       -0.5367478264
 H         -3.3450945165        0.4340621029       -1.1748226139
 H         -3.1052490030       -0.9521375582        1.2446439647
 H         -0.9875253468        0.6586533228       -1.5845480644
 H         -0.4819272174        1.2506227546        1.3555283861
 H         -1.9273190164       -1.8090941210       -1.4478302529
 H         -2.0424392183       -2.8422376192       -0.0139005989
 H         -4.2267958986        1.2844407053        0.7671104691
 H         -1.8424217701        2.8727034432       -0.1103659152
 H         -4.1995242232       -1.8086762447       -1.5024184240
  30
        -59.79340576
 O          1.7384539834        2.3741287507        0.9648983122
 O          4.6161992788       -1.0091559345       -0.5615499001
 O          0.1558009068       -1.5479500122       -0.6655749785
 N          0.9150061806        0.3936415175        0.2500728697
 N          2.3802885867       -1.2505306146       -0.5527008010
 C          3.3377127219        0.6575559129        0.5893624768
 C          1.9543564425        1.2352303418        0.6178383607
 C          3.5356493329       -0.5852394901       -0.2253996898
 C          1.0865303456       -0.8518490365       -0.3300345530
 H          3.6085222987        0.4189710007        1.6260882925
 H          4.0473464862        1.4287572407        0.2773427434
 H          2.4799827530       -2.1320911419       -1.0527946247
 O         -1.1446911094       -0.1060907540        1.2323274175
 O         -3.6236719114        0.6265549927       -1.2522458300
 O         -1.8072043892        2.4352889649       -0.7875820759
 O         -2.4485245300       -2.6282750311        0.2222769307
 C         -2.4266928009        0.1319125731       -0.7461613817
 C         -2.4831542497       -0.2252410780        0.7533654847
 C         -1.2589825168        1.1470842286       -0.8077915049
 C         -0.4537362801        0.8573284327        0.4847035122
 C         -3.0007854748       -1.6344796777        1.0460250632
 H         -2.1802239646       -0.7674614194       -1.3180952311
 H         -3.1164699028        0.5046289300        1.2778217599
 H         -0.6413156886        0.9862755422       -1.6967545716
 H         -0.3552071296        1.7879535051        1.0637155790
 H         -2.7989895147       -1.8545011987        2.1031401654
 H         -4.0775987579       -1.6581516111        0.8680307393
 H         -3.6744050929        1.5769718114       -1.0500680449
 H         -1.1621796996        3.0959294972       -1.0732225283
 H         -1.4885442210       -2.4995581238        0.1651316205
  30
        -59.79330753
 O          1.7375691223        2.3307548958        1.0911168841
 O          4.6172781966       -1.0250893591       -0.5342272681
 O          0.1538533519       -1.5110531756       -0.7307673051
 N          0.9157684369        0.4143235233        0.2140634206
 N          2.3793614590       -1.2351751086       -0.5827924409
 C          3.3368696899        0.6452941928        0.6070798214
 C          1.9520196158        1.2195439157        0.6632389206
 C          3.5348914488       -0.5898772741       -0.2183366671
 C          1.0865975701       -0.8269301222       -0.3757594878
 H          3.6320058031        0.4083415636        1.6373274533
 H          4.0354478297        1.4236671852        0.2863355375
 H          2.4795621103       -2.1136041760       -1.0883438169
 O         -1.1278400287       -0.0805570769        1.2171934842
 O         -3.6621386772        0.6319311996       -1.2074768397
 O         -1.7831155788        2.4102881157       -0.8999928660
 O         -2.4274781047       -2.6212895388        0.2872924408
 C         -2.4596985783        0.1166329409       -0.7345790274
 C         -2.4760128893       -0.2109599381        0.7725738989
 C         -1.2718053143        1.1058241129       -0.8626624473
 C         -0.4563825469        0.8709600409        0.4353783166
 C         -2.9772822403       -1.6180570154        1.1018489913
 H         -2.2545878788       -0.7989233952       -1.2968910074
 H         -3.1004154894        0.5252091660        1.2988239279
 H         -0.6696832468        0.8788361413       -1.7451353291
 H         -0.3718849595        1.8232623650        0.9799729691
 H         -2.7559890040       -1.8166223613        2.1592273706
 H         -4.0564397522       -1.6555584369        0.9420384368
 H         -3.6737378278        1.5899585719       -1.0334305671
 H         -1.2373993223        2.9925481700       -1.4444370865
 H         -1.4705811712       -2.4823420072        0.2110153136
  30
        -59.79327640
 O          0.2308439888       -0.5981337213       -1.6499847630
 O          4.6891054741       -1.0834081082       -0.3048458036
 O          1.7237084427        1.0515776222        2.3084352312
 N          0.9439977860        0.3172124411        0.2917537737
 N          3.1853266391        0.0347844649        0.9408824699
 C          2.5807058747       -0.5645390893       -1.3191603375
 C          1.1538371690       -0.3146077895       -0.9200527196
 C          3.5888612035       -0.5922374230       -0.2111377445
 C          1.9353880784        0.5088018109        1.2486960064
 H          2.8711739046        0.2395355027       -2.0073639642
 H          2.6349153072       -1.4859991584       -1.9044669842
 H          3.8668158798        0.1049057528        1.6942826626
 O         -1.0915625985       -0.5856243955        1.0211422935
 O         -3.6947137911        1.2776015496       -0.1700725746
 O         -1.5255766499        2.6659949448        0.2695720841
 O         -3.5380774820       -2.1776255788       -1.2088614518
 C         -2.5408127859        0.5701666142       -0.5150546842
 C         -2.3323197102       -0.7041115682        0.3289030833
 C         -1.2514860531        1.4145604673       -0.2970275361
 C         -0.4287974460        0.6115241813        0.7227332813
 C         -2.3320142772       -1.9873075310       -0.5191501568
 H         -2.6594108149        0.2974711811       -1.5659279041
 H         -3.1255735787       -0.7710200439        1.0866436997
 H         -0.7023618053        1.5265547019       -1.2364245127
 H         -0.3202912518        1.2112455464        1.6376890880
 H         -1.5525467057       -1.9108666432       -1.2800228236
 H         -2.1031689012       -2.8363314136        0.1368444801
 H         -3.5642946837        1.7074713555        0.6914587702
 H         -2.0226822649        3.2047864945       -0.3657917149
 H         -4.2598457812       -2.3113708273       -0.5778719820
  30
        -59.79327359
 O          1.7293564709        2.1533615430        1.3745608850
 O          4.5715369865       -1.2513825996       -0.1311242804
 O          0.2068121204       -1.2600147398       -1.2085655929
 N          0.9318390665        0.4888026034        0.0611943095
 N          2.3910857083       -1.1929738324       -0.6853486952
 C          3.3589793309        0.7556527086        0.3636626817
 C          1.9569904479        1.1939700883        0.6728872278
 C          3.5261036802       -0.6448554007       -0.1433981555
 C          1.1138560534       -0.6898263333       -0.6490079032
 H          3.9866334614        0.9155674867        1.2441618747
 H          3.7529902116        1.4339610631       -0.4038257905
 H          2.4780690098       -2.1114317457       -1.1158373662
 O         -1.0913339446       -0.1459834356        1.0491647400
 O         -3.6045926998        0.5968893323       -1.3761974304
 O         -1.9439364336        2.4886896949       -0.6984905603
 O         -2.7783056022       -2.4604094211        1.7977607207
 C         -2.3591044560        0.1484687486       -0.9484522469
 C         -2.3714156451       -0.4175439069        0.4876514166
 C         -1.2875946014        1.2641789941       -0.8801015718
 C         -0.4466824531        0.8922223878        0.3635494104
 C         -2.6524541660       -1.9205807516        0.5084542920
 H         -2.0375821956       -0.6326646417       -1.6414094703
 H         -3.1298079990        0.1173188450        1.0791162835
 H         -0.6689352169        1.2643896552       -1.7806754387
 H         -0.3531231045        1.7677946125        1.0220377269
 H         -3.5581053165       -2.0991113374       -0.0855934654
 H         -1.8100396895       -2.4382566111        0.0445761904
 H         -3.7152774467        1.5181650721       -1.0799562711
 H         -1.4003069381        3.2290369773       -0.9998773818
 H         -3.5160192344       -2.0338613104        2.2574363437
  30
        -59.79327047
 O          1.5250223002        2.2144582832        1.2024527688
 O          4.5875263319       -1.0880536294        0.0488489805
 O          0.2599441299       -1.5038454528       -1.0933064337
 N          0.8399059602        0.4067375789        0.0147919823
 N          2.4164207428       -1.2468546888       -0.5265268694
 C          3.2378412378        0.8872015022        0.2317345368
 C          1.8126370732        1.2348447971        0.5536260780
 C          3.5065754771       -0.5581515841       -0.0608166200
 C          1.1109919253       -0.8187492418       -0.5744501627
 H          3.8878583035        1.2428124764        1.0342902345
 H          3.5157380303        1.4594704450       -0.6624619016
 H          2.5652110883       -2.2053671405       -0.8353021263
 O         -1.1686939748       -0.1818088171        1.0732398777
 O         -3.4263643286        1.6732869376       -0.0656168147
 O         -1.3538663752        2.1583729395       -1.6168674060
 O         -2.3144757017       -2.8504811200        1.2396622441
 C         -2.8061892188        0.4978890622       -0.5213557131
 C         -2.4919190771       -0.4855128047        0.6203391049
 C         -1.4077907501        0.8962113051       -1.0394899171
 C         -0.5572409646        0.7702115080        0.2458573700
 C         -2.6005597176       -1.9578604915        0.1943452184
 H         -3.3930225048        0.0193551036       -1.3101639995
 H         -3.1536287487       -0.3003947202        1.4764009270
 H         -1.0634830051        0.1791923119       -1.7868174820
 H         -0.5207507645        1.7432576554        0.7580893035
 H         -3.6092923057       -2.1373737790       -0.2010299752
 H         -1.8621363667       -2.1662823594       -0.5816324693
 H         -4.3776158603        1.5367325876        0.0415218881
 H         -1.9810481341        2.7365271913       -1.1464197864
 H         -2.9124139896       -2.6847063481        1.9831529319
  30
        -59.79324928
 O          0.2126811497       -0.2640871457       -1.7402331973
 O          4.7559838622       -0.5504712742       -0.6706641289
 O          1.7373181977        0.7055458296        2.4148591518
 N          0.9070092464        0.0851766326        0.3862891413
 N          3.2070495612        0.0428745502        0.8484055127
 C          2.4555956909       -0.8829581033       -1.2557420753
 C          1.1004262716       -0.3263959015       -0.9230913725
 C          3.5886589825       -0.4549863146       -0.3728681632
 C          1.9341637189        0.2868057857        1.2953775086
 H          2.6900713672       -0.6719816060       -2.3021034847
 H          2.3764690876       -1.9754510128       -1.1834030665
 H          3.9482863925        0.2839318413        1.5035604777
 O         -1.2380930126       -0.8160482850        0.6142557776
 O         -3.4156412424        1.6858799332       -0.7210972123
 O         -1.8005549933        2.3181965799        1.2293341452
 O         -3.1176181340       -2.7778808316       -0.5751841030
 C         -2.2483383443        0.9322426905       -0.6547964483
 C         -2.4548591234       -0.4696881301       -0.0421397845
 C         -1.1573013089        1.5486071647        0.2524939185
 C         -0.4598559196        0.3164577587        0.8736496464
 C         -2.8065496892       -1.5146962993       -1.1019324811
 H         -1.8710271667        0.8291699881       -1.6749972027
 H         -3.2507393631       -0.4176144388        0.7157208243
 H         -0.4476641398        2.1461000088       -0.3282008238
 H         -0.3581347194        0.4539985373        1.9596187800
 H         -3.6386420365       -1.1180761689       -1.6977806026
 H         -1.9388810900       -1.6611601986       -1.7486978957
 H         -3.5500545248        2.1218102556        0.1388687385
 H         -1.1721670175        2.8849321478        1.6962446545
 H         -3.8934144119       -2.7071522379       -0.0003308497
  30
        -59.79321328
 O          1.5853077369        2.3120026643        1.1157598787
 O          4.7192765061       -0.9685936423        0.0495355753
 O          0.3629776847       -1.5914031491       -0.8656886865
 N          0.9259111861        0.4149715931        0.0613976405
 N          2.5342721901       -1.2236837223       -0.4278956567
 C          3.3155608632        0.9704360762        0.1985417863
 C          1.8881999844        1.3011163095        0.5245769979
 C          3.6185630727       -0.4776911023       -0.0409550683
 C          1.2147703779       -0.8421650706       -0.4453206012
 H          3.9675537126        1.3727430432        0.9774862949
 H          3.5711442067        1.5155646228       -0.7191606487
 H          2.7044970539       -2.1924681163       -0.6907047695
 O         -1.0696244715       -0.1181523296        1.1911709259
 O         -3.4953173534        1.4706792123       -0.1282156658
 O         -1.3653430037        2.0348695711       -1.6203156301
 O         -3.6648412841       -2.5894687815        0.4810113178
 C         -2.7199177456        0.3483607094       -0.4559154811
 C         -2.3633350004       -0.5383909760        0.7428349807
 C         -1.3394129707        0.7885094065       -1.0015706981
 C         -0.4753852916        0.7719053248        0.2807394497
 C         -2.3700175569       -2.0474277263        0.4347263724
 H         -3.2880588455       -0.1882496092       -1.2173816853
 H         -3.0615626791       -0.3709758952        1.5731911617
 H         -0.9578619867        0.0559598390       -1.7166027567
 H         -0.4353820825        1.7827090223        0.7134741327
 H         -1.8780007296       -2.2440293176       -0.5225446676
 H         -1.8025009297       -2.5474245317        1.2227031522
 H         -3.2193660614        1.8386907759        0.7240433806
 H         -2.1915397088        2.4856006741       -1.3579014889
 H         -4.1863825883       -2.2720570310       -0.2694215346
  30
        -59.79318617
 O          1.7102990200        2.1159720540        1.4172593941
 O          4.5105976997       -1.2952549192       -0.1226371175
 O          0.1476678577       -1.2428051394       -1.2089484313
 N          0.8994661596        0.5025712704        0.0470511158
 N          2.3327126704       -1.2082428443       -0.6823386694
 C          3.3250588647        0.7312459361        0.3612143701
 C          1.9282621316        1.1789949786        0.6846934373
 C          3.4742585771       -0.6734851753       -0.1403164284
 C          1.0647428187       -0.6826131687       -0.6531864054
 H          3.9656531480        0.8918398162        1.2318932731
 H          3.7093170402        1.4019819542       -0.4177165172
 H          2.4066352015       -2.1312700988       -1.1054028380
 O         -1.1224905145       -0.0420315886        1.0843921510
 O         -3.6927779302        0.7278136426       -1.1963696682
 O         -1.7766806304        2.5295805223       -0.8745826376
 O         -2.4630801638       -2.5409708600        1.7755775870
 C         -2.4487258136        0.1714988142       -0.9045274902
 C         -2.3691242770       -0.4309664476        0.5141428225
 C         -1.2967551064        1.2151667124       -0.9483900190
 C         -0.4759774442        0.9345878535        0.3206682001
 C         -2.4971523134       -1.9581581084        0.4994472925
 H         -2.2735082412       -0.6065719883       -1.6496580589
 H         -3.1663485195       -0.0016793736        1.1392334895
 H         -0.6778742658        1.0740837015       -1.8394978142
 H         -0.3805467969        1.8627866788        0.9016168258
 H         -3.4265595189       -2.2132767178       -0.0262016146
 H         -1.6489772005       -2.3767569904       -0.0462801001
 H         -3.8192063849        1.5241764273       -0.6523532367
 H         -2.1617999268        2.7809101784       -1.7284522135
 H         -3.1950180635       -2.1993325528        2.3094277535
  30
        -59.79318542
 O          1.7777991762        2.2703672556        1.2812302814
 O          4.6737636750       -1.1379736954       -0.0837415974
 O          0.2733008046       -1.3716245620       -0.9759876122
 N          0.9900763385        0.5029619628        0.1021769297
 N          2.4734914074       -1.1940756726       -0.5530506296
 C          3.4137382658        0.8679518881        0.2834587884
 C          2.0124352824        1.2807801056        0.6265303579
 C          3.6096458803       -0.5658939068       -0.1073338590
 C          1.1839147346       -0.7266935661       -0.5107639774
 H          4.0790976415        1.1296287717        1.1100467479
 H          3.7371600204        1.4866902329       -0.5634799803
 H          2.5755868380       -2.1430040953       -0.9075670450
 O         -1.0050285669       -0.0538430002        1.1989277042
 O         -3.5861888002        0.4137552471       -1.1973897997
 O         -1.8407649422        2.3870164586       -0.9308211129
 O         -3.8364742407       -2.2985385383        0.7181687897
 C         -2.3138065557       -0.0042121240       -0.7957860688
 C         -2.2813821695       -0.4246251793        0.6871177368
 C         -1.2521365279        1.1218165844       -0.8736697127
 C         -0.3889436728        0.9115875473        0.3873626249
 C         -2.4956423351       -1.9262870861        0.8978408764
 H         -1.9951029304       -0.8460208424       -1.4216563456
 H         -3.0650775685        0.1196692946        1.2358173628
 H         -0.6513290070        1.0361154406       -1.7807385486
 H         -0.2868360845        1.8561547214        0.9412165781
 H         -1.8291099120       -2.4802911863        0.2234701679
 H         -2.2408196843       -2.1771899452        1.9296341333
 H         -3.5272314122        1.3350959691       -1.5094614886
 H         -2.2706378085        2.6043762169       -0.0890747488
 H         -4.1370148637       -2.0055809699       -0.1547654326
  30
        -59.79317381
 O          1.7347201593        2.2634770022        1.1919252343
 O          4.6485275395       -1.0245089365       -0.4888192524
 O          0.2053939164       -1.3643780719       -1.0581952909
 N          0.9241141712        0.4143270365        0.1739770274
 N          2.4156472573       -1.1631774486       -0.7139058555
 C          3.3243329815        0.5679096364        0.7127123704
 C          1.9515596827        1.1710714869        0.7170913915
 C          3.5549489088       -0.5914235969       -0.2086379652
 C          1.1147775141       -0.7518216906       -0.5492537376
 H          3.5270111976        0.2242294062        1.7352875180
 H          4.0641738250        1.3506185011        0.5228152284
 H          2.5329064747       -1.9837813147       -1.3051018896
 O         -1.1556240099       -0.1462753990        1.0893709475
 O         -3.5161976504        0.5907204577       -1.4934064759
 O         -1.9164545976        2.4763082306       -0.6608278288
 O         -2.9234110466       -2.4304546684        1.7567542096
 C         -2.3014802200        0.1478395572       -0.9805049364
 C         -2.4048524818       -0.4081447453        0.4559418321
 C         -1.2392490213        1.2640508239       -0.8426532480
 C         -0.4515264922        0.8643547506        0.4256074016
 C         -2.7086846066       -1.9066455805        0.4724969293
 H         -1.9342003612       -0.6370565237       -1.6459092918
 H         -3.1875585269        0.1423627083        0.9991911354
 H         -0.5822184946        1.2969789435       -1.7169644687
 H         -0.3473488897        1.7370503272        1.0868083804
 H         -3.5782870839       -2.0775462752       -0.1752409435
 H         -1.8467354169       -2.4406482742        0.0672227365
 H         -3.6571245457        1.5075730658       -1.1978201591
 H         -1.3251949949        3.2295705356       -0.7927009822
 H         -3.6848484451       -1.9913912595        2.1626959679
  30
        -59.79316902
 O          0.0781633635       -1.4463587293       -0.9544153008
 O          4.7054072977       -0.7958693398       -0.6241697536
 O          1.8263285529        2.0418416025        1.3452932149
 N          0.9124734897        0.2278143071        0.3156192031
 N          3.2315061376        0.5735507568        0.3811827399
 C          2.4185056824       -1.5076713286       -0.5497103819
 C          1.0398234320       -0.9238333869       -0.4401486694
 C          3.5638955287       -0.5746139018       -0.2961045924
 C          1.9812296041        1.0071352330        0.7358451471
 H          2.5326143801       -1.9902111714       -1.5239599422
 H          2.4844396400       -2.3179275453        0.1880840557
 H          3.9934767831        1.2040240642        0.6243779994
 O         -1.1806807223       -0.3659848632        1.1715490756
 O         -3.5733358163        1.0398036965       -1.1032905102
 O         -1.7059799593        2.6022582461       -0.1713334569
 O         -2.6158790533       -2.5100918071       -0.4151073680
 C         -2.4097499691        0.3900952183       -0.7070777726
 C         -2.5147940856       -0.3003828025        0.6681201116
 C         -1.2035673663        1.3402235436       -0.5105011196
 C         -0.4277840384        0.7033670795        0.6711538108
 C         -3.1112747324       -1.7085589408        0.6251888539
 H         -2.1845844201       -0.3618619118       -1.4688958451
 H         -3.1193684523        0.3227810987        1.3426507636
 H         -0.5785415725        1.3837523253       -1.4081919081
 H         -0.2767446121        1.4598782898        1.4554369432
 H         -2.9257611931       -2.1816641803        1.5990151627
 H         -4.1870990351       -1.6292377746        0.4578263871
 H         -3.5989124840        1.9131869674       -0.6755895685
 H         -1.0251430739        3.2835954143       -0.2490713412
 H         -1.6483501875       -2.4415089432       -0.4409511604
  30
        -59.79312696
 O          0.1053376885       -0.8301733761       -1.5020596265
 O          4.6730269468       -1.0310877316       -0.4492173029
 O          1.7890679732        1.1656346499        2.2088045733
 N          0.9144214271        0.2400409428        0.3168728138
 N          3.2019517670        0.0968859024        0.8253096338
 C          2.4701634370       -0.7091629968       -1.3350039535
 C          1.0656593091       -0.4674855412       -0.8622325902
 C          3.5552973073       -0.5947493329       -0.3075633953
 C          1.9578140589        0.5439773039        1.1846818366
 H          2.6817496342        0.0253945966       -2.1225346305
 H          2.5201295456       -1.6836090759       -1.8284706514
 H          3.9322978192        0.2553380899        1.5168863060
 O         -1.1548122749       -0.6694515538        0.9124655709
 O         -3.6275841834        1.3466101097       -0.7178600696
 O         -1.7321402946        2.5839766167        0.5676188570
 O         -2.5257215983       -2.2178585756       -1.2671848178
 C         -2.4454150522        0.6237842365       -0.5976944011
 C         -2.4994563568       -0.4832543004        0.4751856045
 C         -1.2386733658        1.4822226139       -0.1428698897
 C         -0.4411472444        0.5322703118        0.7871332555
 C         -3.0535378179       -1.8165342729       -0.0295678502
 H         -2.2436171096        0.1675691628       -1.5713153506
 H         -3.1081517864       -0.1393538032        1.3237032459
 H         -0.6323610838        1.7912381381       -0.9982207029
 H         -0.3246212097        1.0086588187        1.7716144604
 H         -2.8571770473       -2.5770030633        0.7383070996
 H         -4.1305650447       -1.7177214871       -0.1774275564
 H         -3.6268759804        2.0485453034       -0.0435856750
 H         -1.0997378231        3.3143612977        0.5692240297
 H         -1.5628474847       -2.1012346561       -1.2570404293
  30
        -59.79306860
 O          0.2602301499       -0.9627496630       -1.6176690144
 O          4.7359713282       -0.5603814718       -0.4207072256
 O          1.5383910309        1.4739572686        1.9973292413
 N          0.8223970075        0.1711600570        0.2651452227
 N          3.1006145678        0.4296617608        0.7670846063
 C          2.4809557465       -1.2642873573       -0.8347644302
 C          1.0975852344       -0.6796629342       -0.7922991592
 C          3.5562499366       -0.4502185520       -0.1811757336
 C          1.7969565591        0.7274421052        1.0803055518
 H          2.7494990206       -1.4919262036       -1.8688216069
 H          2.4342198822       -2.2285834062       -0.3125930861
 H          3.7986230659        0.9485644716        1.2961265852
 O         -1.2917983262       -0.6367455418        0.8475768820
 O         -3.3529136275        1.6970594916        0.5420266510
 O         -1.1382192253        2.6583368926       -0.5147560372
 O         -2.5715259600       -3.0055360545       -0.2738397514
 C         -2.7531431827        0.8049325564       -0.3629019812
 C         -2.5810948255       -0.6061770954        0.2268760052
 C         -1.2989527501        1.2797549127       -0.5698932425
 C         -0.5646760532        0.5264814089        0.5646778074
 C         -2.7114126016       -1.7209371801       -0.8229728539
 H         -3.2937472963        0.7787886714       -1.3128414096
 H         -3.3066568613       -0.7735052437        1.0330821120
 H         -0.9274216164        0.9470379236       -1.5406775784
 H         -0.5168876895        1.1669816731        1.4577209699
 H         -3.6815733674       -1.6196633992       -1.3272019821
 H         -1.9088658048       -1.6245914711       -1.5562916944
 H         -4.3160252742        1.6150451904        0.5137466415
 H         -1.7691260912        3.0125675271        0.1374210681
 H         -3.2418575033       -3.1428442953        0.4114666573
  30
        -59.79304589
 O          0.1596430791       -0.1247118266       -1.7446106683
 O          4.6858559481       -0.6555330859       -0.6802621692
 O          1.7018230689        0.4996896404        2.4776783323
 N          0.8682245914        0.1159300623        0.3890269983
 N          3.1533110209       -0.0973523323        0.8689885291
 C          2.3773291770       -0.8496825616       -1.2936869961
 C          1.0471269221       -0.2537260474       -0.9325232991
 C          3.5217718089       -0.5277736597       -0.3807381016
 C          1.8884888109        0.1768754297        1.3266583095
 H          2.6280153544       -0.5860489589       -2.3242496055
 H          2.2497427787       -1.9400477787       -1.2887237947
 H          3.8984880511        0.0561206806        1.5455384259
 O         -1.2817945623       -0.7288939441        0.7136208817
 O         -3.5380557567        1.6881781879       -0.4684681314
 O         -1.5725139501        2.5191016755        1.0955529635
 O         -2.7255559151       -2.8429965219       -0.6572040277
 C         -2.3629132547        0.9533302787       -0.6173382371
 C         -2.4626918986       -0.4763039754       -0.0446306339
 C         -1.1576886935        1.5903578865        0.1319504503
 C         -0.4910616340        0.4123212554        0.8607431822
 C         -2.6319099300       -1.5304606993       -1.1450001827
 H         -2.1567456267        0.9136085922       -1.6884347969
 H         -3.3138785319       -0.5343294531        0.6495530726
 H         -0.4557280285        2.0468183260       -0.5728912383
 H         -0.3860413078        0.6598229265        1.9260503283
 H         -3.5191798215       -1.2633642298       -1.7339041328
 H         -1.7530404059       -1.5119958159       -1.7927330360
 H         -3.6783235512        1.8743921900        0.4757929292
 H         -1.8739757722        3.3282760150        0.6537695946
 H         -3.4841925202       -2.9154475483       -0.0601875633
  30
        -59.79297819
 O          0.2301611336        0.0833980320       -1.7633629289
 O          4.6604611587       -0.9697658747       -0.6124727978
 O          1.6825135028        0.2114066707        2.5380548272
 N          0.9193479340        0.1867719675        0.3893884254
 N          3.1532139808       -0.3132100380        0.9235435552
 C          2.5668629856       -0.1255366256       -1.4140613315
 C          1.1400204840        0.0348620173       -0.9687250987
 C          3.5621094978       -0.5279228000       -0.3694716113
 C          1.9034322381        0.0399901720        1.3601985787
 H          2.8909045353        0.8380107826       -1.8272751301
 H          2.6004729037       -0.8252707003       -2.2535290422
 H          3.8292610112       -0.5013989367        1.6616982100
 O         -1.1888598701       -0.8270837019        0.5051537599
 O         -3.4848618724        1.6966232438       -0.5552716701
 O         -1.8595364986        2.2267561978        1.4139427114
 O         -2.9764590103       -2.7445861633       -0.8766956301
 C         -2.2855847080        0.9919299943       -0.5814038745
 C         -2.4229213280       -0.4724605729       -0.1118275645
 C         -1.2053705985        1.5642446324        0.3677057762
 C         -0.4611680791        0.3095104562        0.8785689646
 C         -2.7298006352       -1.4206651441       -1.2719567802
 H         -1.9226058266        1.0081581356       -1.6118636993
 H         -3.2171527462       -0.5340436005        0.6472214161
 H         -0.5245891809        2.2317642668       -0.1678578200
 H         -0.3781832045        0.3485080368        1.9737966715
 H         -3.5832834141       -1.0069924409       -1.8244651844
 H         -1.8588607328       -1.4588396096       -1.9297974082
 H         -3.6152855460        2.0486228265        0.3430865128
 H         -1.2563894227        2.8163778436        1.8862788372
 H         -3.7499362980       -2.7711578211       -0.2950089837
  30
        -59.79295906
 O          0.3304672406       -1.4774604931       -1.1052844766
 O          4.8315901499       -0.4771544626       -0.4076843611
 O          1.6130083866        2.0356441598        1.4730067531
 N          0.9121556866        0.2333420086        0.2601033917
 N          3.1879470776        0.7392242200        0.5325322593
 C          2.6131486766       -1.3854512476       -0.4584977193
 C          1.1931179209       -0.8960426600       -0.4883349016
 C          3.6587422316       -0.3598343798       -0.1407537962
 C          1.8832304668        1.0587197570        0.8116080495
 H          2.8447871643       -1.8857750064       -1.4018031272
 H          2.6687035328       -2.1617498072        0.3152823449
 H          3.8736686362        1.4251096402        0.8420260970
 O         -1.1657320644       -0.4126354590        1.1430510484
 O         -3.4333159003        1.5607674428        0.1120763824
 O         -1.1985531430        2.3222306805       -1.1278586019
 O         -3.8057581131       -2.5312188108       -0.2273830209
 C         -2.6935746595        0.4999291245       -0.4318609713
 C         -2.4446742912       -0.6552179710        0.5445672896
 C         -1.2657594125        0.9716597194       -0.7990818528
 C         -0.4803275459        0.6221014155        0.4873834855
 C         -2.4913354753       -2.0516489072       -0.1042968520
 H         -3.2424668671        0.1846968702       -1.3204838736
 H         -3.1848492157       -0.6480362387        1.3549396466
 H         -0.8746212445        0.3942279909       -1.6401247653
 H         -0.4197702621        1.5076276612        1.1369898822
 H         -1.9665602332       -2.0467393054       -1.0641949301
 H         -1.9770828177       -2.7440345618        0.5656790839
 H         -3.1831223045        1.7118463108        1.0353898276
 H         -2.0127546315        2.7543307723       -0.8041224033
 H         -4.2810184918       -2.0349793099       -0.9082295419
  30
        -59.79285604
 O          1.7364230860        2.1719145744        1.3538969719
 O          4.4933047629       -1.2946784971       -0.1662172574
 O          0.0799829406       -1.3277284478       -1.0107654727
 N          0.8818510148        0.4911190738        0.0965286022
 N          2.2886112995       -1.2475002343       -0.6122755514
 C          3.3166669015        0.7380680618        0.3097554605
 C          1.9320404050        1.2014753544        0.6606834971
 C          3.4523636541       -0.6816809898       -0.1511929397
 C          1.0235857267       -0.7285494159       -0.5400282471
 H          3.9841767577        0.9248879472        1.1548896054
 H          3.6792449986        1.3848515807       -0.4994627453
 H          2.3490444125       -2.1899096146       -0.9934721052
 O         -1.1209589051        0.0143511558        1.1906398520
 O         -3.7281154309        0.6935215147       -1.0496892723
 O         -1.8002611014        2.4577613716       -1.0122252867
 O         -1.8437321374       -2.6407530164        0.7023716182
 C         -2.4837800380        0.1218110100       -0.7615338533
 C         -2.4414806971       -0.2423642401        0.7341511214
 C         -1.3289011334        1.1477324225       -0.9189634505
 C         -0.4822063553        0.9501860830        0.3628369383
 C         -2.8277158387       -1.6937965277        1.0369486216
 H         -2.2828880957       -0.7588152922       -1.3762591230
 H         -3.1467806659        0.4215258742        1.2561395838
 H         -0.7220299543        0.9433239099       -1.8068251648
 H         -0.3766045473        1.9143266897        0.8792486252
 H         -2.9954613343       -1.8069850589        2.1103289913
 H         -3.7652298106       -1.9071481600        0.5038509062
 H         -3.9237539286        0.6210927881       -1.9956210039
 H         -2.7627618626        2.4449200293       -0.8425560748
 H         -1.3510245517       -2.3483177259       -0.0808477172
  30
        -59.79284745
 O          1.7100733717        2.2030972867        1.3067771710
 O          4.5815593995       -1.1217288755       -0.4283639416
 O          0.1490967683       -1.2884323248       -1.1370631218
 N          0.8937276003        0.4517711106        0.1286272308
 N          2.3549464382       -1.1719452384       -0.7275932334
 C          3.2895085049        0.5392574695        0.7112367923
 C          1.9184859740        1.1497022003        0.7491078483
 C          3.4982920459       -0.6405117309       -0.1881462079
 C          1.0676499062       -0.7127023830       -0.5990103786
 H          3.5357414919        0.2308134574        1.7350413947
 H          4.0196956486        1.3186328878        0.4725578918
 H          2.4599755373       -2.0007170925       -1.3097848980
 O         -1.1681917850       -0.0268360069        1.1086143710
 O         -3.6492770384        0.7154745089       -1.2768184238
 O         -1.7369831406        2.5113854734       -0.9007607093
 O         -2.5671174612       -2.5041946068        1.7958913526
 C         -2.4199458952        0.1574662020       -0.9306973651
 C         -2.3952541239       -0.4204141276        0.4999826844
 C         -1.2611628261        1.1943299079       -0.9498463627
 C         -0.4804405334        0.9208517705        0.3453680253
 C         -2.5336396155       -1.9469107823        0.5084291243
 H         -2.2223052236       -0.6338906926       -1.6559030186
 H         -3.2114544366        0.0247681550        1.0883483794
 H         -0.6170555723        1.0438456102       -1.8216612785
 H         -0.3819309494        1.8589210055        0.9098635188
 H         -3.4378906922       -2.2063201664       -0.0574746132
 H         -1.6628365981       -2.3813824434        0.0133009458
 H         -3.7933455670        1.5175452073       -0.7457299317
 H         -2.0980560661        2.7569453556       -1.7667258436
 H         -3.3259199730       -2.1523145403        2.2836813193
  30
        -59.79278898
 O          0.2285987723        0.6173972905       -1.7775972886
 O          4.3505618858       -1.1942987680       -0.6760108996
 O          1.4287049379       -0.0721704493        2.5484339931
 N          0.6928282852        0.1685785552        0.4016199349
 N          2.8542291875       -0.6122873090        0.9015544575
 C          2.0904430271       -0.7926216627       -1.3737380644
 C          0.9305745490        0.0665793104       -0.9609062192
 C          3.2167344834       -0.8840410542       -0.3930814468
 C          1.6326457526       -0.1837957668        1.3601033146
 H          2.4543147930       -0.4756663294       -2.3528629484
 H          1.6763967538       -1.8020468607       -1.5051078844
 H          3.5613898691       -0.7411318942        1.6221360093
 O         -1.4890199743       -0.5453865715        0.9122707947
 O         -3.7261624775        1.5587702429       -0.3001721008
 O         -1.8400609686        2.5669001856        1.1972919936
 O         -0.8016661101       -2.2236220356       -0.9504070814
 C         -2.4752678229        1.0137866678       -0.5943327664
 C         -2.3677767994       -0.4809145088       -0.2093362711
 C         -1.3310921021        1.7078568827        0.2113889467
 C         -0.6289860773        0.5504228263        0.9353510298
 C         -1.8718964747       -1.4054029290       -1.3564704456
 H         -2.3275288288        1.1511041572       -1.6662721066
 H         -3.3364936724       -0.8382705927        0.1533309761
 H         -0.6439088829        2.2393804886       -0.4495024242
 H         -0.4591049493        0.8160575984        1.9849554323
 H         -2.7074031114       -2.0136144101       -1.7197647360
 H         -1.4878359382       -0.8118306304       -2.1877055569
 H         -3.8052344285        1.6623138646        0.6636880320
 H         -2.1856631773        3.3688408277        0.7760835785
 H         -1.0916031835       -2.7577036417       -0.1959857234
  30
        -59.79274620
 O          0.1841049773        0.1148937160       -1.7579934670
 O          4.5864540984       -1.0655552863       -0.6111162187
 O          1.6342372090        0.1658579709        2.5431341269
 N          0.8854047941        0.2213977694        0.3881942298
 N          3.0916210503       -0.3812878781        0.9243527883
 C          2.5141615735       -0.1747101339       -1.4153023583
 C          1.0969327901        0.0427557812       -0.9663856329
 C          3.4979549857       -0.5991367746       -0.3680581474
 C          1.8536118740        0.0141369566        1.3633253977
 H          2.8710366412        0.7712223535       -1.8419595544
 H          2.5207202100       -0.8863426340       -2.2454953747
 H          3.7586456127       -0.5982646747        1.6626440142
 O         -1.2295317371       -0.7429941154        0.6415188359
 O         -3.5895213169        1.6514486192       -0.3781399155
 O         -1.6558280016        2.4561464321        1.2456968833
 O         -2.6258746755       -2.8155256836       -0.8672456351
 C         -2.3838721492        0.9790737235       -0.5717300672
 C         -2.4223449428       -0.4890836892       -0.0968172857
 C         -1.2053301380        1.6146219361        0.2199145407
 C         -0.4891009780        0.4201923205        0.8687735323
 C         -2.5502603424       -1.4721027764       -1.2663527504
 H         -2.1764712141        1.0186030545       -1.6426698027
 H         -3.2681952850       -0.6299414536        0.5921790922
 H         -0.5269591493        2.1484152210       -0.4521135898
 H         -0.3998685110        0.5995790666        1.9491222343
 H         -3.4323423939       -1.1851358577       -1.8535740385
 H         -1.6600447943       -1.3933180318       -1.8936710026
 H         -3.7396129955        1.7690265033        0.5756139650
 H         -1.9671467149        3.2916334781        0.8647557441
 H         -3.4004312136       -2.9425899195       -0.3005002546
  30
        -59.79271786
 O          1.7989509244        2.3171163393        1.1848503106
 O          4.6210368715       -1.2169279872       -0.0247887180
 O          0.2243986772       -1.3675028626       -0.9536434648
 N          0.9753517900        0.5180459351        0.0806962874
 N          2.4248454336       -1.2306894226       -0.5168859036
 C          3.4078192314        0.8282377252        0.2753211847
 C          2.0127158885        1.2902112861        0.5819374044
 C          3.5714279857       -0.6199067104       -0.0748642580
 C          1.1455416350       -0.7321850856       -0.4963174424
 H          4.0648155742        1.0925996060        1.1078509167
 H          3.7662601338        1.4160479939       -0.5793886406
 H          2.5059297488       -2.1905764123       -0.8463523955
 O         -1.0113396921        0.0389673622        1.2308584878
 O         -3.6386121636        0.4766848734       -1.1061294282
 O         -1.9093925882        2.3802520825       -0.8875101761
 O         -3.5758690798       -2.4556235367        0.4525437778
 C         -2.3682493481        0.0313640685       -0.7477697059
 C         -2.2721273108       -0.3974501325        0.7325500793
 C         -1.2801595435        1.1277845572       -0.8904894187
 C         -0.3978134081        0.9547904856        0.3659573381
 C         -2.3752219308       -1.9151720095        0.9317281776
 H         -2.1316865049       -0.8235715333       -1.3861991935
 H         -3.0651633674        0.1114247269        1.3006346315
 H         -0.6946327099        0.9716487290       -1.7990547885
 H         -0.2896456645        1.9209861371        0.8786173533
 H         -1.5746546689       -2.3952784824        0.3639373336
 H         -2.2332413540       -2.1354011956        1.9980395534
 H         -3.6783793967        1.4377363473       -0.9511103216
 H         -1.3908163505        3.0372921306       -1.3706730435
 H         -4.3240573877       -2.0497860195        0.9133437584
  30
        -59.79269707
 O          1.4979415191        2.2402430684        1.1820855657
 O          4.6474767192       -0.9899986170        0.0273924865
 O          0.3165873468       -1.5549594329       -1.0302085819
 N          0.8553545234        0.3908593299        0.0354823090
 N          2.4733303266       -1.2199081367       -0.5085788859
 C          3.2411990783        0.9435754476        0.2258173741
 C          1.8086779869        1.2568186652        0.5502315175
 C          3.5491549572       -0.4937200035       -0.0658228732
 C          1.1548090509       -0.8331288625       -0.5394290544
 H          3.8834641113        1.3175465105        1.0264277471
 H          3.5033040709        1.5232399849       -0.6685191325
 H          2.6494931330       -2.1747240772       -0.8146465775
 O         -1.1622711547       -0.2587292593        1.0466616930
 O         -3.3421534465        1.7009185998       -0.0111027087
 O         -1.2881751519        2.1158584947       -1.6314824705
 O         -2.7414458808       -2.7906458972        1.2729191204
 C         -2.7882625766        0.5115936628       -0.5125332584
 C         -2.4939735695       -0.5206285150        0.5892570656
 C         -1.3828164010        0.8644244569       -1.0375397368
 C         -0.5494535045        0.7251960377        0.2566703612
 C         -2.6343250819       -1.9746968442        0.1269358800
 H         -3.4137394691        0.0909174169       -1.3055301756
 H         -3.1511520685       -0.3779016715        1.4551865176
 H         -1.0558196042        0.1259011295       -1.7723918699
 H         -0.5388631319        1.6871622961        0.7906910642
 H         -3.5420576977       -2.0680619416       -0.4841979131
 H         -1.7579506659       -2.2396502923       -0.4715792963
 H         -4.2742077209        1.5718084494        0.2122401206
 H         -1.8799390234        2.7257521510       -1.1563474099
 H         -2.6569737876       -3.7186190454        1.0140421940
  30
        -59.79265200
 O          0.3494219241       -1.0153262782       -1.5486455809
 O          4.8033209100       -0.7971380255       -0.1153720896
 O          1.5700698951        1.3895021829        2.1063462603
 N          0.9165796387        0.2724404393        0.2251608277
 N          3.1593018568        0.3290301179        0.9291685388
 C          2.6724708406       -0.6860652079       -1.2066470528
 C          1.2181205016       -0.5212713310       -0.8663385265
 C          3.6540049771       -0.4231859233       -0.1064366935
 C          1.8613127732        0.7139086687        1.1454486058
 H          2.8942121510        0.0181787977       -2.0188193241
 H          2.8328082153       -1.6814522042       -1.6287698605
 H          3.8129216038        0.5940474658        1.6637840345
 O         -1.1254030855       -0.6396799237        0.9616314692
 O         -3.4561125771        1.4599183662        0.5139263669
 O         -1.2818636971        2.5691606348       -0.5600176256
 O         -3.7390701090       -2.4109662388       -0.8806821918
 C         -2.7159862698        0.5906131680       -0.3014745781
 C         -2.4115920626       -0.7657255008        0.3441016184
 C         -1.3102211504        1.1777292613       -0.5766901523
 C         -0.4813210712        0.5451037802        0.5643728225
 C         -2.4339747720       -1.9507864025       -0.6397489650
 H         -3.2895421309        0.4951091045       -1.2245724079
 H         -3.1310334979       -0.9891700569        1.1421397951
 H         -0.9371734383        0.8394734443       -1.5458411031
 H         -0.4288240709        1.2461218250        1.4104860940
 H         -1.9153897518       -1.6892914812       -1.5667825518
 H         -1.9008386473       -2.7798011158       -0.1692175900
 H         -3.1762616340        1.3808850257        1.4376941337
 H         -2.0939075487        2.8842520267       -0.1179493888
 H         -4.2266987530       -1.7683375865       -1.4145833426
  30
        -59.79262731
 O          1.7971997919        2.3693599152        1.0842928082
 O          4.6779834837       -1.0328473110       -0.4087271431
 O          0.2234364564       -1.4174633807       -0.8596018903
 N          0.9674753641        0.4687845877        0.1778077699
 N          2.4416974451       -1.1891744689       -0.5856109687
 C          3.3691651887        0.6333003651        0.7075764409
 C          2.0013361930        1.2484881556        0.6765278590
 C          3.5885461146       -0.5825289690       -0.1406465558
 C          1.1451931723       -0.7616197155       -0.4325824178
 H          3.5714291741        0.3515195085        1.7489765208
 H          4.1144452284        1.3971163833        0.4684724063
 H          2.5491573091       -2.0538408159       -1.1125265258
 O         -1.0715780000        0.0809296676        1.2599414644
 O         -3.5939543861        0.4603580605       -1.1966140138
 O         -1.8587211806        2.3538475661       -0.9556714508
 O         -3.6186663937       -2.4304071901        0.4736078709
 C         -2.3435650619        0.0147519930       -0.7740774051
 C         -2.3102432749       -0.3708099346        0.7208324507
 C         -1.2398865221        1.0973942337       -0.9049209219
 C         -0.4056457349        0.9493153359        0.3864395020
 C         -2.4251865387       -1.8817979433        0.9618800677
 H         -2.0904664480       -0.8600963234       -1.3781707135
 H         -3.1251608097        0.1551216331        1.2400782025
 H         -0.6236092373        0.9150693801       -1.7882009935
 H         -0.2926122702        1.9315318650        0.8668592263
 H         -1.6152996563       -2.3827340784        0.4264963439
 H         -2.3074159640       -2.0699405744        2.0371485122
 H         -3.6328127906        1.4250329431       -1.0659813280
 H         -1.3170561449        2.9959016887       -1.4334252964
 H         -4.3738864340       -2.0145786413        0.9136761221
  30
        -59.79258074
 O          0.2826093556       -0.5539945494       -1.8073021627
 O          4.6771966538       -0.9391904516       -0.2181839197
 O          1.4693410463        0.8880795785        2.3375508657
 N          0.8344059518        0.2447597358        0.2403300533
 N          3.0479148158        0.0194732810        1.0009769911
 C          2.5982899713       -0.4793274858       -1.3176800135
 C          1.1417219715       -0.2945196969       -0.9953271800
 C          3.5464955266       -0.5150033537       -0.1596211617
 C          1.7618212246        0.4204583476        1.2603921945
 H          2.8938115937        0.3592396024       -1.9610983165
 H          2.7174412576       -1.3756104618       -1.9321348556
 H          3.6832538646        0.0808356958        1.7942610570
 O         -1.2500114330       -0.7291970278        0.6932844498
 O         -3.3821463419        1.5573576378        0.7959810730
 O         -1.2145927102        2.7482061629       -0.1145425831
 O         -2.4961097532       -2.9244807072       -0.7868541200
 C         -2.7714801030        0.8442553397       -0.2494409175
 C         -2.5485927970       -0.6383280638        0.0990196331
 C         -1.3356480709        1.3925059973       -0.3923457930
 C         -0.5639137800        0.4901099870        0.5974995646
 C         -2.6623071250       -1.5700659104       -1.1178447909
 H         -3.3276124311        0.9566189611       -1.1841527848
 H         -3.2575900974       -0.9571385286        0.8736841786
 H         -0.9734247589        1.2358422749       -1.4095598240
 H         -0.5313596072        0.9786089630        1.5825865776
 H         -3.6364937539       -1.4069572232       -1.5976668325
 H         -1.8644909069       -1.3397157966       -1.8258985586
 H         -4.3414421466        1.4377501908        0.7746439100
 H         -1.8422293375        2.9722520104        0.5956661596
 H         -3.1594896951       -3.1865428333       -0.1316342377
  30
        -59.79253887
 O          1.7342346537        2.2512626559        1.2387510801
 O          4.5416478971       -1.1253498469       -0.4857319700
 O          0.0807381812       -1.3658260339       -0.9455954369
 N          0.8757695653        0.4443951030        0.1794135250
 N          2.3026550364       -1.2142519373       -0.6622159905
 C          3.2868809145        0.5473034593        0.6797811882
 C          1.9223703355        1.1711470431        0.7288608263
 C          3.4671025769       -0.6508658093       -0.2011464692
 C          1.0245441002       -0.7550211252       -0.4892752863
 H          3.5438207483        0.2502972702        1.7047149055
 H          4.0214193401        1.3148305197        0.4182461054
 H          2.3872053279       -2.0668237335       -1.2130902212
 O         -1.1661250387        0.0289330456        1.2116766525
 O         -3.6915735537        0.6896457816       -1.1242680913
 O         -1.7529060025        2.4395934690       -1.0416027511
 O         -1.8910987618       -2.6290415767        0.7520707504
 C         -2.4621815052        0.1127105518       -0.7866571108
 C         -2.4723756985       -0.2264663126        0.7152757928
 C         -1.2944416154        1.1271681687       -0.9221032229
 C         -0.4873844748        0.9375504972        0.3857523725
 C         -2.8807223127       -1.6695425022        1.0292017326
 H         -2.2485382535       -0.7792867739       -1.3802513791
 H         -3.1893967450        0.4518977129        1.2015829976
 H         -0.6645893891        0.9093525184       -1.7909571696
 H         -0.3789180713        1.9103009410        0.8854787102
 H         -3.0930584714       -1.7612658931        2.0967964592
 H         -3.7974882919       -1.8870377928        0.4626636982
 H         -3.8576798324        0.6019580731       -2.0743387021
 H         -2.7214539615        2.4336478245       -0.9089666018
 H         -1.3569767097       -2.3484993644       -0.0081458357
  30
        -59.79253787
 O          0.1901761428       -0.5422475409       -1.6098593018
 O          4.6962827749       -1.0758172612       -0.4183651851
 O          1.8258764097        1.0305994152        2.3232907559
 N          0.9708351941        0.2965681245        0.3396345035
 N          3.2365891877        0.0188191272        0.8980480344
 C          2.5488562440       -0.5561928804       -1.3461703400
 C          1.1373110795       -0.2966624436       -0.8995701717
 C          3.5976041104       -0.5927732604       -0.2768889873
 C          1.9990004529        0.4858101542        1.2566325456
 H          2.8211129576        0.2411040802       -2.0493301349
 H          2.5744173117       -1.4795135698       -1.9308351371
 H          3.9475924327        0.0851954615        1.6239238286
 O         -1.0770183831       -0.6522459088        0.9792092941
 O         -3.5873943704        1.2217749486       -0.6738751074
 O         -1.8081653952        2.5215383098        0.6647151796
 O         -3.6774210031       -2.0641710496       -1.1797801941
 C         -2.3479991327        0.5865581006       -0.6369515836
 C         -2.3259836830       -0.6455262274        0.2939335216
 C         -1.2187142380        1.4933419591       -0.0823355111
 C         -0.3911208867        0.5596934740        0.8275550892
 C         -2.4799087870       -1.9744327018       -0.4575619523
 H         -2.1159912722        0.2709703219       -1.6573846317
 H         -3.1284684463       -0.5405362709        1.0391690540
 H         -0.6058621678        1.8878074216       -0.8962320221
 H         -0.2598132067        1.0266220934        1.8135608113
 H         -1.6733920740       -2.0562663588       -1.1900017446
 H         -2.3844329940       -2.7950891262        0.2655890306
 H         -3.6043282913        1.8987932855        0.0262424904
 H         -1.2261321798        3.2904582100        0.7236698699
 H         -4.4302982900       -1.9841866983       -0.5767642883
  30
        -59.79253170
 O          0.4033133172       -1.6434023921        1.1149169866
 O          4.7716213883       -0.6202309068       -0.1377539768
 O          1.2740897265        1.7941970828       -1.6195745962
 N          0.8453256698        0.3089511533        0.0390810200
 N          3.0091371173        0.6024644643       -0.8168419236
 C          2.6855696674       -0.9845824098        0.9853383381
 C          1.2141498502       -0.8368779499        0.7264385445
 C          3.6009975153       -0.3499913760       -0.0197078225
 C          1.6917369283        0.9642380670       -0.8375852178
 H          2.9338749144       -2.0420854386        1.1046686418
 H          2.8878663995       -0.5152877225        1.9568672359
 H          3.6000492940        1.0627554918       -1.5070097942
 O         -1.1298984803        0.5185083756        1.2808062281
 O         -3.4978733106        1.4087536893       -0.7008310319
 O         -1.4405615129        0.8618228795       -2.2548710571
 O         -2.3783261864       -2.2547344473        1.0350227675
 C         -2.8260740436        0.2219392189       -0.3834750125
 C         -2.5195067615        0.1970253888        1.1209955794
 C         -1.4296964248        0.1651048259       -1.0419978343
 C         -0.5426620310        0.7917517645        0.0477617243
 C         -2.8366234467       -1.1542344257        1.7781746933
 H         -3.4281056404       -0.6496542487       -0.6699312335
 H         -3.1002200777        0.9838242493        1.6157796940
 H         -1.1360998401       -0.8835826668       -1.1948787646
 H         -0.4799657631        1.8809330265       -0.1157124312
 H         -2.4072679885       -1.1532911758        2.7858116034
 H         -3.9209018595       -1.2611790955        1.8448770554
 H         -3.3452529910        1.5952494093       -1.6430927974
 H         -0.5867560346        1.2999839438       -2.4060580039
 H         -1.4064323331       -2.2685875634        1.0788802216
  30
        -59.79248382
 O          1.6210848595        2.0106920124        1.3809994186
 O          4.0482790320       -1.7636482407        0.2109513612
 O         -0.0401263439       -1.0794416863       -1.5187079703
 N          0.7372226273        0.5259660057       -0.0873762106
 N          2.0146646493       -1.3605241194       -0.6708024288
 C          3.1388303867        0.4455098837        0.4453344757
 C          1.7835786985        1.0597444792        0.6506148463
 C          3.1356399361       -0.9927856781        0.0231214501
 C          0.8387481583       -0.6603257502       -0.8004887186
 H          3.7370439650        0.5804993772        1.3488816661
 H          3.6398506151        1.0178972622       -0.3450423369
 H          1.9952283229       -2.2981210002       -1.0651544899
 O         -1.2605493722        0.5198880893        1.1812111508
 O         -3.8823148198        0.6001671417       -0.7326093869
 O         -2.1139627748        2.4454696892       -1.2186878228
 O         -0.4221484354       -1.9170389119        1.3551206453
 C         -2.5806657792        0.0795557150       -0.7514762435
 C         -2.2263599951       -0.3950920498        0.6712079796
 C         -1.5287403019        1.1864240199       -1.0738160855
 C         -0.5802071841        1.1542887969        0.1424363750
 C         -1.6950870127       -1.8548244187        0.7572879206
 H         -2.4920032668       -0.7421293751       -1.4661068207
 H         -3.1103010245       -0.2830988908        1.3068036628
 H         -0.9942842641        0.9841841689       -2.0017717523
 H         -0.3503292754        2.1732991604        0.4744646250
 H         -2.4089707969       -2.4727669637        1.3119933655
 H         -1.5686179550       -2.2750720980       -0.2415122309
 H         -4.1915945614        0.7448595748       -1.6390008130
 H         -2.8764950489        2.5092557951       -0.6165223387
 H         -0.4893805924       -1.5636024458        2.2545378024
  30
        -59.79245959
 O          0.0520967497       -0.5356216710       -1.6088159725
 O          4.6383727048       -0.7653425304       -0.6973727251
 O          1.7725057523        0.9245712647        2.3280800988
 N          0.8578672981        0.1414795405        0.3899611373
 N          3.1649273908        0.0487694181        0.7954801874
 C          2.3100367966       -1.1054573666       -1.1498266830
 C          0.9844056375       -0.4790452857       -0.8364235704
 C          3.4865946586       -0.6014497326       -0.3700008161
 C          1.9174007939        0.3929154288        1.2515547062
 H          2.5061281701       -1.0330507055       -2.2226086956
 H          2.2106372094       -2.1788071123       -0.9401544426
 H          3.9364398159        0.3372339955        1.3939245086
 O         -1.2649375391       -0.6297070536        0.9441050637
 O         -3.5884327516        1.4983939448       -0.5793700564
 O         -1.5737506839        2.6845457815        0.5968589691
 O         -2.0493007629       -2.4121268733       -1.0588614004
 C         -2.4122206100        0.7422149933       -0.6352190884
 C         -2.5398122884       -0.4375070389        0.3460154307
 C         -1.1908505764        1.5352546568       -0.0961309107
 C         -0.4814256441        0.5280069794        0.8428743716
 C         -3.0212627229       -1.7450537053       -0.2957926855
 H         -2.2037188605        0.3832094562       -1.6459976704
 H         -3.2661769220       -0.1452626817        1.1190132790
 H         -0.5144453223        1.8399777188       -0.9011361957
 H         -0.3430990280        0.9891425034        1.8302513957
 H         -3.3057919964       -2.4476776738        0.4899286891
 H         -3.9057510524       -1.5111670978       -0.9051162546
 H         -3.6826221941        2.0366127660       -1.3790566254
 H         -2.5444100464        2.6654747143        0.7070473389
 H         -1.5430618150       -1.7747196094       -1.5866492382
  30
        -59.79245355
 O          1.5408322995        2.1795782311        1.2326997306
 O          4.5528647951       -1.1612030061        0.0712386268
 O          0.2420588369       -1.4636116346       -1.1626434446
 N          0.8363320933        0.4153317268       -0.0088441375
 N          2.3896437723       -1.2625960865       -0.5468332471
 C          3.2416120549        0.8395231331        0.2609385225
 C          1.8190509204        1.2093473485        0.5659248605
 C          3.4860484447       -0.6062634736       -0.0499122560
 C          1.0954451247       -0.8052292895       -0.6136553309
 H          3.8853259648        1.1697317786        1.0792519707
 H          3.5448525487        1.4198783842       -0.6197085833
 H          2.5227298694       -2.2184377928       -0.8708153468
 O         -1.1771026123       -0.0826981115        1.1027678651
 O         -3.5667612882        1.5930544458       -0.1357105244
 O         -1.4293307330        2.2005190278       -1.5966207286
 O         -2.1564928092       -2.8127179932        1.2789612373
 C         -2.8133953210        0.4765365038       -0.5255780672
 C         -2.4718267206       -0.4725753938        0.6289880119
 C         -1.4258534479        0.9176854804       -1.0539748011
 C         -0.5539702449        0.8135205998        0.2190710096
 C         -2.5009419602       -1.9548521870        0.2218319129
 H         -3.3958298029       -0.0174138020       -1.3043112829
 H         -3.1608584837       -0.3239029145        1.4701337710
 H         -1.0679721345        0.2205847857       -1.8144564581
 H         -0.4754698937        1.8043963649        0.6914393842
 H         -3.5021369097       -2.1895106774       -0.1614971939
 H         -1.7610156087       -2.1364483163       -0.5588562467
 H         -3.2477276470        1.9396979572        0.7112359639
 H         -2.2607817695        2.6399748455       -1.3317627036
 H         -2.7844485417       -2.7013141409        2.0076256608
  30
        -59.79243439
 O          1.7641315185        2.2763364849        1.2647241783
 O          4.6321610367       -1.1662980353       -0.0565197935
 O          0.2312791434       -1.3795244346       -0.9497579584
 N          0.9637136074        0.5144704255        0.0831697833
 N          2.4320598685       -1.2126097967       -0.5261756545
 C          3.3884908103        0.8575274576        0.2697028473
 C          1.9894345038        1.2846624970        0.6111527624
 C          3.5730723770       -0.5851620485       -0.0927836050
 C          1.1469289367       -0.7296546423       -0.4988161364
 H          4.0599656998        1.1324046236        1.0868485711
 H          3.7081475767        1.4567085087       -0.5924702169
 H          2.5261497865       -2.1693996773       -0.8613975749
 O         -1.0267205501        0.0429889171        1.2213520569
 O         -3.6690947114        0.6036406655       -1.0188371504
 O         -1.7251011775        2.3821026338       -1.0286515773
 O         -3.6302658924       -2.3851278719        0.5975529782
 C         -2.4248862484        0.0440475488       -0.7322467792
 C         -2.2693600441       -0.4402624993        0.7223694397
 C         -1.2652974606        1.0632420782       -0.9335682494
 C         -0.4154721555        0.9430565546        0.3389758943
 C         -2.3155731933       -1.9630795145        0.8672440145
 H         -2.3078874665       -0.7940217966       -1.4214849198
 H         -3.0776784261       -0.0180392787        1.3364152562
 H         -0.6715632977        0.8021238569       -1.8176343958
 H         -0.3314698743        1.9313102519        0.8121244127
 H         -1.5954697636       -2.4069695700        0.1699580033
 H         -2.0210959975       -2.2118509595        1.8953095853
 H         -3.8695636048        1.3033532220       -0.3771267789
 H         -2.3653034742        2.4358825246       -1.7576125138
 H         -3.6689012565       -3.3511586126        0.6311617484
  30
        -59.79241300
 O          0.2270826899       -0.1584708046       -1.7465521923
 O          4.7628279632       -0.4350392383       -0.6640248956
 O          1.6934719600        0.4138148848        2.5120689825
 N          0.9028762339        0.0571792347        0.4017753750
 N          3.1920329098       -0.0339943992        0.8969035882
 C          2.4746646114       -0.7820675306       -1.2864331246
 C          1.1115273588       -0.2629333705       -0.9274764508
 C          3.5926078515       -0.3998929706       -0.3632076934
 C          1.9087774684        0.1469090618        1.3519689803
 H          2.7163352021       -0.4976984103       -2.3133974987
 H          2.4106035334       -1.8778253075       -1.2844782263
 H          3.9215138168        0.1524815831        1.5821656274
 O         -1.2400387839       -0.8314478081        0.5617073839
 O         -3.4881583504        1.6491693185       -0.4339565710
 O         -1.5614796590        2.4598013211        1.1387590326
 O         -3.1872175466       -2.7063673967       -0.5598461360
 C         -2.2980213964        0.9431926407       -0.6374007256
 C         -2.4590532351       -0.4809542992       -0.0806668085
 C         -1.1247503377        1.5384748862        0.1868463779
 C         -0.4715429427        0.3019620027        0.8511584797
 C         -2.7872986973       -1.5011030483       -1.1676046209
 H         -2.0200085944        0.8949256171       -1.6935566123
 H         -3.2667242446       -0.4884498444        0.6647297995
 H         -0.3964423975        2.0452127728       -0.4541700343
 H         -0.4067410524        0.4614187836        1.9362319994
 H         -3.6010854186       -1.0905867324       -1.7793159295
 H         -1.8920723001       -1.6405335533       -1.7855365727
 H         -3.5292289010        2.4170248861       -1.0231640870
 H         -2.5312262100        2.3776644004        1.2197357112
 H         -3.3342059711       -3.3742992656       -1.2443878842
  30
        -59.79236825
 O          1.5474051401        2.3472650098        1.0361325959
 O          4.7365774993       -0.9210965196        0.1180674039
 O          0.4032205086       -1.6389528333       -0.8302424292
 N          0.9243219149        0.4060498428        0.0386771461
 N          2.5621349459       -1.2242476223       -0.3787312325
 C          3.3041153952        1.0021952887        0.1761738236
 C          1.8691922986        1.3222231849        0.4826037561
 C          3.6308099612       -0.4492631395       -0.0040186548
 C          1.2376334146       -0.8641163580       -0.4205721179
 H          3.9438228298        1.4448478807        0.9432362206
 H          3.5580988701        1.5152511864       -0.7602174380
 H          2.7500622876       -2.1993011822       -0.6039652920
 O         -1.0346785669       -0.1667995021        1.1938425219
 O         -3.4470212986        1.4720584210       -0.0271350067
 O         -1.3524984194        1.9644720881       -1.5949549934
 O         -3.7696231120       -2.3620319162        0.2256960651
 C         -2.7359581755        0.3240073035       -0.4072983947
 C         -2.3659349918       -0.5257523572        0.8171273367
 C         -1.3588855380        0.6982770575       -1.0008007490
 C         -0.4829424174        0.7286984401        0.2643218367
 C         -2.4382681631       -2.0311449664        0.5427361956
 H         -3.3494434261       -0.2633595966       -1.1004423314
 H         -3.0376241610       -0.2732798992        1.6451197027
 H         -1.0129397239       -0.0832724879       -1.6806856268
 H         -0.4848900277        1.7517543795        0.6696083019
 H         -1.7575796281       -2.2766735282       -0.2809974854
 H         -2.1001831591       -2.5513839986        1.4467243333
 H         -3.0156850482        2.2446771427       -0.4373285463
 H         -1.6711564282        1.9052368238       -2.5081713500
 H         -3.8367959116       -3.3194464491        0.1000042470
  30
        -59.79233814
 O          0.3809865373       -1.0569865707       -1.5374540915
 O          4.7885021160       -0.8777845483        0.0293199748
 O          1.5654533935        1.5682469809        1.9790770199
 N          0.9301653366        0.3346334581        0.1648454303
 N          3.1549430577        0.3801929525        0.9309182463
 C          2.7001794253       -0.7695148135       -1.1421145761
 C          1.2413911512       -0.5438351386       -0.8590811525
 C          3.6543590947       -0.4644676630       -0.0285628361
 C          1.8623866656        0.8119293308        1.0832441251
 H          2.9715425565       -0.1309721024       -1.9924283253
 H          2.8409067739       -1.7959265953       -1.4905965398
 H          3.7928807211        0.6727974542        1.6687414394
 O         -1.0459176303       -0.6283873535        0.9501138508
 O         -3.4484657190        1.3585785858        0.5863202961
 O         -1.4449881711        2.5070730366       -0.6760100850
 O         -3.7456262189       -2.2108402682       -0.9818970231
 C         -2.7338107962        0.5180158791       -0.2786921212
 C         -2.3758644678       -0.7798100423        0.4517997816
 C         -1.3578215338        1.1125068325       -0.6492584064
 C         -0.4757872116        0.5758906204        0.5012535749
 C         -2.4592670556       -2.0175931008       -0.4567098056
 H         -3.3298012469        0.3028897798       -1.1756249134
 H         -3.0403985944       -0.8951060415        1.3167020789
 H         -1.0323781205        0.6978588811       -1.6055201067
 H         -0.4677150252        1.3176485896        1.3138444578
 H         -1.7913218075       -1.8849569923       -1.3100894321
 H         -2.1195638589       -2.8889096048        0.1152032997
 H         -3.3210514265        2.2758404372        0.2924079463
 H         -0.7462563153        2.8942612499       -1.2190870434
 H         -4.3621766076       -2.4217989117       -0.2660858351
  30
        -59.79224766
 O          0.0698837838       -0.3343039708       -1.6684922263
 O          4.6022624003       -1.0495579877       -0.5662211471
 O          1.7150642617        0.6010010984        2.4542469989
 N          0.8703706546        0.2026401855        0.3723569959
 N          3.1264304093       -0.1833871203        0.8919386844
 C          2.4130777675       -0.5518606441       -1.3946353263
 C          1.0233966443       -0.2402056445       -0.9244765499
 C          3.4858943723       -0.6378050777       -0.3522126169
 C          1.8906883644        0.2318816824        1.3163284434
 H          2.7028439105        0.2224312748       -2.1158076496
 H          2.3887374011       -1.4797262601       -1.9747366311
 H          3.8456156984       -0.1967895955        1.6129366224
 O         -1.2283540072       -0.6888279311        0.8517030722
 O         -3.6232868300        1.5032156465       -0.4623388708
 O         -1.6307130061        2.6370882381        0.7952732691
 O         -2.0074281443       -2.3090386957       -1.2836353058
 C         -2.4296040557        0.7839128389       -0.5885130885
 C         -2.5174126055       -0.4754084536        0.2934246043
 C         -1.2238120493        1.5608804280        0.0055635279
 C         -0.4819022431        0.4988309936        0.8538354898
 C         -2.9817536399       -1.7320890418       -0.4514384050
 H         -2.2211606676        0.5128369573       -1.6263184347
 H         -3.2359666710       -0.2640491121        1.0994613850
 H         -0.5637904743        1.9496235917       -0.7764342590
 H         -0.3607331230        0.8770856678        1.8780729441
 H         -3.2454385205       -2.5052822923        0.2733601409
 H         -3.8772301335       -1.4643554976       -1.0303993113
 H         -3.7455974850        2.0915358241       -1.2219482529
 H         -2.6023596188        2.5931546611        0.8909428206
 H         -1.4627954226       -1.6164757049       -1.6902506670
  30
        -59.79224539
 O          0.2567528491       -0.7036793009       -1.7543728398
 O          4.7136097215       -0.6422835934       -0.4238839063
 O          1.5376556015        1.1871534924        2.1760813977
 N          0.8119543209        0.1666415168        0.2662924138
 N          3.0863728395        0.2461090966        0.8524128981
 C          2.4442807943       -1.1840306552       -0.9789715372
 C          1.0827452977       -0.5564799735       -0.8831063027
 C          3.5332283370       -0.5153707442       -0.1974823401
 C          1.7892278933        0.5594570329        1.1719262357
 H          2.7286587903       -1.2748507220       -2.0298789381
 H          2.3485432163       -2.2104562592       -0.6019199958
 H          3.7894785824        0.6533590492        1.4658068045
 O         -1.3189948515       -0.6166676567        0.8582029733
 O         -3.4988505089        1.6432446085        0.5384178990
 O         -1.2076036756        2.7444398806       -0.2443477009
 O         -2.3781404025       -2.9469527053       -0.5085797923
 C         -2.7575736391        0.8399427038       -0.3399117847
 C         -2.5669155711       -0.5982901088        0.1549717162
 C         -1.3087810796        1.3731432187       -0.4683625165
 C         -0.5650588887        0.5392203093        0.6026014675
 C         -2.5954821730       -1.6402524235       -0.9751397078
 H         -3.2821061648        0.8808638703       -1.2952598447
 H         -3.3346465988       -0.8592592082        0.8941924489
 H         -0.9092677263        1.1570546106       -1.4611044639
 H         -0.4713923540        1.1302036698        1.5257601947
 H         -3.5598254178       -1.5640657314       -1.4931398911
 H         -1.7887890104       -1.4412944581       -1.6821619555
 H         -3.2419424617        1.4669675843        1.4561293300
 H         -2.0391398767        3.0471176269        0.1695499353
 H         -3.0702981140       -3.1884782977        0.1242353214
  30
        -59.79222058
 O          0.2610801922        0.1716287363       -1.7578795319
 O          4.6556031048       -0.9511448876       -0.6125743370
 O          1.6281413286        0.0043034992        2.5685183557
 N          0.9186951167        0.1913846778        0.4074052298
 N          3.1291856103       -0.3934079654        0.9452079657
 C          2.5991869953        0.0122079459       -1.3763021627
 C          1.1611498953        0.1095907702       -0.9511894467
 C          3.5629710187       -0.5048539523       -0.3518377503
 C          1.8736365920       -0.0562714422        1.3858353464
 H          2.9253014575        1.0236716185       -1.6499829313
 H          2.6671790908       -0.5793821849       -2.2925704999
 H          3.7828934372       -0.6602754510        1.6790772829
 O         -1.1770724237       -0.8248208456        0.4761595880
 O         -3.5467494464        1.6088347391       -0.3519275631
 O         -1.6880698364        2.3744795066        1.3269006221
 O         -3.0452184390       -2.6957782125       -0.7971215734
 C         -2.3183702847        0.9829686074       -0.5866797195
 C         -2.4106076472       -0.4866065871       -0.1439137862
 C         -1.1890639500        1.5708523825        0.3010905639
 C         -0.4699005313        0.3217899987        0.8628230269
 C         -2.6855338125       -1.4342182898       -1.3083718457
 H         -2.0225795889        1.0294616080       -1.6380586780
 H         -3.2191876554       -0.5928385200        0.5930069619
 H         -0.4896562476        2.1772535671       -0.2823472151
 H         -0.4185330137        0.3937654363        1.9578643109
 H         -3.5076516492       -1.0111723881       -1.9000917261
 H         -1.7779828196       -1.4935285755       -1.9212990704
 H         -3.6183672954        2.4184713264       -0.8793657267
 H         -2.6526386841        2.2349005710        1.3841376665
 H         -3.1630772147       -3.3148281068       -1.5314288331
  30
        -59.79217310
 O          0.1793782379       -0.8433526757       -1.4790399608
 O          4.7756488375       -0.6413992904       -0.5996820347
 O          1.8216067425        1.3665161745        2.1307520046
 N          0.9485933673        0.2123199078        0.3665111410
 N          3.2590329602        0.3233096348        0.7535402872
 C          2.4713529691       -1.1897966300       -0.9601814669
 C          1.1073347223       -0.6000199571       -0.7414893945
 C          3.6167052533       -0.4922618715       -0.2903718538
 C          1.9933598509        0.6680086741        1.1582654614
 H          2.6598804039       -1.2816469099       -2.0329102207
 H          2.4429465615       -2.2175257590       -0.5759135238
 H          4.0130898755        0.7537980547        1.2853970561
 O         -1.1400932028       -0.5448864475        1.0881911712
 O         -3.5804942838        1.2485272239       -0.6702428240
 O         -1.5333189756        2.6320813154        0.2419234973
 O         -3.7955624845       -2.1536110131       -0.7677657638
 C         -2.3942045622        0.5161194377       -0.6662599395
 C         -2.3635595491       -0.6297523233        0.3639464820
 C         -1.1627461735        1.3999327522       -0.3097392414
 C         -0.4091350942        0.6036572869        0.7652185139
 C         -2.4879004560       -2.0194713594       -0.2658065608
 H         -2.2875938902        0.1165102156       -1.6762460096
 H         -3.1937178748       -0.5053623761        1.0734615079
 H         -0.5275437406        1.5525564397       -1.1903968084
 H         -0.2854779781        1.2320815973        1.6577858342
 H         -1.7375588862       -2.1173842493       -1.0587407771
 H         -2.2850630269       -2.7626102809        0.5166016989
 H         -3.7669479600        1.5755260105        0.2241774457
 H         -2.1004437510        3.0997489278       -0.3930269000
 H         -3.8747005631       -2.9995203170       -1.2304506477
  30
        -59.79213645
 O          0.3325855892       -0.6660629972       -1.7770120509
 O          4.7183455812       -0.8606129766       -0.1628723219
 O          1.4571298739        1.0061477169        2.2981414370
 N          0.8495210784        0.2461937685        0.2319752638
 N          3.0646879569        0.1169166032        1.0094296153
 C          2.6432395725       -0.4619199632       -1.2942790320
 C          1.1793117390       -0.3314092335       -0.9790835161
 C          3.5820277498       -0.4497928784       -0.1275714685
 C          1.7677125757        0.4972475615        1.2454590211
 H          2.9087331436        0.3868893518       -1.9375252063
 H          2.8036978513       -1.3557510340       -1.9022052013
 H          3.6925165462        0.2212070400        1.8042064523
 O         -1.2244601291       -0.7679249361        0.6575240267
 O         -3.3024209533        1.5216030598        0.8616794394
 O         -1.1868461526        2.7050187695       -0.2200725405
 O         -2.8946437651       -2.9081676983       -0.6711848774
 C         -2.7659685884        0.8117822086       -0.2253607387
 C         -2.5349934441       -0.6760690790        0.0878673995
 C         -1.3339944202        1.3413097215       -0.4358534402
 C         -0.5565670073        0.4637981851        0.5703501620
 C         -2.6681487976       -1.5940351728       -1.1324662920
 H         -3.3765563910        0.9485189789       -1.1228506190
 H         -3.2302768953       -1.0355922552        0.8553502241
 H         -1.0013706005        1.1341318220       -1.4547166792
 H         -0.5496765826        0.9596844612        1.5523375873
 H         -3.5199605316       -1.2596025745       -1.7394997929
 H         -1.7490858189       -1.5308758682       -1.7221611972
 H         -4.2440444795        1.3247952855        0.9617396730
 H         -1.7726778633        2.9641736201        0.5127268214
 H         -2.8246613514       -3.5241199014       -1.4136864525
  30
        -59.79212515
 O          0.2038727422       -0.4888266151       -1.6435786935
 O          4.7014334707       -1.0266729984       -0.4103482833
 O          1.7639368081        0.9079468005        2.3846317764
 N          0.9538376642        0.2921811663        0.3411301961
 N          3.2074382981       -0.0107319361        0.9302914886
 C          2.5580008064       -0.5080948827       -1.3449918699
 C          1.1406198640       -0.2621660676       -0.9112333562
 C          3.5935499463       -0.5659081544       -0.2635536445
 C          1.9599237419        0.4325821210        1.2900520477
 H          2.8362495932        0.3069159953       -2.0251464084
 H          2.5963503680       -1.4172994037       -1.9509417437
 H          3.9060682865        0.0306285169        1.6699883793
 O         -1.0967646133       -0.6451593652        0.9722335597
 O         -3.6391161346        1.2804088726       -0.4361362142
 O         -1.6071378385        2.6069938406        0.5708284372
 O         -3.6783610387       -2.0930314689       -1.1085846409
 C         -2.4301490374        0.6030735436       -0.5915367085
 C         -2.3200920867       -0.6874979838        0.2441564329
 C         -1.2155932073        1.4702498211       -0.1465444819
 C         -0.4147267350        0.5655767905        0.7992956789
 C         -2.3732887637       -1.9650931385       -0.5979587245
 H         -2.3554854352        0.3690732772       -1.6549325124
 H         -3.1478086831       -0.7274979016        0.9658182656
 H         -0.6092409060        1.7587902413       -1.0128770610
 H         -0.3040807728        1.0706187897        1.7686205545
 H         -1.6298935174       -1.8940289114       -1.4000373898
 H         -2.1181018414       -2.8095354529        0.0558430806
 H         -3.7900762046        1.4706233195        0.5035560771
 H         -2.2198484751        3.1250820581        0.0231240388
 H         -3.7181753429       -2.8620499789       -1.6941343505
  30
        -59.79210019
 O          0.4102115548        0.9414763662       -1.6773151297
 O          4.3639996765       -1.2042564078       -0.7110822870
 O          1.4528326774       -0.2528027906        2.5782749318
 N          0.7545632517        0.2139141530        0.4551281216
 N          2.8777904741       -0.6997516731        0.9044707076
 C          2.1182962110       -0.6741613564       -1.3746318904
 C          1.0219914494        0.2411636160       -0.9062418582
 C          3.2407625464       -0.8784982501       -0.4045616726
 C          1.6647203963       -0.2661258043        1.3865869984
 H          2.4961413481       -0.3336225781       -2.3398712355
 H          1.6440563661       -1.6494414714       -1.5388507575
 H          3.5719681252       -0.9093052199        1.6185210539
 O         -1.3595548440       -0.5611480189        1.0845270625
 O         -3.5821399457        1.3963101081       -0.6766354687
 O         -2.0755030424        2.4238291548        1.2211176613
 O         -1.0541879774       -1.6480439422       -1.6055150011
 C         -2.2990901715        0.8375489549       -0.6172947150
 C         -2.3778021483       -0.5293082697        0.0873686541
 C         -1.3538877118        1.6636260675        0.2915996797
 C         -0.5545797335        0.5814438090        1.0316465924
 C         -2.2581055932       -1.7191267724       -0.8668306799
 H         -1.8494065828        0.7234112245       -1.6068301332
 H         -3.3435505190       -0.6053377007        0.6032586319
 H         -0.7016746465        2.3325486756       -0.2754164316
 H         -0.3533823920        0.8994623929        2.0608764479
 H         -2.2770369431       -2.6366873940       -0.2662141748
 H         -3.1283494130       -1.6959914905       -1.5308278449
 H         -3.6121558784        2.0860310829       -1.3555363373
 H         -3.0264010292        2.2917083872        1.0400944770
 H         -1.1153667833       -2.2796265717       -2.3364155974
  30
        -59.79210008
 O          0.3784063074       -1.6034327591       -0.9658097107
 O          4.8517117128       -0.4653177554       -0.3020956710
 O          1.5663856588        2.2077462076        1.2051913603
 N          0.9099431435        0.2617943661        0.2063462612
 N          3.1734448153        0.8329486609        0.4482747568
 C          2.6455191061       -1.4032488141       -0.2933364540
 C          1.2199669978       -0.9427577386       -0.4009267423
 C          3.6719262126       -0.3328261668       -0.0758529110
 C          1.8597502892        1.1626852666        0.6719332101
 H          2.9017902771       -2.0034718687       -1.1697509678
 H          2.6968008173       -2.0861062017        0.5644312004
 H          3.8450752646        1.5588099553        0.6901260970
 O         -1.1211076169       -0.3660479914        1.1771965310
 O         -3.4015908878        1.5228783549        0.1133837027
 O         -1.2259470873        2.1384154461       -1.3012682435
 O         -3.8590953625       -2.3024273969       -0.2376100632
 C         -2.7227043482        0.4116593345       -0.4091693959
 C         -2.4396675909       -0.6231060186        0.6887105075
 C         -1.3066084745        0.8048829734       -0.8871212182
 C         -0.4922337107        0.6237201523        0.4074526350
 C         -2.5375478511       -2.0678346835        0.1882150802
 H         -3.3281898780       -0.0387345127       -1.2044926732
 H         -3.1456325722       -0.4745918388        1.5130458745
 H         -0.9568750378        0.1092797977       -1.6530837339
 H         -0.4755154630        1.5812916052        0.9490225327
 H         -1.8224266443       -2.2125024242       -0.6300191081
 H         -2.2617464368       -2.7279258174        1.0190778545
 H         -2.9324751347        2.3270871839       -0.1762287798
 H         -1.4890507392        2.2164149116       -2.2306058221
 H         -3.9415192711       -3.2248179398       -0.5196546179
  30
        -59.79204113
 O          1.7239108589        2.1384268059        1.3945711000
 O          4.5258249457       -1.2990554713       -0.0000647053
 O          0.2061643824       -1.2389644079       -1.2465876010
 N          0.9233380751        0.5193821019        0.0218605484
 N          2.3644294369       -1.2191983581       -0.6253430418
 C          3.3451114181        0.7622175883        0.3353385850
 C          1.9462440695        1.2027869140        0.6613829722
 C          3.4965333536       -0.6702125018       -0.0811588877
 C          1.1000352978       -0.6792377921       -0.6586481405
 H          4.0015041564        0.9860747407        1.1791790523
 H          3.6954009164        1.3848984156       -0.4972774381
 H          2.4387024877       -2.1578287521       -1.0123770072
 O         -1.0347754198        0.0244681993        1.1771972992
 O         -3.7266176188        0.5260118531       -1.0560366950
 O         -1.8720541598        2.3777360645       -1.0361803247
 O         -2.2207036183       -2.5519570669        0.5335811527
 C         -2.4654871161        0.0344929383       -0.7000805099
 C         -2.3939860591       -0.1723699759        0.8208138233
 C         -1.3505546357        1.0825670963       -0.9520104913
 C         -0.4450999640        0.9494267886        0.2936254925
 C         -2.8605391349       -1.5486630190        1.2863993717
 H         -2.2116804202       -0.9049793050       -1.1951442684
 H         -3.0155341921        0.5946052396        1.3079965814
 H         -0.7874270192        0.8698060703       -1.8660872892
 H         -0.3602666949        1.9355620303        0.7732117092
 H         -2.6154644445       -1.6389715309        2.3506717975
 H         -3.9487989399       -1.5945466359        1.1522735365
 H         -3.9321288026        0.2833557274       -1.9703536444
 H         -2.8466840479        2.3047531971       -0.9939660332
 H         -2.4731769660       -3.4189246284        0.8812388877
  30
        -59.79203748
 O          1.7035104883        2.1287770355        1.4177419463
 O          4.6365142842       -1.1732811869       -0.1323394403
 O          0.2830800388       -1.2663105913       -1.2490954246
 N          0.9556143550        0.4753897359        0.0608000205
 N          2.4605675297       -1.1557998429       -0.7062607097
 C          3.3730310124        0.7977313759        0.3816022201
 C          1.9589637302        1.1928458957        0.6945645421
 C          3.5777876904       -0.5903661693       -0.1452558279
 C          1.1710718692       -0.6843064727       -0.6717646378
 H          3.9951127699        0.9624919128        1.2650417014
 H          3.7484714924        1.4968744291       -0.3764450953
 H          2.5738179501       -2.0633937609       -1.1534375104
 O         -1.0570823189       -0.2470810951        0.9974948612
 O         -3.5676161783        0.5255365920       -1.4441732679
 O         -1.9421373947        2.4384032892       -0.6877547868
 O         -3.1016439199       -2.2155405480        1.8955669096
 C         -2.3344606523        0.1018380262       -0.9637331063
 C         -2.3721127922       -0.4255614498        0.4855400922
 C         -1.2726443183        1.2238124619       -0.8840315865
 C         -0.4328964335        0.8361711025        0.3578598034
 C         -2.7754139140       -1.8915756312        0.5642642152
 H         -1.9828624412       -0.6940586822       -1.6250284034
 H         -3.0747728300        0.1709434081        1.0850691251
 H         -0.6532393988        1.2441097104       -1.7846503970
 H         -0.3738519174        1.6942358078        1.0433653513
 H         -3.6430766816       -2.0288153694       -0.0938941644
 H         -1.9357705589       -2.4957167670        0.2000167657
 H         -3.7268873831        1.4301215541       -1.1226501665
 H         -1.3800625297        3.1903641906       -0.9183462367
 H         -3.3240037300       -3.1559093805        1.9487183931
  30
        -59.79203067
 O          0.2364002218       -1.8868962442       -0.1383702444
 O          4.7518314637       -0.6905552266       -0.0094389073
 O          1.5500521691        2.4126495929        0.5337063577
 N          0.8303501004        0.2892593874        0.1022755704
 N          3.1127684074        0.8365633704        0.2024580768
 C          2.5178450158       -1.3809457142       -0.5373939589
 C          1.1001480261       -1.0436151807       -0.1612256384
 C          3.5753681305       -0.4212025724       -0.0870046646
 C          1.8074444083        1.2558042444        0.2857991430
 H          2.5550935593       -1.4173579434       -1.6336328784
 H          2.7527263907       -2.3922217883       -0.1966251440
 H          3.8049362898        1.5453933110        0.4365683760
 O         -1.1478511298       -0.0115336693        1.3559550789
 O         -3.2855713484        1.7363678370       -0.0047885852
 O         -1.3386737655        1.5815810161       -1.8461565862
 O         -2.6266502943       -2.2408165296       -0.5085676188
 C         -2.8354903576        0.4292811054       -0.2587343462
 C         -2.5005644226       -0.3526428978        1.0210866672
 C         -1.4538370270        0.5472490915       -0.9269528272
 C         -0.5517788325        0.7153398170        0.3162240447
 C         -2.6717372329       -1.8735014094        0.8534650330
 H         -3.5340427935       -0.1249972644       -0.8892492297
 H         -3.1086258266       -0.0109060182        1.8646881040
 H         -1.2148926317       -0.3877507810       -1.4388184324
 H         -0.4948849094        1.7806144187        0.5842960575
 H         -1.8671111249       -2.3502613634        1.4190253245
 H         -3.6411958082       -2.1684285999        1.2767489914
 H         -4.2245581137        1.7274367210        0.2256840008
 H         -1.8626317798        2.3348839638       -1.5224175786
 H         -2.3617160984       -3.1673017177       -0.5773845009
  30
        -59.79202251
 O          0.2533237836       -0.3812734040       -1.7335155805
 O          4.7938523880       -0.4130691140       -0.6668789301
 O          1.7219264376        0.7910189897        2.3886617187
 N          0.9215203660        0.0506098891        0.3892865216
 N          3.2223562437        0.1476664733        0.8426919940
 C          2.5126472563       -0.9063182928       -1.2135703086
 C          1.1355107467       -0.3876147593       -0.9084285489
 C          3.6253906492       -0.3748150634       -0.3612952204
 C          1.9389007929        0.3406097280        1.2852092464
 H          2.7365484046       -0.7487861711       -2.2713283638
 H          2.4824440688       -1.9941482250       -1.0705918529
 H          3.9510528318        0.4597846835        1.4818332315
 O         -1.2218421782       -0.8714347167        0.5560807312
 O         -3.3509452591        1.6782788013       -0.8034881168
 O         -1.8303476914        2.2266472369        1.2694094176
 O         -3.3907404351       -2.6525893793       -0.4428460171
 C         -2.2034557748        0.9056132139       -0.6729439348
 C         -2.4487498030       -0.4880697933       -0.0590707335
 C         -1.1476519234        1.5045791608        0.2832856478
 C         -0.4523533201        0.2537036174        0.8702822170
 C         -2.8692269312       -1.5195008221       -1.0976851713
 H         -1.7782430597        0.7881974471       -1.6728860077
 H         -3.2263039681       -0.4268527551        0.7154179113
 H         -0.4301171600        2.1350471235       -0.2521003732
 H         -0.3648275774        0.3536239531        1.9616559337
 H         -3.6321028235       -1.0521124484       -1.7336235088
 H         -1.9906043115       -1.7746850615       -1.7017725060
 H         -3.5579866195        2.0701280708        0.0623928237
 H         -1.2205360487        2.7667414246        1.7901048281
 H         -3.6253071587       -3.3202946816       -1.1026467796
  30
        -59.79196969
 O          1.5542664119        1.9463071848        1.4915255785
 O          4.0069356999       -1.8241072154        0.2785914907
 O          0.1380821759       -0.8885620713       -1.7843102680
 N          0.7823792161        0.5786214943       -0.1434234431
 N          2.0839348777       -1.2780079779       -0.7576542934
 C          3.1121107578        0.3705467185        0.6544255929
 C          1.7624478569        1.0265489467        0.7344902547
 C          3.1317905643       -1.0123819371        0.0809990540
 C          0.9345731423       -0.5429382538       -0.9419681209
 H          3.5766418125        0.3847952460        1.6429821519
 H          3.7419700083        1.0012251513        0.0148914011
 H          2.1033421803       -2.1590739902       -1.2663401114
 O         -1.1384026791        0.7809263092        1.1973086050
 O         -3.7745400577        0.1461323001       -0.8873736326
 O         -2.2976964737        2.3074262160       -1.1818937181
 O         -0.7175406599       -2.0514928601        0.7761198299
 C         -2.4129926467       -0.0715766482       -0.6410542892
 C         -2.1863096075       -0.1317791722        0.8817497859
 C         -1.5445100670        1.1293035246       -1.0965143560
 C         -0.5193410356        1.2595348975        0.0399288475
 C         -1.8720402362       -1.5331311803        1.4080564458
 H         -2.0479121388       -0.9880491960       -1.1118598424
 H         -3.0911958088        0.2242558189        1.3896118072
 H         -1.0650010025        0.9620098178       -2.0626743637
 H         -0.2768828851        2.3149973482        0.2104452460
 H         -1.7077515711       -1.4548419507        2.4894294466
 H         -2.7428709474       -2.1688057657        1.2117743879
 H         -3.9785204372       -0.0523889488       -1.8131184336
 H         -3.2011207844        2.1146366669       -0.8680739312
 H         -0.5966693228       -2.9612239743        1.0838125431
  30
        -59.79191347
 O          1.7608076793        2.2174042321        1.2610880119
 O          4.4761212773       -1.3486943087       -0.1253152269
 O          0.0785342519       -1.3134678215       -1.0457635690
 N          0.8865002399        0.4954166617        0.0770642458
 N          2.2796219430       -1.2663069659       -0.6073686654
 C          3.3275852759        0.7068897299        0.3159529430
 C          1.9461654761        1.2078277650        0.6209598523
 C          3.4452036209       -0.7186116630       -0.1310964976
 C          1.0198443323       -0.7302549915       -0.5560293051
 H          3.9705825619        0.8825129244        1.1825897938
 H          3.7375287550        1.3397259266       -0.4815451923
 H          2.3303472544       -2.2106193207       -0.9850694183
 O         -1.1115634579        0.0068961331        1.1887362266
 O         -3.6950142678        0.5544264375       -1.2254677989
 O         -1.9795289237        2.4723966685       -0.7829787252
 O         -1.8346878130       -2.6329095824        0.7113236858
 C         -2.4481687433        0.1329607595       -0.7742622229
 C         -2.4342264523       -0.2390443541        0.7249179676
 C         -1.3518750099        1.2225916470       -0.8650764129
 C         -0.4716802469        0.9587831914        0.3809646716
 C         -2.8324007524       -1.6906977549        1.0128273230
 H         -2.1662714765       -0.7286253224       -1.3837511984
 H         -3.1323635202        0.4280302212        1.2521961883
 H         -0.7696194790        1.1214344009       -1.7845250702
 H         -0.3410431454        1.8938433566        0.9441677545
 H         -3.0322674498       -1.8121128491        2.0793546220
 H         -3.7516164437       -1.8965404666        0.4458902682
 H         -3.7973611079        1.4971441385       -1.0068825890
 H         -1.4254903122        3.1708741855       -1.1563101156
 H         -1.4151912613       -2.4094858608       -0.1338381375
  30
        -59.79186835
 O          0.4823557178        1.2762657516       -1.5541440859
 O          3.9650448115       -1.7030500838       -0.8436934891
 O          1.1336004027       -0.7057776219        2.5008282643
 N          0.7413131863        0.3260909108        0.5021203727
 N          2.5608737458       -1.1442111786        0.8273420747
 C          2.5513183018        0.2128975173       -1.1498381531
 C          1.1516683600        0.6322317788       -0.7791550853
 C          3.0971376143       -0.9742271181       -0.4218537533
 C          1.4603188397       -0.5127093965        1.3527443958
 H          3.2077167400        1.0632428117       -0.9275691879
 H          2.6017703831        0.0603169173       -2.2294473151
 H          2.9663390104       -1.8634225021        1.4223671962
 O         -1.3732395566       -0.5152500966        1.1067971208
 O         -3.6008936566        1.2457293491       -0.7635318056
 O         -2.2313493799        2.4130495955        1.2044364437
 O         -0.5800526505       -1.4774411809       -1.5233863388
 C         -2.2705927314        0.8213306443       -0.6625471788
 C         -2.2527014187       -0.5770046013       -0.0147913982
 C         -1.4331631105        1.6928567936        0.3104849838
 C         -0.5943217172        0.6442835767        1.0603830130
 C         -1.8637875620       -1.7041100682       -0.9739037004
 H         -1.7757384601        0.7910431170       -1.6391441250
 H         -3.2533460599       -0.8027321056        0.3727711778
 H         -0.8160744131        2.4280509474       -0.2035390662
 H         -0.4163022833        0.9586177591        2.0953366913
 H         -1.8693304698       -2.6434651897       -0.4072390145
 H         -2.6246314719       -1.7444426236       -1.7609764469
 H         -3.6395251596        2.0987593845       -1.2201330824
 H         -3.0050507955        1.8833948758        1.4537307601
 H         -0.4342755950       -2.1361480801       -2.2171412392
  30
        -59.79180698
 O          0.3858146313       -1.1236525474       -1.4985656364
 O          4.8178536897       -0.7642616675       -0.0168150050
 O          1.5383530869        1.5657789406        1.9797150095
 N          0.9177799156        0.2922246974        0.1876227239
 N          3.1517729381        0.4317615532        0.9086644251
 C          2.7005425663       -0.7669489731       -1.1383688458
 C          1.2405076129       -0.5800092907       -0.8357744331
 C          3.6652598688       -0.4020843516       -0.0523892942
 C          1.8468389833        0.8166996353        1.0820337927
 H          2.9343604785       -0.1414686885       -2.0093833506
 H          2.8701017289       -1.7964735642       -1.4643864481
 H          3.7937691773        0.7613831983        1.6271711828
 O         -1.0798555797       -0.6511736545        0.9683409842
 O         -3.4331285812        1.4082189009        0.5273614133
 O         -1.2955040337        2.4708277206       -0.6461339888
 O         -3.8197382414       -2.1644784466       -0.8858009817
 C         -2.7329779010        0.5149363584       -0.2973215880
 C         -2.4046832774       -0.7856869626        0.4501882368
 C         -1.3365373371        1.0727644144       -0.6560117113
 C         -0.4880367024        0.5367034534        0.5101782062
 C         -2.4897139892       -2.0263685626       -0.4444615796
 H         -3.3406070845        0.2953897017       -1.1829777316
 H         -3.0938889903       -0.8984158947        1.2943509092
 H         -0.9932997107        0.6539401824       -1.6042471547
 H         -0.4783326807        1.2932961396        1.3089806939
 H         -1.7989095934       -1.9079092791       -1.2875511749
 H         -2.1732342174       -2.8898330883        0.1524025004
 H         -2.9715993226        2.2671235190        0.5028049441
 H         -1.6020523332        2.8188574872       -1.4969671911
 H         -3.8987915306       -2.9788990500       -1.4028057598
  30
        -59.79179030
 O          0.2330331419       -0.0971111464       -1.7662546961
 O          4.7058171541       -0.7228935885       -0.6261549114
 O          1.7184792515        0.5614227799        2.4775346228
 N          0.8925441889        0.1436298571        0.3909015180
 N          3.1726866133       -0.0856499859        0.8925584118
 C          2.3952055883       -0.9223752160       -1.2343051112
 C          1.0838833032       -0.2563494190       -0.9247854234
 C          3.5420744456       -0.5713407345       -0.3357374738
 C          1.9062281688        0.2122789791        1.3339254999
 H          2.6595544818       -0.7394841950       -2.2783777430
 H          2.2289676569       -2.0037821652       -1.1492357080
 H          3.9148482365        0.0886753065        1.5671948634
 O         -1.1993882847       -0.7477776760        0.8405100417
 O         -3.5952422393        1.4396498135       -0.5504932197
 O         -1.6701006359        2.5413834361        0.8483182752
 O         -2.3505993688       -2.0214498964       -1.4968059013
 C         -2.4037357577        0.7057367326       -0.5833451579
 C         -2.5113616502       -0.5038963258        0.3579096139
 C         -1.2212344179        1.5060773734        0.0215070682
 C         -0.4595296334        0.4494347724        0.8535732913
 C         -3.0610915605       -1.7620644177       -0.3090390617
 H         -2.1411879273        0.3537665887       -1.5830196028
 H         -3.1673421677       -0.2348438624        1.1997120607
 H         -0.5743939268        1.9309955052       -0.7527627888
 H         -0.3522135564        0.8226292250        1.8820709373
 H         -2.9530988107       -2.5897738064        0.4011731545
 H         -4.1245096861       -1.5907727389       -0.5186928555
 H         -3.7159205388        1.9162898360       -1.3841608392
 H         -2.6453818887        2.5708388369        0.7791703804
 H         -2.6729544163       -2.8469710215       -1.8848230430
  30
        -59.79178731
 O          0.2987128901       -0.3412369867       -1.8730864281
 O          4.6264850708       -1.0518231651       -0.2570863774
 O          1.4433723327        0.6509589407        2.4134192416
 N          0.8287294360        0.2577811139        0.2485326353
 N          3.0124537749       -0.1522041972        1.0274527108
 C          2.6055739338       -0.3517848923       -1.3404925687
 C          1.1465725211       -0.1734177784       -1.0258996188
 C          3.5183307782       -0.5763533510       -0.1752093976
 C          1.7411156031        0.2830966545        1.2996064938
 H          2.9382348945        0.5630878717       -1.8477637382
 H          2.7187379172       -1.1549875848       -2.0730277803
 H          3.6253492890       -0.2144711234        1.8382424703
 O         -1.2705001509       -0.6894616258        0.7361599557
 O         -3.5251955854        1.5091169110        0.7410643982
 O         -1.2928545699        2.7874153424        0.0682935186
 O         -2.3155497204       -2.8648699033       -0.9245128862
 C         -2.7757902413        0.8555684376       -0.2476863808
 C         -2.5260055851       -0.6273643500        0.0489797560
 C         -1.3485986457        1.4522932128       -0.3259355837
 C         -0.5639942357        0.5203503784        0.6257888953
 C         -2.5283604901       -1.5068384491       -1.2121037658
 H         -3.3207738565        1.0041029175       -1.1806231704
 H         -3.2749382521       -1.0150885974        0.7510675701
 H         -0.9609155311        1.3775972696       -1.3435267346
 H         -0.4911084048        0.9945440487        1.6159506322
 H         -3.4829412402       -1.3633432913       -1.7339007565
 H         -1.7084712763       -1.2120005708       -1.8684554787
 H         -3.2442924735        1.2226474147        1.6232394858
 H         -2.1296242784        3.0041185773        0.5234586579
 H         -3.0244699530       -3.1919590261       -0.3516704653
  30
        -59.79178651
 O          1.7595329117        2.2569600507        1.1928312086
 O          4.5396458979       -1.1444878338       -0.4873746118
 O          0.0792508667       -1.3628362250       -0.9679052004
 N          0.8779372171        0.4431702142        0.1657399336
 N          2.3001796650       -1.2199647685       -0.6772113848
 C          3.2806425743        0.5002414827        0.7146749558
 C          1.9326930257        1.1577465142        0.7183039892
 C          3.4648665266       -0.6744633642       -0.1970423526
 C          1.0212371413       -0.7590087821       -0.5035209264
 H          3.4729991646        0.1567492581        1.7394789072
 H          4.0494587795        1.2528421790        0.5176858451
 H          2.3818660678       -2.0636378269       -1.2418630932
 O         -1.1671982935        0.0387895631        1.2132096893
 O         -3.6501377888        0.5455894993       -1.3108050016
 O         -1.9222202334        2.4506397138       -0.8594828883
 O         -1.8853689794       -2.6072579833        0.7918084551
 C         -2.4267449425        0.1186402880       -0.8037590805
 C         -2.4723836888       -0.2117361477        0.7044964376
 C         -1.3113712234        1.1899637387       -0.8853023656
 C         -0.4796636180        0.9490113281        0.3977535336
 C         -2.8917507994       -1.6527546074        1.0160726267
 H         -2.1372142892       -0.7636058816       -1.3791788991
 H         -3.1852443877        0.4739424912        1.1860422964
 H         -0.6985623034        1.0553035946       -1.7802679361
 H         -0.3468371604        1.9006367716        0.9322741495
 H         -3.1443571653       -1.7412906560        2.0747114620
 H         -3.7833401122       -1.8726308966        0.4113941717
 H         -3.7457577974        1.4953671437       -1.1212004584
 H         -1.3560115295        3.1265036379       -1.2554662156
 H         -1.4122526891       -2.4013225503       -0.0293665441
  30
        -59.79177420
 O          0.0656306500       -0.5080627607       -1.6305505456
 O          4.6330791785       -0.8428121254       -0.6835017746
 O          1.8011944014        1.0228116311        2.2680080605
 N          0.8649414851        0.1632612417        0.3751910287
 N          3.1746994056        0.0584749530        0.7728190952
 C          2.2980180092       -1.1438516799       -1.1330209034
 C          0.9865230285       -0.4746391914       -0.8468482947
 C          3.4842972840       -0.6425637173       -0.3668503243
 C          1.9341823070        0.4354698056        1.2177717295
 H          2.4987984900       -1.1148367385       -2.2068965810
 H          2.1690681360       -2.2058487783       -0.8848595215
 H          3.9519653233        0.3546678843        1.3600295255
 O         -1.2507377250       -0.6369235940        0.9381571826
 O         -3.5518020277        1.4782114146       -0.8016583395
 O         -1.7800390489        2.5766651988        0.7691070452
 O         -2.0567723979       -2.4051566149       -1.0624853376
 C         -2.3793405321        0.7469840020       -0.6362082973
 C         -2.5302394256       -0.4338992989        0.3479265558
 C         -1.2180658648        1.5615983923       -0.0155791092
 C         -0.4722931190        0.5256472402        0.8599916158
 C         -3.0245617696       -1.7343765994       -0.2977448522
 H         -2.0907680076        0.3866808017       -1.6261676093
 H         -3.2451942661       -0.1401295980        1.1307483068
 H         -0.5594627043        1.9664828544       -0.7889888441
 H         -0.3172746731        0.9368095539        1.8674032313
 H         -3.3120088633       -2.4410327860        0.4830755800
 H         -3.9064599651       -1.4847689909       -0.9041736785
 H         -3.6217162178        2.1177315819       -0.0717553424
 H         -1.1388840026        3.2764461670        0.9508499816
 H         -1.6236804025       -1.7842471613       -1.6676275561
  30
        -59.79176488
 O          0.3120623616        0.2580279432       -1.7724411760
 O          4.7043709304       -0.8819047245       -0.6231956971
 O          1.6442921827       -0.0456165139        2.5607599749
 N          0.9407370642        0.1633632030        0.4012703653
 N          3.1611800271       -0.3895166745        0.9398453433
 C          2.6449049410        0.0899174505       -1.3700177029
 C          1.2002325279        0.1566238088       -0.9589165014
 C          3.6054634457       -0.4552190446       -0.3577447277
 C          1.8984896042       -0.0865175108        1.3781793919
 H          2.9635919202        1.1130018325       -1.6068566789
 H          2.7258946466       -0.4671530146       -2.3067541258
 H          3.8145025344       -0.6670772502        1.6701622771
 O         -1.1454565574       -0.8856908959        0.3337485778
 O         -3.4640658769        1.7159398574       -0.5099649791
 O         -1.8728135567        2.0738921096        1.5423915564
 O         -3.2544341523       -2.6074836663       -0.8799885334
 C         -2.2708282892        1.0045384441       -0.5504424045
 C         -2.4146712198       -0.4831677233       -0.1678666887
 C         -1.2042393378        1.5077865948        0.4501241295
 C         -0.4530296137        0.2174835997        0.8561877117
 C         -2.8158987453       -1.3543899181       -1.3508627835
 H         -1.8856854380        1.0770321477       -1.5706496685
 H         -3.1645806450       -0.5958758697        0.6281803304
 H         -0.5261036823        2.2247010879       -0.0218013414
 H         -0.4099865835        0.1473698765        1.9525217164
 H         -3.6231175512       -0.8347945579       -1.8831255383
 H         -1.9448144504       -1.4570471161       -2.0090152619
 H         -3.6443111181        1.9632987171        0.4135750619
 H         -1.2746497844        2.6138315398        2.0764964898
 H         -3.4743846829       -3.1710037541       -1.6352721626
  30
        -59.79176139
 O          0.4648197863        1.1031995127       -1.6065458725
 O          4.3107470721       -1.2696482180       -0.7579364974
 O          1.4516753009       -0.3237794760        2.5782000671
 N          0.7555246119        0.2288968899        0.4763540693
 N          2.8539453179       -0.7582965916        0.8812533701
 C          2.0899603741       -0.6145184548       -1.3938362476
 C          1.0350599093        0.3240073226       -0.8813638716
 C          3.2036240271       -0.9065300097       -0.4357591622
 C          1.6567097996       -0.3082069327        1.3848999913
 H          2.4805380576       -0.2507965610       -2.3452596861
 H          1.5712344304       -1.5600046584       -1.5953136365
 H          3.5431266332       -1.0202547934        1.5827733852
 O         -1.3522845881       -0.5933912147        1.0668020159
 O         -3.5159445331        1.4381679389       -0.8322726673
 O         -2.2256523727        2.2851140784        1.2915117404
 O         -1.0097976408       -1.6047473422       -1.6405978700
 C         -2.2730384660        0.8525374853       -0.6077384900
 C         -2.3637295913       -0.5380418875        0.0622758518
 C         -1.3788162966        1.6562760788        0.3641627616
 C         -0.5597923483        0.5594473302        1.0620875099
 C         -2.2289504094       -1.6958151218       -0.9276610061
 H         -1.7765419125        0.7664104089       -1.5776266410
 H         -3.3308047331       -0.6368166590        0.5705016951
 H         -0.7518588356        2.3751367345       -0.1643430802
 H         -0.3597143659        0.8184033518        2.1082012304
 H         -2.2616004646       -2.6365699600       -0.3640656583
 H         -3.0860164676       -1.6410358858       -1.6060156152
 H         -3.7970485310        1.8762461872       -0.0097420283
 H         -1.7675261219        3.0082669308        1.7399998396
 H         -1.0779340521       -2.1759846274       -2.4189017046
  30
        -59.79175548
 O          0.3776734534        0.9021148171       -1.6981900976
 O          4.3192862858       -1.2930653140       -0.6893521583
 O          1.4230468911       -0.2223117267        2.5755028271
 N          0.7372438530        0.2243918193        0.4448598885
 N          2.8383662065       -0.7328218390        0.9116108656
 C          2.1006462924       -0.6907806687       -1.3762797265
 C          1.0017632935        0.2236300651       -0.9143718231
 C          3.2041510950       -0.9302177920       -0.3948542428
 C          1.6378347181       -0.2618202592        1.3849925950
 H          2.5006554763       -0.3360323109       -2.3277234008
 H          1.6173374613       -1.6571483436       -1.5756218925
 H          3.5228106560       -0.9590474865        1.6300118650
 O         -1.3845065172       -0.4949986057        1.1339794279
 O         -3.6457170150        1.3314263055       -0.6163723226
 O         -2.0472307342        2.5380883453        1.1302171934
 O         -0.9101554619       -1.6561270238       -1.6277292913
 C         -2.3368632418        0.8353620930       -0.6144537261
 C         -2.3416710873       -0.5438671130        0.0725237147
 C         -1.3686395338        1.6897967128        0.2516575425
 C         -0.5631852344        0.6289441707        1.0232636128
 C         -2.0805193881       -1.7494167693       -0.8472346105
 H         -1.9380979599        0.7687811532       -1.6327474205
 H         -3.3223228772       -0.6987846799        0.5387087119
 H         -0.7265871530        2.3330818910       -0.3488837786
 H         -0.3382129848        0.9795907648        2.0368069023
 H         -1.9423164983       -2.6210379187       -0.2028590202
 H         -2.9627528459       -1.9028275914       -1.4749922756
 H         -3.6677359575        2.2020606102       -1.0401797852
 H         -2.7978012177        2.0706967599        1.5299675811
 H         -1.0926149850       -1.1426204121       -2.4266281004
  30
        -59.79174028
 O          1.6160183034        2.0219568215        1.3528598283
 O          4.0425923252       -1.7654682188        0.2295686479
 O         -0.0385281064       -1.0936987000       -1.5240385978
 N          0.7346161081        0.5223653780       -0.1021168847
 N          2.0136844852       -1.3693217058       -0.6666726639
 C          3.1350781957        0.4473525558        0.4349432871
 C          1.7797916354        1.0639449943        0.6324776111
 C          3.1318010596       -0.9957655509        0.0290117887
 C          0.8379939083       -0.6708784936       -0.8051755605
 H          3.7323543580        0.5922415946        1.3375580660
 H          3.6371762184        1.0105007520       -0.3613237078
 H          1.9944191930       -2.3111358920       -1.0508548632
 O         -1.2489829486        0.5124962100        1.1833949679
 O         -3.9069781180        0.6226634941       -0.7722500201
 O         -2.0798044154        2.4536938485       -1.1441510171
 O         -0.4190052677       -1.9343934234        1.3424874418
 C         -2.6158281392        0.0948179945       -0.7215091488
 C         -2.2270647493       -0.4012105263        0.6918529190
 C         -1.5329498390        1.1636523960       -1.0723233175
 C         -0.5840263031        1.1425469078        0.1330505368
 C         -1.6904073876       -1.8605144759        0.7417926904
 H         -2.5931650965       -0.7233363039       -1.4421215754
 H         -3.0860847442       -0.3064097290        1.3631793748
 H         -1.0101492926        0.9111556420       -1.9970609657
 H         -0.3667026842        2.1683758584        0.4530979437
 H         -2.4047966405       -2.4957718043        1.2759855176
 H         -1.5599189142       -2.2536021000       -0.2675253393
 H         -3.9188943047        1.4713848570       -0.2979949526
 H         -2.6216564851        2.5277301323       -1.9448585899
 H         -0.4896069552       -1.6027257341        2.2498615331
  30
        -59.79174014
 O          0.5428284050        1.4713184323       -1.4312376998
 O          3.8931114511       -1.7149086348       -0.9231516951
 O          1.0710608361       -0.8357730521        2.4626363767
 N          0.7258893845        0.3238775700        0.5275790755
 N          2.4995334013       -1.2146435119        0.7742620590
 C          2.5471377055        0.2626739428       -1.1166193612
 C          1.1689550962        0.7225807813       -0.7168211609
 C          3.0467500602       -0.9852444912       -0.4610859564
 C          1.4139983602       -0.5863763704        1.3301744270
 H          3.2414220323        1.0709247295       -0.8553747573
 H          2.5865308026        0.1688875697       -2.2034655715
 H          2.8808327600       -1.9807488132        1.3252521404
 O         -1.3980672994       -0.5165733435        1.1179678781
 O         -3.4930377164        1.3154315917       -0.9495242467
 O         -2.3668810678        2.2631962178        1.2692146857
 O         -0.4713131453       -1.4177904581       -1.5094947679
 C         -2.2097310487        0.8341229487       -0.6836617556
 C         -2.2209330795       -0.5794096715       -0.0505913628
 C         -1.4597056709        1.6813331036        0.3727054637
 C         -0.6040042482        0.6371091105        1.0946817005
 C         -1.7678824385       -1.6841714585       -1.0067628583
 H         -1.6459033239        0.8205641076       -1.6206318107
 H         -3.2334117058       -0.8304027343        0.2850506319
 H         -0.8937440575        2.4990855118       -0.0674986276
 H         -0.4195114293        0.9208798320        2.1376365146
 H         -1.7676116314       -2.6334845151       -0.4561943891
 H         -2.4996770186       -1.7294077166       -1.8202105081
 H         -3.7268396141        1.9567511708       -0.2526303362
 H         -2.7475817972        1.5802899634        1.8439545598
 H         -0.3029679952       -2.0378399562       -2.2327728654
  30
        -59.79173921
 O          0.2767335308        0.0120497247       -1.7787149370
 O          4.7997524644       -0.3611971356       -0.6422789137
 O          1.6705322642        0.2015750594        2.5382183726
 N          0.9188899600        0.0351055838        0.3908653445
 N          3.1983559816       -0.1054883979        0.9175506214
 C          2.5250656044       -0.6264654364       -1.3460599102
 C          1.1502439632       -0.1603146168       -0.9604860845
 C          3.6234210324       -0.3472806214       -0.3646627671
 C          1.9076538767        0.0373767057        1.3634344817
 H          2.7843195896       -0.2248077390       -2.3288490867
 H          2.4699173229       -1.7150690093       -1.4747664062
 H          3.9154109566        0.0096454861        1.6312953086
 O         -1.2080203195       -0.8927466613        0.4197279855
 O         -3.4530806829        1.7334214599       -0.4790868955
 O         -1.5799002558        2.2537343933        1.3790382444
 O         -3.3469101105       -2.6361455955       -0.6783364123
 C         -2.2942311284        0.9688097263       -0.5839532829
 C         -2.4635626218       -0.4876452647       -0.1111544573
 C         -1.1254590403        1.4976186780        0.2908497403
 C         -0.4631705826        0.2188511353        0.8362242774
 C         -2.8857801951       -1.4275789646       -1.2351584776
 H         -2.0015981509        0.9869656856       -1.6358416891
 H         -3.2151571253       -0.5410234133        0.6904915730
 H         -0.4107728751        2.0702778992       -0.3101834503
 H         -0.4262900156        0.2775238027        1.9333157987
 H         -3.6857322357       -0.9325652803       -1.8011619761
 H         -2.0187266779       -1.5898862744       -1.8861104011
 H         -3.7447513812        1.7477562350        0.4475412180
 H         -1.9182214147        3.1040100658        1.0567330760
 H         -3.5609340635       -3.2543323512       -1.3911755111
  30
        -59.79169274
 O          1.5219123264        2.2082939897        1.2145774447
 O          4.6200210935       -1.0565055663        0.0342484719
 O          0.2915061563       -1.5215914575       -1.0786841362
 N          0.8540378306        0.3992483917        0.0184117074
 N          2.4475283193       -1.2361928506       -0.5275604366
 C          3.2489507782        0.9011608071        0.2442022707
 C          1.8203033802        1.2341989189        0.5625397277
 C          3.5329180831       -0.5376352385       -0.0639017713
 C          1.1377996257       -0.8228300776       -0.5688970759
 H          3.8919982381        1.2534857374        1.0539495294
 H          3.5273303164        1.4870691618       -0.6411287122
 H          2.6082693579       -2.1899068330       -0.8454935541
 O         -1.1706412584       -0.1788274066        1.0721548566
 O         -3.4972121890        1.6270762578       -0.0989534109
 O         -1.3535126120        2.1725071761       -1.5961654284
 O         -2.5730052119       -2.7729972562        1.3161639865
 C         -2.7935414686        0.4920794241       -0.5276871384
 C         -2.4818716571       -0.5054615913        0.5934543055
 C         -1.3923598314        0.8944434751       -1.0464565133
 C         -0.5449250195        0.7642854737        0.2396095273
 C         -2.5663176952       -1.9709920426        0.1550291181
 H         -3.3993890391        0.0501900192       -1.3195811522
 H         -3.1643081859       -0.3813483290        1.4426898614
 H         -1.0438496148        0.1830494234       -1.7986599127
 H         -0.4931743674        1.7394859494        0.7472272580
 H         -3.4988982347       -2.1123491455       -0.4064493035
 H         -1.7100897284       -2.2040405340       -0.4843000829
 H         -3.1842183659        1.9133143079        0.7719881143
 H         -2.1498091955        2.6544310620       -1.2999664119
 H         -2.4971048607       -3.7029693153        1.0616226755
  30
        -59.79162270
 O          0.4945400572        1.2118959981       -1.5588802211
 O          4.3266839041       -1.2096430812       -0.7417269417
 O          1.3125048838       -0.5751977629        2.5321903607
 N          0.7256356452        0.1936541076        0.4657905914
 N          2.7895003278       -0.8689194257        0.8687341432
 C          2.1358463967       -0.4939833398       -1.4127308159
 C          1.0501969090        0.3914879433       -0.8683921634
 C          3.2043123384       -0.8794476681       -0.4375979292
 C          1.5771961276       -0.4465401534        1.3579916615
 H          2.5684115111       -0.0398143983       -2.3053835178
 H          1.6350414278       -1.4171325319       -1.7286726484
 H          3.4429073774       -1.2047126233        1.5732537151
 O         -1.4062716652       -0.5534983049        1.1114754868
 O         -3.5130165327        1.4448972483       -0.8243482462
 O         -2.1858914633        2.3415685522        1.3001538572
 O         -0.8901764547       -1.5388319885       -1.6291973890
 C         -2.2591446111        0.8648079736       -0.6220757701
 C         -2.3483874960       -0.5333730246        0.0347855419
 C         -1.3829599047        1.6628419067        0.3729893790
 C         -0.5681383252        0.5683912211        1.0686496500
 C         -2.1209968437       -1.6849649903       -0.9456484299
 H         -1.7531342017        0.7920240625       -1.5891493032
 H         -3.3424756119       -0.6721743239        0.4765871448
 H         -0.7741679300        2.4193180508       -0.1179854980
 H         -0.3387825709        0.8434343944        2.1051577998
 H         -2.1218958434       -2.6235246631       -0.3770254467
 H         -2.9608375783       -1.6776593893       -1.6471321545
 H         -3.6483502767        2.1226226156       -0.1360887324
 H         -2.5975202697        1.7087690756        1.9093968020
 H         -0.9213277194       -2.1013262658       -2.4160992085
  30
        -59.79159805
 O          1.7372664319        2.2546127529        1.2157257731
 O          4.5312016284       -1.1527009896       -0.4695933007
 O          0.0724596360       -1.3565709426       -0.9703896174
 N          0.8719810117        0.4483875180        0.1614019115
 N          2.2932185060       -1.2217852303       -0.6679897244
 C          3.2806928164        0.5356787042        0.6772074541
 C          1.9207981712        1.1695920047        0.7144123239
 C          3.4580683055       -0.6678812425       -0.1971918465
 C          1.0162877317       -0.7543026422       -0.5054175387
 H          3.5278140563        0.2409285304        1.7052223255
 H          4.0233162582        1.2961798552        0.4179259629
 H          2.3752821075       -2.0765604624       -1.2157787822
 O         -1.1601308569        0.0314950500        1.2106458606
 O         -3.6905408799        0.6223177392       -1.2276880372
 O         -1.7648134314        2.4631814820       -0.9320075865
 O         -1.8624972009       -2.6215463430        0.7738471759
 C         -2.4705946516        0.1219004944       -0.7775674622
 C         -2.4714410397       -0.2281991223        0.7254214434
 C         -1.3043174904        1.1396694716       -0.9100762575
 C         -0.4892566092        0.9410798394        0.3807864821
 C         -2.8703142584       -1.6774946752        1.0315718379
 H         -2.2612397400       -0.7611073283       -1.3843694602
 H         -3.1784882443        0.4415640502        1.2386338939
 H         -0.6889740568        0.9264495322       -1.7901500281
 H         -0.3787120182        1.9130160852        0.8826808802
 H         -3.0987176252       -1.7781322527        2.0947680473
 H         -3.7736892159       -1.9013230448        0.4455997819
 H         -3.8925388726        1.4462511641       -0.7540678332
 H         -2.1628569853        2.6513404223       -1.7961356260
 H         -1.3869091173       -2.3851789157       -0.0380348455
  30
        -59.79158037
 O          0.4515339382        1.1249711729       -1.6052830866
 O          4.2860968696       -1.3022909063       -0.7249321443
 O          1.3368647297       -0.4479936681        2.5568702776
 N          0.7211692024        0.2138099785        0.4621429480
 N          2.7809341332       -0.8476312053        0.8864515941
 C          2.1081450483       -0.5598426194       -1.4043595231
 C          1.0263800555        0.3434001858       -0.8835654911
 C          3.1757664670       -0.9303827472       -0.4242260719
 C          1.5834730067       -0.3855276381        1.3734005554
 H          2.5443787186       -0.1303540414       -2.3077296450
 H          1.6004959152       -1.4869216086       -1.7044263240
 H          3.4387304220       -1.1642397998        1.5956540532
 O         -1.4080213347       -0.5025386823        1.1499557443
 O         -3.5613330446        1.3922860915       -0.7820947611
 O         -2.1842420964        2.3918813955        1.2473465771
 O         -0.8315228862       -1.5331763451       -1.6922394587
 C         -2.2845213005        0.8486067304       -0.6237094453
 C         -2.3143337222       -0.5497361184        0.0399279493
 C         -1.3936201915        1.6809939906        0.3349154641
 C         -0.5689723781        0.6131134501        1.0610604578
 C         -1.9799601478       -1.7256643028       -0.8943703734
 H         -1.8116638744        0.8042213463       -1.6087750064
 H         -3.3093019857       -0.7382308715        0.4584823434
 H         -0.7916294794        2.4193880923       -0.1912527836
 H         -0.3305374029        0.9256772605        2.0843216984
 H         -1.7705159165       -2.5928217609       -0.2624861693
 H         -2.8563140097       -1.9355935584       -1.5125922401
 H         -3.6765250758        2.0979105873       -0.1186448344
 H         -2.5786039973        1.7827790550        1.8915320004
 H         -1.0795809023       -1.0773177248       -2.5077339427
  30
        -59.79157697
 O          0.3201995140        0.3286423155       -1.7690365901
 O          4.7030776199       -0.8593659664       -0.6248833841
 O          1.5990105263       -0.1962541705        2.5558037942
 N          0.9361074864        0.1733717788        0.4035706269
 N          3.1375585661       -0.4451397507        0.9375616689
 C          2.6516591299        0.1397972235       -1.3563429721
 C          1.2049637700        0.2012703470       -0.9542815562
 C          3.5995749559       -0.4468330777       -0.3546994865
 C          1.8709351029       -0.1551094440        1.3781707537
 H          2.9782525419        1.1690513841       -1.5523079538
 H          2.7391554109       -0.3840428758       -2.3115714522
 H          3.7788680432       -0.7681944006        1.6594820359
 O         -1.1394733837       -0.8694469633        0.3277835709
 O         -3.5206810057        1.6921604951       -0.3958480869
 O         -1.6815540939        2.1804259923        1.5071966469
 O         -3.2178164480       -2.6388074251       -0.8567376157
 C         -2.3240359091        0.9958229489       -0.5419020199
 C         -2.4195425673       -0.4944350530       -0.1630545393
 C         -1.1858794633        1.5253472618        0.3720825488
 C         -0.4602122986        0.2495704044        0.8346370616
 C         -2.8098790202       -1.3805593142       -1.3406655676
 H         -2.0290532971        1.0950803134       -1.5886698922
 H         -3.1580482115       -0.6341291665        0.6407174594
 H         -0.5034896367        2.1760053802       -0.1846166997
 H         -0.4436686415        0.2321456206        1.9337422022
 H         -3.6333464162       -0.8857196138       -1.8722050068
 H         -1.9408510200       -1.4674382716       -2.0033923378
 H         -3.8182585074        1.6275354903        0.5266580749
 H         -2.0684478280        3.0295131218        1.2406978178
 H         -3.4067064476       -3.2220151233       -1.6052616328
  30
        -59.79153541
 O          1.1972294410        2.2398499846       -0.3221026169
 O          4.4292149598       -1.1625071984       -0.4904669101
 O          0.4287360653       -1.8973043157        1.3823177901
 N          0.6922382013        0.1564627772        0.3752990750
 N          2.3746273099       -1.4754576884        0.3681535484
 C          2.8175726931        0.5817236105       -0.8079340896
 C          1.5257794342        1.0729278895       -0.2287841537
 C          3.3086042407       -0.7421930549       -0.3074574148
 C          1.0916581313       -1.1180174558        0.7443126667
 H          3.5883671160        1.3460860321       -0.6775688369
 H          2.6742119511        0.4943843527       -1.8923786250
 H          2.6635505064       -2.3925406753        0.7027947784
 O         -1.4786368145       -0.1993013637        1.3596431980
 O         -3.7394149129        1.3571340297        0.0953026549
 O         -1.5515362689        2.6298576999       -0.5153123412
 O         -1.0460781366       -1.5739076077       -1.2892690056
 C         -2.7448431970        0.5484845095       -0.4668265595
 C         -2.4701576219       -0.6577818761        0.4420770317
 C         -1.3704788359        1.2483670390       -0.5182791127
 C         -0.6424918186        0.7117112773        0.7516034114
 C         -2.0409658281       -1.9042895461       -0.3370765062
 H         -3.0534429535        0.2283172270       -1.4698376049
 H         -3.3465651292       -0.8959661423        1.0479545504
 H         -0.8320700494        0.9126811435       -1.4129688959
 H         -0.4455861472        1.5283696256        1.4600906724
 H         -1.6503715256       -2.6331760337        0.3823933127
 H         -2.9294247293       -2.3083128484       -0.8326959161
 H         -3.4781257069        2.2854699128       -0.0304340798
 H         -0.6807462410        3.0604446049       -0.5473684624
 H         -0.9234250946       -2.3340799418       -1.8759155117
  30
        -59.79153030
 O          0.0524905717       -0.5058931383       -1.6263764296
 O          4.6292256062       -0.8052717500       -0.6930119687
 O          1.7780841552        0.9513949685        2.3082466250
 N          0.8577060471        0.1578699497        0.3777044566
 N          3.1630633967        0.0468299639        0.7852366545
 C          2.2977263351       -1.1161228931       -1.1510319853
 C          0.9803535984       -0.4668275934       -0.8493149245
 C          3.4787720651       -0.6215734349       -0.3717684285
 C          1.9187847617        0.4063467407        1.2377163648
 H          2.4990154068       -1.0590200360       -2.2237452795
 H          2.1803722248       -2.1852637760       -0.9293006528
 H          3.9372033808        0.3309196712        1.3823672329
 O         -1.2524859947       -0.6349210553        0.9368395741
 O         -3.5885251899        1.5099908450       -0.6811457844
 O         -1.5927834965        2.6320129284        0.7038607447
 O         -2.0369444788       -2.4056785205       -1.0725782386
 C         -2.4261636051        0.7438689998       -0.6159826725
 C         -2.5374918537       -0.4508356006        0.3546557795
 C         -1.2027827023        1.5358831670       -0.0776622788
 C         -0.4815321314        0.5309372762        0.8393920161
 C         -3.0120104999       -1.7560320046       -0.2995132547
 H         -2.2283106915        0.4053640258       -1.6347258463
 H         -3.2513160324       -0.1877582202        1.1500947878
 H         -0.5438086603        1.8528434756       -0.8924424125
 H         -0.3453692496        0.9874131110        1.8297769765
 H         -3.2863155808       -2.4722698825        0.4775097396
 H         -3.9000817063       -1.5188355273       -0.9026938961
 H         -3.7666676145        1.8952531175        0.1930236865
 H         -1.9353188160        3.3323302426        0.1269020252
 H         -1.5835373728       -1.7657125664       -1.6426832523
  30
        -59.79152302
 O          0.4131914500        1.0099352712       -1.6493483012
 O          4.2808073742       -1.3457988433       -0.7298230023
 O          1.4575122913       -0.2300285507        2.5828863813
 N          0.7499677934        0.2452887805        0.4660534441
 N          2.8386394499       -0.7537861308        0.8940114480
 C          2.0773423418       -0.6591003249       -1.3865394251
 C          1.0127240448        0.2789502787       -0.8951260193
 C          3.1816100221       -0.9495585966       -0.4192331425
 C          1.6537468067       -0.2662759827        1.3887402063
 H          2.4798704618       -0.2994281067       -2.3350152044
 H          1.5611486523       -1.6057538712       -1.5988084453
 H          3.5257691445       -1.0082244452        1.6002964830
 O         -1.3583913288       -0.5379573914        1.1111048707
 O         -3.5673504328        1.3978116848       -0.7827989540
 O         -2.2128827227        2.3459438331        1.2397030902
 O         -0.9382456102       -1.6135367095       -1.6828497318
 C         -2.3020256885        0.8430614084       -0.6077089094
 C         -2.3347718680       -0.5496558433        0.0668084389
 C         -1.3862475294        1.6777659786        0.3225861295
 C         -0.5603046226        0.6058474657        1.0519690870
 C         -2.0937775489       -1.7365916059       -0.8815938224
 H         -1.8453761364        0.7853725651       -1.5985129750
 H         -3.3085335593       -0.6989078726        0.5478235232
 H         -0.7644228511        2.3723918933       -0.2432687545
 H         -0.3477692529        0.9051709974        2.0842533183
 H         -1.9386632355       -2.6235667479       -0.2621913610
 H         -2.9872066593       -1.8767755451       -1.4955154507
 H         -3.8198920204        1.8464262827        0.0429969866
 H         -1.7514416158        3.0960311033        1.6371179554
 H         -1.1527419973       -1.1150987410       -2.4827810725
  30
        -59.79149108
 O          0.2853823533       -0.9688640728       -1.6191129902
 O          4.7549317696       -0.5138657830       -0.4288024965
 O          1.5347198565        1.4450952752        2.0219437925
 N          0.8336398646        0.1614825675        0.2686943032
 N          3.1094129486        0.4366508359        0.7782229267
 C          2.5088360076       -1.2492201586       -0.8378970704
 C          1.1195522571       -0.6790993437       -0.7920963287
 C          3.5751704449       -0.4247578303       -0.1825315764
 C          1.8032931770        0.7155188694        1.0943457939
 H          2.7790267448       -1.4700136793       -1.8730545448
 H          2.4757180758       -2.2148766074       -0.3171054796
 H          3.8014262054        0.9581515109        1.3125856860
 O         -1.2942308019       -0.6422772215        0.8448190289
 O         -3.4343490236        1.6631184182        0.4939633238
 O         -1.1478241871        2.6675054006       -0.4541225794
 O         -2.7760645816       -2.9565733767       -0.2131658466
 C         -2.7420641697        0.7986009635       -0.3665086789
 C         -2.5684069486       -0.6194106493        0.1883606806
 C         -1.2861291107        1.2865401667       -0.5591208498
 C         -0.5545965182        0.5176863018        0.5660665779
 C         -2.6678971244       -1.7160127187       -0.8767977301
 H         -3.2938271485        0.8123842712       -1.3071706575
 H         -3.3177388635       -0.8448192898        0.9563768068
 H         -0.9043663147        0.9758788362       -1.5343158434
 H         -0.4910391005        1.1503189707        1.4641264722
 H         -3.5648100428       -1.5313010855       -1.4820546975
 H         -1.7786780396       -1.6829693997       -1.5129610864
 H         -3.1857684387        1.4959559329        1.4151466596
 H         -1.9425466810        3.0186703257       -0.0078944944
 H         -2.7168291262       -3.6706511620       -0.8626281510
  30
        -59.79142779
 O          1.5587691588        1.9469127810        1.4803474099
 O          3.9152704914       -1.9060905640        0.3285853470
 O          0.1645613191       -0.8044787807       -1.8712709131
 N          0.7835900911        0.5975747321       -0.1676824457
 N          2.0562194154       -1.2807338843       -0.7787376619
 C          3.0839185271        0.3151876634        0.6921492066
 C          1.7554377843        1.0155954879        0.7341750351
 C          3.0769804513       -1.0626574499        0.1060671201
 C          0.9355368748       -0.5098206644       -0.9869643730
 H          3.5137725959        0.3043952861        1.6963560664
 H          3.7577043717        0.9292458840        0.0818499778
 H          2.0656316125       -2.1543848330       -1.3001077392
 O         -1.1216856233        0.8183919761        1.1915464793
 O         -3.7296837296       -0.0158747688       -0.9888998490
 O         -2.4228259724        2.2589857119       -1.0690789771
 O         -0.6529034900       -2.0043035251        0.7989665435
 C         -2.3854598414       -0.0834480817       -0.6327329711
 C         -2.1590339388       -0.1147779025        0.8977089275
 C         -1.5655962012        1.1461210745       -1.0900880239
 C         -0.5154619215        1.2849524023        0.0226490183
 C         -1.8158006991       -1.5050686664        1.4338408339
 H         -1.9749522852       -0.9876377964       -1.0888154034
 H         -3.0618741877        0.2356022400        1.4115407483
 H         -1.1255916242        0.9927338491       -2.0748813424
 H         -0.2612530908        2.3365816993        0.1997809744
 H         -1.6468160428       -1.4225018124        2.5145293839
 H         -2.6755918165       -2.1558784619        1.2408509279
 H         -4.0059785914        0.9167485391       -0.9473202561
 H         -2.0779256802        2.9690786200       -1.6270843104
 H         -0.5357965655       -2.9223014663        1.0825775528
  30
        -59.79142720
 O          0.2652343496        0.1132089229       -1.7795209600
 O          4.6102834991       -1.1190193367       -0.5406962970
 O          1.6297849441        0.1858110614        2.5553385056
 N          0.9202719999        0.2480680231        0.3860083253
 N          3.1085973822       -0.3856394646        0.9663432376
 C          2.5886945575       -0.1438766409       -1.3792070178
 C          1.1564895096        0.0564331253       -0.9659368151
 C          3.5349818404       -0.6133506790       -0.3176908567
 C          1.8679321090        0.0315059542        1.3792582555
 H          2.9576565855        0.8233149477       -1.7432397951
 H          2.6221544980       -0.8156615679       -2.2406294221
 H          3.7533568869       -0.6197874952        1.7189645454
 O         -1.1327521358       -0.7891768281        0.7245242631
 O         -3.6371177817        1.4110000938       -0.4456232510
 O         -1.7312373050        2.4829529255        0.9996602425
 O         -2.3645154231       -1.9093010140       -1.6764036371
 C         -2.4212744668        0.7252256854       -0.5473852932
 C         -2.4671738830       -0.5523559992        0.3052355390
 C         -1.2587399805        1.5229693063        0.0984966793
 C         -0.4528630054        0.4386140683        0.8485266215
 C         -3.0085347122       -1.7743591891       -0.4316716670
 H         -2.1613450109        0.4543975308       -1.5726057800
 H         -3.0994929091       -0.3626052538        1.1862303874
 H         -0.6395144118        2.0233605165       -0.6524646186
 H         -0.3796319086        0.7302489644        1.9063038853
 H         -2.8279304904       -2.6501129278        0.2018400619
 H         -4.0884261507       -1.6312715341       -0.5657269465
 H         -3.7982654598        1.9253340426       -1.2495018552
 H         -2.7077036155        2.4842022364        0.9417221278
 H         -2.6640293722       -2.7253451186       -2.1009826799
  30
        -59.79141405
 O          0.4636602781       -1.8292857189        0.5865336704
 O          4.8687862950       -0.5095336703       -0.0863811237
 O          1.4138606208        2.1654220152       -1.1667149296
 N          0.9264875970        0.3365208157        0.0833356092
 N          3.1264156677        0.8354950405       -0.5513472387
 C          2.7339481297       -1.1285430181        0.8125159864
 C          1.2790882469       -0.9467466130        0.4856970060
 C          3.6898854958       -0.2753833810        0.0309467287
 C          1.8032313425        1.1833687619       -0.5683186055
 H          3.0057649016       -2.1823436874        0.7185283283
 H          2.8575572328       -0.8719408107        1.8722402459
 H          3.7455324104        1.4455774759       -1.0819053209
 O         -1.0897946929        0.3140331179        1.2814845735
 O         -3.4341849383        1.3351115586       -0.5640293313
 O         -1.3392078759        1.1714415059       -2.1643630349
 O         -3.8259142697       -2.1439966980        1.1232384107
 C         -2.7087169283        0.1402388287       -0.4655407953
 C         -2.4140323230       -0.1555788351        1.0101625758
 C         -1.3023442889        0.2808740378       -1.0860719499
 C         -0.4750369892        0.7717217517        0.1148868671
 C         -2.5342141975       -1.6486798106        1.3555466611
 H         -3.2702822918       -0.6858104294       -0.9205867413
 H         -3.1019571642        0.4316326540        1.6307841508
 H         -0.9334360613       -0.7047410320       -1.4038586401
 H         -0.4421805736        1.8733125554        0.1149278140
 H         -1.8604175853       -2.2263298604        0.7208446049
 H         -2.2258688979       -1.7886396382        2.3977034181
 H         -3.2866427862        1.7024418579       -1.4519089075
 H         -0.5015277433        1.6532645465       -2.2435040515
 H         -4.4507714322       -1.7249944724        1.7325556044
  30
        -59.79134499
 O          0.3041461556       -0.5448849736       -1.8123206312
 O          4.6639575209       -1.0188715139       -0.1590495803
 O          1.4802642140        0.9737138583        2.3064353067
 N          0.8549896932        0.2875603893        0.2206650259
 N          3.0543734838        0.0295247297        1.0130235263
 C          2.6187446714       -0.5123051160       -1.3003671518
 C          1.1636071197       -0.2880228320       -1.0003576187
 C          3.5490762651       -0.5537914474       -0.1270016207
 C          1.7763203837        0.4656420165        1.2496380237
 H          2.9483108146        0.3051370330       -1.9543359824
 H          2.7241638868       -1.4217992624       -1.8978709849
 H          3.6815916552        0.0889133713        1.8130300785
 O         -1.2034938183       -0.7386700601        0.6074055300
 O         -3.4842082860        1.4447604589        0.7694303328
 O         -1.3505847157        2.7585067116       -0.0143453426
 O         -2.6304073491       -2.9376085637       -0.7072351362
 C         -2.7660608827        0.8364955851       -0.2674117242
 C         -2.5327921839       -0.6379487198        0.0793945649
 C         -1.3399597281        1.4145623180       -0.3950069653
 C         -0.5513725165        0.5034125652        0.5716094411
 C         -2.6849021727       -1.5916714210       -1.1114252701
 H         -3.3128895579        0.9398116387       -1.2138889827
 H         -3.2259980670       -0.9360030786        0.8748416054
 H         -0.9875122115        1.2767649275       -1.4201454161
 H         -0.5477825151        0.9636762311        1.5709027501
 H         -3.6663359784       -1.4544354475       -1.5672669558
 H         -1.8997411253       -1.3772220728       -1.8468135249
 H         -3.2759470253        2.3942800842        0.7705696590
 H         -0.5735464956        3.2259511237       -0.3474368827
 H         -1.8024808484       -3.0775010516       -0.2269504442
  30
        -59.79126840
 O          0.5192396962        1.4026297289       -1.4718364060
 O          3.9225154002       -1.7175935455       -0.9022399005
 O          1.1487586820       -0.7472769009        2.4971724811
 N          0.7502684636        0.3348780166        0.5261759370
 N          2.5513394943       -1.1690932413        0.7989639656
 C          2.5429477042        0.2305853007       -1.1498330580
 C          1.1662094763        0.6877535357       -0.7406884748
 C          3.0731974885       -0.9824916067       -0.4543817440
 C          1.4649607420       -0.5363791591        1.3493380186
 H          3.2313550230        1.0578485874       -0.9373036611
 H          2.5608299936        0.0923055587       -2.2325987881
 H          2.9522512914       -1.9082437647        1.3724214406
 O         -1.3538721218       -0.5528456671        1.0849849313
 O         -3.5091195569        1.3312221280       -0.9229765266
 O         -2.3804658277        2.2141490123        1.2793259898
 O         -0.5923056577       -1.4532898724       -1.5559326385
 C         -2.2360863843        0.8341801207       -0.6569173673
 C         -2.2496475030       -0.5787554994       -0.0250613391
 C         -1.4498500925        1.6772581731        0.3740963430
 C         -0.5937828386        0.6193450820        1.0864386717
 C         -1.8782583220       -1.6869112717       -1.0120361597
 H         -1.6914259450        0.8133880813       -1.6041358410
 H         -3.2470787918       -0.7970449906        0.3733632549
 H         -0.8590139760        2.4561363002       -0.1067464049
 H         -0.4252754426        0.8824364978        2.1369641011
 H         -1.8897548938       -2.6432369753       -0.4745127714
 H         -2.6402080279       -1.6949098265       -1.7988371420
 H         -3.8579504543        1.7199328326       -0.1015370337
 H         -2.0073366229        2.9745827050        1.7452569024
 H         -0.4567934139       -2.0849751994       -2.2763997844
  30
        -59.79124595
 O          0.2179643794       -1.1471737674       -1.2854422242
 O          4.8080543469       -0.6372162276       -0.6023517150
 O          1.8490507646        1.7944446541        1.7522969574
 N          0.9759036645        0.2243066254        0.3512150356
 N          3.2922479286        0.5318666174        0.5798788546
 C          2.5210211907       -1.3433024567       -0.7350205396
 C          1.1416904841       -0.7597160405       -0.6101781604
 C          3.6547710265       -0.4747934231       -0.2802870528
 C          2.0260788546        0.8957545729        0.9597275535
 H          2.6856065742       -1.6738932295       -1.7633842106
 H          2.5384236117       -2.2527813446       -0.1208512604
 H          4.0405212002        1.1031264357        0.9680411751
 O         -1.1152132333       -0.5272146625        1.0985860015
 O         -3.4298825166        1.0168372275       -1.1618452542
 O         -1.8317272587        2.5040456038        0.2765544724
 O         -4.0113031211       -2.1005282710       -0.3601523410
 C         -2.2387453542        0.4089315016       -0.7864487536
 C         -2.3596421523       -0.5652883982        0.4050223861
 C         -1.1656001378        1.4134014638       -0.2959533191
 C         -0.3797013747        0.6156062346        0.7676754323
 C         -2.6577167000       -2.0105391349        0.0103306786
 H         -1.8729039246       -0.1305583700       -1.6631225360
 H         -3.1579372198       -0.2151239093        1.0750339158
 H         -0.5101134617        1.7261692255       -1.1148011399
 H         -0.2357506806        1.2313870993        1.6663331503
 H         -1.9902599103       -2.2977008988       -0.8105713574
 H         -2.4450955179       -2.6431608391        0.8829595418
 H         -3.6340875176        1.7222545782       -0.5249497447
 H         -1.2379497348        3.2588790270        0.3876890222
 H         -4.1885888395       -2.9867027541       -0.7051064452
  30
        -59.79120187
 O          1.7790084480        2.4038547810        1.0042893982
 O          4.7214913027       -0.9505943881       -0.4630320945
 O          0.2729001668       -1.4865042759       -0.7787141550
 N          0.9826727053        0.4372821326        0.2201239952
 N          2.4872204487       -1.1820962348       -0.5638905416
 C          3.3940843415        0.7007207271        0.6541112122
 C          2.0076219992        1.2717956338        0.6415858359
 C          3.6269170144       -0.5285869145       -0.1707930381
 C          1.1811053570       -0.7937711552       -0.3833389018
 H          3.6281976746        0.4493051783        1.6966344945
 H          4.1102546730        1.4797779567        0.3787333272
 H          2.6083395570       -2.0518561014       -1.0793323599
 O         -1.0722850271       -0.0550289606        1.2356855899
 O         -3.4781443049        0.3749333959       -1.3833339875
 O         -1.9121047877        2.3610145814       -0.7452571915
 O         -3.8988545358       -2.1967299343        0.5872387499
 C         -2.2570909377        0.0026867543       -0.8353719651
 C         -2.3198587505       -0.4142978210        0.6499086456
 C         -1.2147402865        1.1494642638       -0.8258872483
 C         -0.3950736545        0.8910039468        0.4568134085
 C         -2.5529198092       -1.9070838213        0.8737709363
 H         -1.8867314479       -0.8334156966       -1.4329604070
 H         -3.1268480286        0.1445528082        1.1452559682
 H         -0.5768701576        1.1113778268       -1.7145955827
 H         -0.2907037154        1.8264817949        1.0250878455
 H         -1.8673933930       -2.4696412787        0.2293873396
 H         -2.3175346670       -2.1260090182        1.9242400984
 H         -3.6917952206        1.2747390257       -1.0838428966
 H         -1.3373508822        3.1087340050       -0.9575047186
 H         -4.0342279121       -3.1538387716        0.6265967703
  30
        -59.79112646
 O          0.2094671858       -0.7694977761       -1.5238211824
 O          4.8037062275       -0.6195621102       -0.6066529102
 O          1.8385353668        1.3000817711        2.1722522565
 N          0.9683565621        0.1994626381        0.3744713132
 N          3.2799475564        0.2967710035        0.7711288502
 C          2.4994807965       -1.1337472006       -1.0153083297
 C          1.1324159462       -0.5598490786       -0.7716393090
 C          3.6425885258       -0.4769754255       -0.3029814966
 C          2.0136493075        0.6269685328        1.1813229092
 H          2.6928413503       -1.1652806463       -2.0907315880
 H          2.4685219253       -2.1820989307       -0.6918802253
 H          4.0318892272        0.7007490034        1.3265078725
 O         -1.1205917439       -0.6396138867        1.0057807242
 O         -3.4972293908        1.2122265061       -0.8965814955
 O         -1.7681782514        2.5187341557        0.5317665636
 O         -3.9248682650       -2.0617349774       -0.7622462966
 C         -2.2925445075        0.5418782057       -0.7162233972
 C         -2.3602354155       -0.6148492207        0.3047343886
 C         -1.1692301803        1.4547573078       -0.1557959964
 C         -0.3918558375        0.5403209239        0.8170501803
 C         -2.5900965934       -1.9876899125       -0.3268938817
 H         -2.0023057780        0.1494269065       -1.6935176475
 H         -3.1737386146       -0.4178218941        1.0168326465
 H         -0.5197939749        1.8074539461       -0.9605793515
 H         -0.2640076294        1.0506645512        1.7817174402
 H         -1.8842360069       -2.1149884797       -1.1565187053
 H         -2.3824498074       -2.7460268905        0.4403542296
 H         -3.6039420438        1.8556083542       -0.1743465911
 H         -1.2019642701        3.3016721787        0.5332781340
 H         -4.0577393717       -2.8909723269       -1.2426855787
  30
        -59.79090414
 O          0.3809680892       -1.4789341810       -1.1463776881
 O          4.8569491238       -0.5324343881       -0.2151155574
 O          1.5845113898        2.1185951175        1.3565446116
 N          0.9158494124        0.2814572690        0.1772438653
 N          3.1834213910        0.7581350192        0.5579959703
 C          2.6262216836       -1.3934091300       -0.3856391993
 C          1.2177580258       -0.8858762428       -0.5048193168
 C          3.6719503973       -0.3791025482       -0.0339983642
 C          1.8709231633        1.1079799417        0.7563610667
 H          2.9021928246       -1.9228241426       -1.3009631738
 H          2.6243628333       -2.1510889375        0.4086053209
 H          3.8639280784        1.4384572878        0.8908965862
 O         -1.0944089331       -0.4155471583        1.1230371645
 O         -3.3962185750        1.4920609112        0.2954572049
 O         -1.3754736550        2.2316191036       -1.2393659777
 O         -3.8262546077       -2.2911619705       -0.3820550514
 C         -2.7334377980        0.4482446634       -0.3643804365
 C         -2.4147826613       -0.6633232479        0.6388259004
 C         -1.3380439637        0.8877187188       -0.8567555248
 C         -0.4868638519        0.6323692220        0.4096823680
 C         -2.4987954942       -2.0664056553        0.0296392501
 H         -3.3532959056        0.0653044611       -1.1847928106
 H         -3.1081208625       -0.5902282722        1.4836058144
 H         -1.0144596464        0.2322919992       -1.6676890437
 H         -0.4724916533        1.5495205351        1.0168997870
 H         -1.8019016686       -2.1340860394       -0.8139213851
 H         -2.1922585006       -2.7839921542        0.8000962659
 H         -3.2496883332        2.3095366983       -0.2089864745
 H         -0.6945513142        2.4312018112       -1.8945025409
 H         -3.8995485162       -3.1877053724       -0.7398084149
  30
        -59.79083847
 O          0.3445723937        0.8231018506       -1.7249924745
 O          4.3256392922       -1.2983052952       -0.6899267370
 O          1.4731782762       -0.1117501805        2.5726609268
 N          0.7488596786        0.2381934370        0.4364209393
 N          2.8662284347       -0.6775095324        0.9077970338
 C          2.0958150736       -0.7313048958       -1.3704536416
 C          0.9919623749        0.1850146155       -0.9263615456
 C          3.2131374079       -0.9280512506       -0.3948422934
 C          1.6688912226       -0.1990720064        1.3815404002
 H          2.4816459971       -0.4032603014       -2.3373765310
 H          1.6203550349       -1.7079107221       -1.5361955450
 H          3.5630728494       -0.8717324197        1.6236422563
 O         -1.3572655552       -0.5160651749        1.1160304495
 O         -3.6354794700        1.3977912876       -0.6545618807
 O         -2.0322870568        2.4684281366        1.1803617746
 O         -0.9739682372       -1.6978168204       -1.6258400612
 C         -2.3647887246        0.8259959742       -0.5979946030
 C         -2.3567311355       -0.5569081650        0.0945971234
 C         -1.3603053813        1.6744180430        0.2346412486
 C         -0.5593151871        0.6224729433        1.0086095756
 C         -2.1382332335       -1.7645968594       -0.8344653828
 H         -2.0149374193        0.7590677681       -1.6295206247
 H         -3.3150538199       -0.7145172624        0.6048670184
 H         -0.7159892898        2.2822393649       -0.4010648204
 H         -0.3509628057        0.9807901911        2.0230532549
 H         -2.0155415733       -2.6457891864       -0.2000391694
 H         -3.0311104309       -1.8878941160       -1.4546244131
 H         -3.9058845642        1.6427565092        0.2469759336
 H         -2.3096646122        3.2985641440        0.7650684103
 H         -1.1408124166       -1.1474132207       -2.4033162331
  30
        -59.79075203
 O          0.3969411317       -1.0445199589       -1.5541313036
 O          4.7914215433       -0.8579485563        0.0450614358
 O          1.5426305347        1.5521721354        1.9971382043
 N          0.9255018201        0.3328591235        0.1666761718
 N          3.1452827541        0.3826409098        0.9484844126
 C          2.7108072381       -0.7469161917       -1.1394980643
 C          1.2488520233       -0.5328836955       -0.8636200749
 C          3.6556915555       -0.4494543709       -0.0160201726
 C          1.8493088239        0.8059217414        1.0963739031
 H          2.9840206338       -0.0962860210       -1.9799764923
 H          2.8605449890       -1.7682008963       -1.4990063770
 H          3.7765598561        0.6712249133        1.6936427735
 O         -1.0504757830       -0.6504451160        0.9299962604
 O         -3.4136217962        1.3449514246        0.6450576871
 O         -1.4453061471        2.5004633437       -0.6799231663
 O         -3.7862140839       -2.1637606905       -0.9304454644
 C         -2.7396499002        0.5192732279       -0.2648060800
 C         -2.3764998465       -0.7997737161        0.4227686774
 C         -1.3648591498        1.1059491280       -0.6497831729
 C         -0.4838021251        0.5626170460        0.4977745944
 C         -2.4497798843       -2.0080669383       -0.5157891831
 H         -3.3660653012        0.3371125795       -1.1469502865
 H         -3.0522616204       -0.9564789658        1.2706430736
 H         -1.0468700545        0.6883362623       -1.6076321206
 H         -0.4853527280        1.2950373857        1.3186252260
 H         -1.7831335145       -1.8417602453       -1.3699877806
 H         -2.0981992329       -2.8845030586        0.0414979156
 H         -3.3142200063        2.2653423194        0.3496788615
 H         -0.7259348540        2.8839799582       -1.1984645459
 H         -3.8562341453       -2.9544771390       -1.4844410586
  30
        -59.79057529
 O          1.6020469073        1.9735911530        1.4104512926
 O          4.2658548527       -1.5135031028       -0.0831800794
 O          0.1101413308       -1.0085853385       -1.6884212959
 N          0.7417371611        0.4774560545       -0.0633814751
 N          2.1782192569       -1.1922010832       -0.8608098533
 C          2.8202124890       -0.0472513650        1.1515203658
 C          1.6993346885        0.9049493151        0.8554166895
 C          3.1914216573       -0.9708562156        0.0321798581
 C          0.9334125180       -0.6052897618       -0.8951078664
 H          2.4865837670       -0.6747337385        1.9881778272
 H          3.6917657482        0.5073237094        1.5045546921
 H          2.3397839803       -1.8886597514       -1.5851789646
 O         -1.2120027446        0.8755046590        1.1748626098
 O         -3.8220938778        0.2530727244       -0.8531005891
 O         -2.2044477283        2.2915995246       -1.3654703818
 O         -0.7088277241       -2.0689236743        0.8361839296
 C         -2.4692696266       -0.0388706230       -0.6416086179
 C         -2.2187839158       -0.0951491463        0.8786186244
 C         -1.5251569349        1.0913992649       -1.1417988268
 C         -0.5243909540        1.2424615131        0.0169375305
 C         -1.8363866432       -1.4754976065        1.4406845620
 H         -2.1875922192       -0.9804145985       -1.1255875361
 H         -3.1287649861        0.2274644746        1.3977301309
 H         -1.0378380244        0.8445684782       -2.0838096486
 H         -0.2230542279        2.2902819532        0.1304386019
 H         -1.5709060016       -1.3348440891        2.4911742420
 H         -2.7102504071       -2.1303090945        1.3757465892
 H         -4.0048083363        0.3013028731       -1.8030259160
 H         -2.8385839791        2.4503795689       -0.6482229455
 H         -0.9720375922       -2.4926915167        0.0079039833
  30
        -59.79057429
 O          0.2222925674       -1.8891445411       -0.1038072133
 O          4.7395841369       -0.7436857662       -0.0237430693
 O          1.5790150703        2.3970197914        0.5471479243
 N          0.8307973628        0.2868834256        0.0980605694
 N          3.1208687698        0.8028224883        0.2072565865
 C          2.4959228513       -1.3942956037       -0.5641959924
 C          1.0884636787       -1.0509828487       -0.1571178663
 C          3.5674582478       -0.4571420244       -0.0994019385
 C          1.8219775834        1.2387509103        0.2896863153
 H          2.5176600573       -1.3955256028       -1.6614496022
 H          2.7246502561       -2.4172825358       -0.2563933020
 H          3.8216428163        1.4997286627        0.4513332014
 O         -1.1584240664        0.0555287610        1.3682131120
 O         -3.4160944800        1.6869124689       -0.0441079070
 O         -1.3693307137        1.6350015699       -1.8238949755
 O         -2.5607877639       -2.2261312622       -0.5122657412
 C         -2.8385799364        0.4275878344       -0.2613081943
 C         -2.4954047118       -0.3393781587        1.0186762518
 C         -1.4551607981        0.5706489587       -0.9318348317
 C         -0.5448559907        0.7390607871        0.3063929412
 C         -2.6208304736       -1.8646548435        0.8498607743
 H         -3.5342861736       -0.1264101987       -0.8911681201
 H         -3.1281440382       -0.0244637999        1.8544533980
 H         -1.2031754142       -0.3536086096       -1.4580437488
 H         -0.4479585777        1.8074727538        0.5507289182
 H         -1.8047295362       -2.3220211280        1.4162617435
 H         -3.5833932593       -2.1841139907        1.2704721061
 H         -2.9950131751        2.1271144178        0.7085609307
 H         -2.0856240531        2.2633367297       -1.6156815251
 H         -2.3343340680       -3.1630970453       -0.5788504472
  30
        -59.79049758
 O          0.2404176764        0.0939750392       -1.7605860146
 O          4.6695886904       -0.9181967407       -0.6227630430
 O          1.6550673485        0.0877985541        2.5544605575
 N          0.9160309170        0.1750007730        0.3977350544
 N          3.1460153948       -0.3420229010        0.9304955116
 C          2.5824482292       -0.0337650210       -1.3986268550
 C          1.1477080005        0.0622719053       -0.9618415318
 C          3.5691109044       -0.4891945031       -0.3672484550
 C          1.8903185079       -0.0149037557        1.3719354790
 H          2.8890623285        0.9676207937       -1.7267162376
 H          2.6467249561       -0.6660288568       -2.2878692362
 H          3.8145295512       -0.5656531725        1.6656033256
 O         -1.1961164454       -0.8367060864        0.5046875660
 O         -3.5006897095        1.6730947756       -0.4978481216
 O         -1.7503781030        2.3284212048        1.3752602962
 O         -3.0816517804       -2.6853394073       -0.7976114674
 C         -2.2894510624        0.9835258111       -0.5871935598
 C         -2.4197144496       -0.4850059044       -0.1387184497
 C         -1.1981705223        1.5513590522        0.3540607248
 C         -0.4668914403        0.2995203407        0.8785117485
 C         -2.6934217266       -1.4295435907       -1.3038794971
 H         -1.9366306947        1.0137153229       -1.6239267292
 H         -3.2397441821       -0.5864255473        0.5860638195
 H         -0.5161110764        2.2137673722       -0.1816309396
 H         -0.3760037841        0.3442898914        1.9732994671
 H         -3.4980116336       -0.9873297401       -1.9052063517
 H         -1.7803755565       -1.5049327988       -1.9063298321
 H         -3.3954643073        2.3980713038        0.1466039261
 H         -2.2446730741        1.7746218732        1.9994206668
 H         -3.2190894458       -3.2959198454       -1.5353863604
  30
        -59.79044461
 O          1.7190996595        2.1428008701        1.3693554759
 O          4.4973177800       -1.3329091961        0.0386196717
 O          0.1972709775       -1.2293495857       -1.2768372510
 N          0.9174619497        0.5254341378       -0.0045611212
 N          2.3484520763       -1.2313498059       -0.6274217605
 C          3.3375116705        0.7468360126        0.3306888446
 C          1.9402767133        1.2016711970        0.6429056559
 C          3.4777703482       -0.6921782906       -0.0675238968
 C          1.0897915856       -0.6796564363       -0.6785240576
 H          3.9902536380        0.9747720135        1.1761919596
 H          3.6985637991        1.3554624700       -0.5076319444
 H          2.4168072298       -2.1741617617       -1.0052314599
 O         -1.0215791248        0.0192223914        1.1688402813
 O         -3.7529946830        0.5008759693       -1.0856733414
 O         -1.8526656587        2.3975663001       -0.9879126196
 O         -2.1503139726       -2.5533207860        0.5472525321
 C         -2.4974047766        0.0559595198       -0.6792383223
 C         -2.3876617408       -0.1813842706        0.8391275384
 C         -1.3642045919        1.0810251447       -0.9523484543
 C         -0.4504309510        0.9483573187        0.2797539982
 C         -2.8362778841       -1.5700730412        1.2853400806
 H         -2.2909214451       -0.8771835755       -1.2068315380
 H         -2.9959873841        0.5698799221        1.3680724263
 H         -0.8215361387        0.8397854009       -1.8690978702
 H         -0.3683910087        1.9352941523        0.7595553328
 H         -2.6224760543       -1.6684371704        2.3566688117
 H         -3.9182560024       -1.6356308804        1.1151436485
 H         -3.9145886840        1.3772325915       -0.6965722093
 H         -2.2582887556        2.5647623949       -1.8523238231
 H         -2.4634975408       -3.4275774183        0.8190592083
  30
        -59.79040303
 O          0.5058094358        1.3840431599       -1.4875352282
 O          3.8635429670       -1.7747675367       -0.8849049653
 O          1.0927977722       -0.7379427347        2.4999001569
 N          0.7250895903        0.3372840644        0.5210928786
 N          2.4984723807       -1.1937538163        0.8104219028
 C          2.5193964369        0.1959436767       -1.1466688972
 C          1.1481951727        0.6730541986       -0.7472756344
 C          3.0249760073       -1.0240618709       -0.4441387152
 C          1.4228287624       -0.5396781757        1.3536817869
 H          3.2193477463        1.0127742197       -0.9314608279
 H          2.5439326097        0.0499907133       -2.2281710963
 H          2.8841005540       -1.9387652453        1.3866358832
 O         -1.3961736255       -0.4785236276        1.1485009407
 O         -3.5462249861        1.2603376356       -0.8889851541
 O         -2.3553120788        2.3070227905        1.2335831543
 O         -0.4331214541       -1.3856737419       -1.6122982082
 C         -2.2390796763        0.8160982597       -0.6775993153
 C         -2.1869717773       -0.5956226907       -0.0408857505
 C         -1.4657785392        1.6932878347        0.3419151008
 C         -0.6017455115        0.6709048616        1.0870247788
 C         -1.6432137218       -1.7067898264       -0.9565356795
 H         -1.7181753567        0.8307950781       -1.6386987285
 H         -3.1891787222       -0.8972770633        0.2813938060
 H         -0.9041870393        2.4939492621       -0.1344365277
 H         -0.4093176132        0.9868268908        2.1188496045
 H         -1.4276720762       -2.5721905746       -0.3235861851
 H         -2.4207183700       -1.9743770055       -1.6758879309
 H         -3.7554194602        1.9283131568       -0.2094955020
 H         -2.7208413933        1.6456602632        1.8426192211
 H         -0.6311128096       -0.9653439424       -2.4595232939
  30
        -59.79019552
 O          0.2273596408       -0.0184579689       -1.7812193020
 O          4.6746853641       -0.7858880033       -0.6368932497
 O          1.7132348994        0.5333133587        2.4766469348
 N          0.8807716793        0.1598436152        0.3846756783
 N          3.1546320721       -0.1270341386        0.8853412703
 C          2.3610551875       -0.9188387285       -1.2530563844
 C          1.0673253272       -0.2214722739       -0.9390427584
 C          3.5143622090       -0.6084519213       -0.3477274205
 C          1.8947141315        0.1923964070        1.3294046203
 H          2.6327268022       -0.7319829084       -2.2944736558
 H          2.1643977006       -1.9960277911       -1.1798536227
 H          3.8996798869        0.0197941450        1.5633193263
 O         -1.2024512902       -0.7416275100        0.8431443396
 O         -3.6035522432        1.4617903128       -0.6220550069
 O         -1.6802276794        2.5051169475        0.9454388877
 O         -2.2237237130       -2.0232181081       -1.4997284857
 C         -2.4217017898        0.7267253287       -0.5628508276
 C         -2.5126106745       -0.5150557440        0.3440227227
 C         -1.2357265339        1.5182137864        0.0496639905
 C         -0.4692318422        0.4576506965        0.8597366233
 C         -3.0210961746       -1.7659339509       -0.3681765451
 H         -2.1767162972        0.4175861559       -1.5808115278
 H         -3.1822814484       -0.2973099609        1.1911630405
 H         -0.6004903081        1.9525181101       -0.7259865532
 H         -0.3561879724        0.8204082213        1.8917975088
 H         -2.9732040175       -2.6033810370        0.3386193161
 H         -4.0637158504       -1.5805705973       -0.6549134664
 H         -3.7996012167        1.8110874657        0.2637472985
 H         -1.9941846002        3.2729070294        0.4440620130
 H         -2.5724105589       -2.7975138980       -1.9635890032
  30
        -59.79016087
 O          1.3589128472        2.4168473493        0.1172366507
 O          4.6662610989       -0.8674956707       -0.3538944272
 O          0.3146468517       -1.9549482161       -0.1821175766
 N          0.8200357756        0.2345151588        0.2535839625
 N          2.4754430040       -1.3546432605       -0.2082788450
 C          3.1865746535        0.9035785254        0.2905153908
 C          1.7392231592        1.2671238539        0.1992255679
 C          3.5400580516       -0.4951793136       -0.1220887179
 C          1.1366226797       -1.0823762481       -0.0398116019
 H          3.4879508011        1.0253346548        1.3391696970
 H          3.7849874591        1.6258645329       -0.2711623312
 H          2.6822149530       -2.3176077569       -0.4666785979
 O         -1.3204897454       -0.3611589256        1.0875336633
 O         -3.4494764090        1.6998542395        0.1968176031
 O         -1.2470508084        2.4645149883       -1.0507424623
 O         -2.4175002820       -2.9551167909        0.5212755090
 C         -2.7644269696        0.6866446347       -0.4819824873
 C         -2.5914137120       -0.5236179506        0.4404628273
 C         -1.3072044484        1.0956185199       -0.7885085271
 C         -0.5770113619        0.6521222059        0.4951383981
 C         -2.6728278705       -1.8603149831       -0.3155483715
 H         -3.2998227027        0.4151914757       -1.4010411876
 H         -3.3422679552       -0.5091410391        1.2364878564
 H         -0.9272288139        0.5121137830       -1.6412310860
 H         -0.5023214981        1.5073732044        1.1867031324
 H         -3.6901723219       -1.9881165353       -0.6896188722
 H         -1.9705094314       -1.8522136413       -1.1576721674
 H         -3.2170188367        2.5499891426       -0.2150035562
 H         -0.3655107172        2.8128379119       -0.8284653638
 H         -1.4867477683       -2.9090416354        0.7878669462
  30
        -59.79014020
 O          0.3301178585       -1.3283949288       -1.2710552334
 O          4.8384891291       -0.6224278747       -0.2594848738
 O          1.6498008909        2.0071592441        1.5093889766
 N          0.9262585295        0.2802586516        0.2077438615
 N          3.2067549293        0.6548072389        0.6159999159
 C          2.5813350073       -1.3869289414       -0.5167355699
 C          1.1890927809       -0.8283262180       -0.5825175849
 C          3.6581933600       -0.4446392206       -0.0704535044
 C          1.9068197440        1.0317678637        0.8404161041
 H          2.8422850453       -1.8329067730       -1.4797439934
 H          2.5559728747       -2.2192667507        0.1985678974
 H          3.9100393167        1.2811319642        1.0032243558
 O         -1.1069012913       -0.4593483657        1.0648634833
 O         -3.5013305759        1.4423663169        0.2053817471
 O         -1.3816400839        2.4496402085       -0.9279848556
 O         -3.7959292652       -2.5209416236       -0.2919212418
 C         -2.6881951199        0.5017563266       -0.4382761608
 C         -2.4073559973       -0.6706164302        0.5119911532
 C         -1.2868661740        1.0659277676       -0.7609077526
 C         -0.4686338450        0.6432479352        0.4808471276
 C         -2.4786402448       -2.0560395445       -0.1519873269
 H         -3.1787925020        0.1600673778       -1.3601489075
 H         -3.1278820039       -0.6395471257        1.3388048349
 H         -0.8928500218        0.5725974300       -1.6540254030
 H         -0.4274822446        1.4807504193        1.1929824245
 H         -1.9509453169       -2.0408522571       -1.1124493455
 H         -1.9767760663       -2.7669459668        0.5075735638
 H         -3.2922939963        2.3230603057       -0.1490596817
 H         -0.5721193548        2.8148605387       -1.3076219650
 H         -4.2889943837       -1.9468449836       -0.8946524435
  30
        -59.79003734
 O          0.3501153300       -0.8654929168       -1.6272188134
 O          4.7448563071       -0.9876033818       -0.0249798516
 O          1.6009111234        1.4239573758        2.0936113711
 N          0.9353503829        0.3489792364        0.1931270639
 N          3.1559801963        0.2615898328        0.9653363138
 C          2.6764123822       -0.6930530223       -1.1995917629
 C          1.2239679369       -0.4453453265       -0.9038129075
 C          3.6298363896       -0.5230555451       -0.0566754067
 C          1.8784926227        0.7249514133        1.1463105588
 H          2.9764798975        0.0116915904       -1.9854889080
 H          2.7861230761       -1.6875284492       -1.6397319876
 H          3.7978371231        0.4677128778        1.7285139093
 O         -1.0578572726       -0.6490537278        0.8787133955
 O         -3.5166895833        1.3205366831        0.5376176332
 O         -1.4583882465        2.6301041313       -0.3879635407
 O         -3.7115013017       -2.4388502833       -0.8697557803
 C         -2.7024576606        0.5813512736       -0.3289476958
 C         -2.3632550407       -0.7716500209        0.3118341556
 C         -1.3256536799        1.2481848375       -0.5442373733
 C         -0.4680942942        0.5822926654        0.5546495362
 C         -2.4076120397       -1.9618324289       -0.6610339050
 H         -3.2140433438        0.4503690509       -1.2925646544
 H         -3.0640742923       -0.9635889285        1.1339330183
 H         -0.9467088620        0.9827109276       -1.5343935263
 H         -0.4455138263        1.2361542216        1.4391151820
 H         -1.9190421805       -1.6959749349       -1.6053767078
 H         -1.8537680184       -2.7850574297       -0.2051376277
 H         -3.3303963645        2.2649515328        0.4017522155
 H         -0.6878853430        3.0990827477       -0.7340866003
 H         -4.2505658670       -1.7555318726       -1.2923549033
  30
        -59.78990345
 O          0.4722254479       -1.8256401071        0.6098214019
 O          4.8678209040       -0.4892198112       -0.0755012602
 O          1.4002560312        2.1534149461       -1.1949833585
 N          0.9201790157        0.3355493586        0.0739287221
 N          3.1192790327        0.8414344518       -0.5596253980
 C          2.7356388722       -1.1037178853        0.8327384762
 C          1.2806919447       -0.9378380359        0.4979152040
 C          3.6879983232       -0.2582049822        0.0385108413
 C          1.7938655903        1.1808650660       -0.5840736730
 H          3.0154178396       -2.1569838117        0.7593524105
 H          2.8536544352       -0.8255093320        1.8877398205
 H          3.7356467010        1.4489294952       -1.0964398808
 O         -1.0964703585        0.3170209464        1.2728483486
 O         -3.4056517806        1.3607954655       -0.5419661288
 O         -1.3392457052        1.1283803098       -2.1888730712
 O         -3.8564528360       -2.0529671519        1.1927999346
 C         -2.7164375852        0.1439955759       -0.4651089348
 C         -2.4119756972       -0.1745193949        1.0029300594
 C         -1.3109426190        0.2592905766       -1.0931065836
 C         -0.4836089571        0.7650772227        0.1008991873
 C         -2.5087046210       -1.6680428405        1.3262254337
 H         -3.3070321925       -0.6587808336       -0.9227036237
 H         -3.1154505834        0.3739032195        1.6389238245
 H         -0.9489025841       -0.7346227943       -1.3929320796
 H         -0.4557492452        1.8665683891        0.0896321929
 H         -1.8627828623       -2.2330184970        0.6450217150
 H         -2.1477394066       -1.8118680556        2.3511137278
 H         -3.2944218880        1.7114660446       -1.4420486878
 H         -0.5066411480        1.6200567910       -2.2617417278
 H         -3.9467190965       -2.9828163421        1.4457454330
  30
        -59.78986069
 O          1.4969334723        2.4129491021        0.7570059792
 O          4.6752919150       -0.9150231735        0.0422651102
 O          0.2957832903       -1.8199232915       -0.3998551529
 N          0.8379030156        0.3396956520        0.1089536769
 N          2.4742298224       -1.3155681366       -0.2020543886
 C          3.2036886471        0.9769922250       -0.0552813702
 C          1.7925960412        1.3209861162        0.3288147771
 C          3.5498147819       -0.4815585649       -0.0473142241
 C          1.1375634399       -0.9823067890       -0.1868687470
 H          3.8966536879        1.5371421458        0.5765138405
 H          3.3601182159        1.3465212639       -1.0766252210
 H          2.6660496904       -2.3110741538       -0.2931474469
 O         -1.1285815876       -0.1702438992        1.3039792909
 O         -3.3530833440        1.6742880191        0.2208392913
 O         -1.3430054310        1.8268269095       -1.6147850289
 O         -2.5867985257       -2.1812215267       -0.7467427287
 C         -2.8350454094        0.4500552410       -0.2288240421
 C         -2.4915083732       -0.4574197135        0.9579113453
 C         -1.4550203424        0.6357455517       -0.8913166789
 C         -0.5577907533        0.6900236606        0.3560357851
 C         -2.6796471819       -1.9498492423        0.6417235893
 H         -3.5507871292       -0.0386022834       -0.8994567435
 H         -3.0978939105       -0.1846558804        1.8269320931
 H         -1.2144727637       -0.2525009958       -1.4817295367
 H         -0.5371908078        1.7232482328        0.7347604089
 H         -1.9010075755       -2.4941497186        1.1845090590
 H         -3.6677724956       -2.2621939767        1.0032465552
 H         -2.9974933290        2.3799425467       -0.3475841169
 H         -1.6667205736        1.6936869892       -2.5177345245
 H         -2.4707600064       -3.1289327232       -0.8997855302
  30
        -59.78981643
 O          0.8519139158        0.5190226086        2.1836859340
 O          4.1927173636       -1.6370638563       -0.0222350951
 O          1.2523984423        0.9553626098       -2.2357641879
 N          0.7077542657        0.4040855663       -0.1007598077
 N          2.6872083787       -0.3601594148       -1.1064636223
 C          2.1054865085       -1.1882736417        1.0790630887
 C          1.1674133699       -0.0124117203        1.1514769179
 C          3.1104351026       -1.0987452878       -0.0308827034
 C          1.5205393230        0.3595099518       -1.2118279288
 H          1.4873695983       -2.0724777494        0.8888306424
 H          2.6067114833       -1.3260789198        2.0377678539
 H          3.3085710615       -0.2979125566       -1.9099451545
 O         -1.2574106855        1.3274070944        0.8998560429
 O         -3.7021358557       -0.3051638733       -0.9393239479
 O         -2.2353796641        1.6070879107       -1.9300518087
 O         -0.9667173456       -1.6798491459        1.5163325624
 C         -2.3913396468       -0.2762612002       -0.4708616067
 C         -2.2550202842        0.3054125713        0.9570168896
 C         -1.4564098553        0.6163077170       -1.3208079690
 C         -0.5156407672        1.2360672782       -0.2576054981
 C         -1.9297943381       -0.7643535472        2.0053811163
 H         -2.0292717299       -1.3080562706       -0.4759994139
 H         -3.1824473687        0.8033469378        1.2575365689
 H         -0.9096055999        0.0304552674       -2.0619412857
 H         -0.2008822606        2.2481075433       -0.5408730839
 H         -1.5457121559       -0.2545870824        2.8969443645
 H         -2.8618465935       -1.2862039508        2.2440661873
 H         -3.9043652203        0.5633704577       -1.3284143528
 H         -1.7420657085        2.0254705077       -2.6483737795
 H         -0.9284641074       -2.4211025434        2.1376497077
  30
        -59.78976330
 O          0.2468227349        0.1254922823       -1.7868818092
 O          4.6078072724       -1.1203771843       -0.5405276798
 O          1.6345196443        0.2295853000        2.5405155436
 N          0.9120199369        0.2489873621        0.3751760694
 N          3.1062212629       -0.3645554521        0.9535228574
 C          2.5580907400       -0.2267566721       -1.3973329877
 C          1.1386299985        0.0386413402       -0.9769441978
 C          3.5234727076       -0.6298676756       -0.3262531136
 C          1.8658298865        0.0512940944        1.3662375302
 H          2.9388400052        0.6922836008       -1.8602048946
 H          2.5549726330       -0.9716912863       -2.1978489189
 H          3.7619076752       -0.5668478569        1.7060838381
 O         -1.1358955793       -0.7897619251        0.7200001576
 O         -3.6483730479        1.4387408094       -0.5090028708
 O         -1.7106007425        2.4508013072        1.0594112454
 O         -2.2981323350       -1.9278457121       -1.6600810190
 C         -2.4461344678        0.7357254361       -0.5251282004
 C         -2.4746081938       -0.5608232115        0.3063913938
 C         -1.2650320108        1.5221077562        0.1039794604
 C         -0.4596984749        0.4381884252        0.8428152858
 C         -3.0032807706       -1.7754477891       -0.4514752719
 H         -2.2206833711        0.4926517603       -1.5652714385
 H         -3.1010842682       -0.4048998571        1.1994477777
 H         -0.6589679175        2.0111574158       -0.6617858286
 H         -0.3840828148        0.7281906461        1.9014265018
 H         -2.8738039852       -2.6564568855        0.1888987320
 H         -4.0711613404       -1.6067787156       -0.6399488072
 H         -3.8255483903        1.7360250121        0.3995437221
 H         -2.0383281831        3.2428343619        0.6069209794
 H         -2.6455381998       -2.6960313795       -2.1348392006
  30
        -59.78964929
 O          0.8127863743        0.1006888917        2.2508693647
 O          4.6702862935       -0.9180193366       -0.0849259886
 O          1.1540825007        0.9279699859       -2.1932755685
 N          0.8236167577        0.3412684464       -0.0248481268
 N          2.8802476384       -0.0201308542       -1.1148606223
 C          2.5679465510       -0.9747080084        1.0731150814
 C          1.3309386438       -0.1175658951        1.1850704426
 C          3.4943748375       -0.6443940815       -0.0572095580
 C          1.5894329885        0.4334376341       -1.1726884993
 H          2.2351581281       -2.0101468205        0.9310089518
 H          3.1054415284       -0.9517681759        2.0234524741
 H          3.4433071436        0.1668945481       -1.9423330438
 O         -1.2241278674        1.0596800359        1.0149061068
 O         -3.6696227052        0.9585234788       -0.7694639205
 O         -1.6223952585        0.9137335903       -2.3783490917
 O         -2.9414501300       -2.1418958931        1.6827404284
 C         -2.7131697626       -0.0136602712       -0.4545184127
 C         -2.2954650038        0.1191449961        1.0144352428
 C         -1.3788631201        0.2114993734       -1.2020025867
 C         -0.5142792623        0.9937221824       -0.1664927124
 C         -1.8783175422       -1.2297604902        1.6249481920
 H         -3.1173570332       -1.0149598056       -0.6552680129
 H         -3.0971927192        0.5748495480        1.6006621666
 H         -0.9047247051       -0.7574643223       -1.4115604604
 H         -0.3246254662        2.0174271459       -0.5180150842
 H         -1.1203274049       -1.6993188727        0.9924646370
 H         -1.4383284014       -1.0444333325        2.6114937210
 H         -3.5095859401        1.2568334208       -1.6809886201
 H         -0.7761934091        1.0937166067       -2.8221679643
 H         -3.6101055529       -1.8262197151        2.3074134502
  30
        -59.78954777
 O          1.3086953261        2.3452050383       -0.2720292754
 O          4.7995043840       -0.7616286016       -0.0022973034
 O          0.5395355095       -2.0571883264        0.5745341006
 N          0.8740404823        0.1855929702        0.2033263694
 N          2.6448071932       -1.3487541313        0.2825702845
 C          3.1194697690        0.8487841740       -0.5807548240
 C          1.7153994193        1.2025281711       -0.1976322156
 C          3.6294256023       -0.4644196046       -0.0688268450
 C          1.2839692892       -1.1331492234        0.3636979961
 H          3.7878683009        1.6607402068       -0.2820935014
 H          3.1683838528        0.8191490833       -1.6767820487
 H          2.9353084103       -2.2914805376        0.5339008171
 O         -1.2238234640       -0.3153630537        1.2698327218
 O         -3.5257636533        1.4553142891        0.3495109935
 O         -1.4080215964        2.5110875482       -0.7491986077
 O         -3.4296892029       -2.2816618814       -0.9558258728
 C         -2.7154407991        0.5478280790       -0.3439313587
 C         -2.4081670876       -0.6586775554        0.5476292143
 C         -1.3114794891        1.1268857122       -0.6252062426
 C         -0.4884956607        0.6477962324        0.6012095553
 C         -2.2500546443       -1.9517265788       -0.2704080266
 H         -3.2100663847        0.2307167315       -1.2715480934
 H         -3.1941044237       -0.7806311742        1.2988110507
 H         -0.8962095480        0.6742189131       -1.5375607381
 H         -0.3112229137        1.4928918654        1.2844379463
 H         -1.4843534256       -1.8149406505       -1.0366326178
 H         -1.9215048848       -2.7548172768        0.3964163895
 H         -3.3232283829        2.3485810956        0.0230915447
 H         -0.5171900132        2.9032106416       -0.7272562743
 H         -4.1194200775       -2.5190171290       -0.3197341955
  30
        -59.78949399
 O          0.6207758765       -0.4612399469        2.1309031797
 O          4.6320769164       -0.8980921567       -0.1401023959
 O          1.1701363793        1.2576887689       -2.0313917804
 N          0.7540699075        0.2622789614       -0.0333416157
 N          2.8661991008        0.1436615547       -1.0724104262
 C          2.4806175070       -1.2165115541        0.8759587934
 C          1.2086793635       -0.4323251546        1.0774168774
 C          3.4489735937       -0.6581921758       -0.1212231520
 C          1.5704824316        0.5823200074       -1.1049428595
 H          2.1955362058       -2.2179133190        0.5295794015
 H          2.9689680496       -1.3573774974        1.8429250155
 H          3.4617302857        0.4953025003       -1.8199256154
 O         -1.3316484133        0.7839522982        1.0465068727
 O         -3.6839602901        1.1234702393       -0.8392682057
 O         -1.5722806355        1.2350318610       -2.3540837655
 O         -1.9270648361       -1.6415295150        2.6290780965
 C         -2.7884860782        0.0652007552       -0.6560460071
 C         -2.4553671468       -0.0757956957        0.8331598829
 C         -1.4086489316        0.3531085772       -1.2905718964
 C         -0.5837564759        0.9299512303       -0.1032990319
 C         -2.1634282671       -1.5238034213        1.2535809816
 H         -3.2180662774       -0.8603065481       -1.0617118334
 H         -3.2596313760        0.3277970834        1.4533017997
 H         -0.9518022383       -0.5897803104       -1.6240615905
 H         -0.3831786794        1.9994832405       -0.2601025515
 H         -3.0409431901       -2.1378890785        1.0432265533
 H         -1.3097608273       -1.9099294334        0.6777684573
 H         -3.4753676263        1.5546317894       -1.6860966053
 H         -0.6986793409        1.4835804122       -2.7028036976
 H         -1.1575926975       -1.0931858525        2.8591719487
  30
        -59.78944280
 O          1.4598582635        2.4542787377        0.6544139075
 O          4.6720109695       -0.8516507840       -0.3638895084
 O          0.2950848324       -1.8384166586       -0.2950164421
 N          0.8371230294        0.3218770311        0.2094132339
 N          2.4703599109       -1.2931542145       -0.2768673683
 C          3.2299263484        0.9054769420        0.3864402075
 C          1.7842903460        1.3106648151        0.4258765259
 C          3.5505789045       -0.4666101498       -0.1212190689
 C          1.1362908905       -0.9909329369       -0.1196708470
 H          3.6179582566        0.9860377125        1.4093606950
 H          3.7904967905        1.6516059373       -0.1847224026
 H          2.6584605889       -2.2481518765       -0.5754543760
 O         -1.1770600456       -0.1378997401        1.3315596575
 O         -3.3463608697        1.6858789700        0.1153870721
 O         -1.2741962518        1.7739093977       -1.6496526241
 O         -2.5756594377       -2.1995814572       -0.7161151485
 C         -2.8220170252        0.4454621039       -0.2792491779
 C         -2.5271698987       -0.4301698026        0.9439574830
 C         -1.4180681588        0.6043074344       -0.8974049372
 C         -0.5660155952        0.6895886302        0.3794965724
 C         -2.7104706381       -1.9302261979        0.6623369945
 H         -3.5172380129       -0.0574305636       -0.9606356522
 H         -3.1636688711       -0.1307568754        1.7821713894
 H         -1.1640282587       -0.3011299143       -1.4551866749
 H         -0.5533554144        1.7346499998        0.7251459273
 H         -1.9501944467       -2.4614421695        1.2427576805
 H         -3.7101762510       -2.2305516815        1.0013707210
 H         -2.9483403799        2.3740024194       -0.4465863752
 H         -1.5787955230        1.6214432674       -2.5562862342
 H         -2.4652888038       -3.1522789678       -0.8394420961
  30
        -59.78908936
 O          0.7298238591        0.0879505785        2.2283278615
 O          4.3855267342       -1.2982264635       -0.1046394818
 O          1.2432365002        1.2449559469       -2.0839692402
 N          0.7143934249        0.3886287503       -0.0422938537
 N          2.7804983763       -0.0483017357       -1.0718469416
 C          2.2208586422       -1.2474058477        0.9366313981
 C          1.1551851062       -0.2008221723        1.1385369445
 C          3.2490877649       -0.8841222718       -0.0943454479
 C          1.5431746673        0.5575215519       -1.1333416973
 H          1.7179791574       -2.1542099110        0.5829277092
 H          2.6992485234       -1.4790786782        1.8892232145
 H          3.4108168780        0.1862218308       -1.8349993421
 O         -1.2812799007        1.2166308115        1.0050792256
 O         -3.7458981730        0.9981217113       -0.7136309582
 O         -1.7133837602        0.6110609144       -2.3750981000
 O         -1.1435508933       -1.8469441898        1.0427388720
 C         -2.8317745723        0.0301069571       -0.2749216519
 C         -2.3428798272        0.2681775415        1.1557399707
 C         -1.5188098726        0.1150400562       -1.0929250507
 C         -0.6166906437        1.0206710741       -0.1939894113
 C         -1.9368103630       -1.0221270918        1.8761038076
 H         -3.3209762857       -0.9355207524       -0.4013195704
 H         -3.0952254155        0.7699731984        1.7697824591
 H         -1.0571038086       -0.8739403204       -1.1725088682
 H         -0.4408384281        1.9909940190       -0.6767893082
 H         -1.3749966656       -0.7431973284        2.7756160122
 H         -2.8583647422       -1.5394710035        2.1606886168
 H         -3.4862467797        1.8705161247       -0.3801902168
 H         -2.5818059758        1.0585034910       -2.3968682715
 H         -1.1101070513       -2.7273396927        1.4437519197
  30
        -59.78881276
 O          0.8256446983        0.4547437374        2.2071874582
 O          4.3558557491       -1.3710112810        0.0011974004
 O          1.1134733084        0.7599743526       -2.2801007311
 N          0.7042866055        0.3577674627       -0.0792958265
 N          2.7055507413       -0.3168653551       -1.1134339297
 C          2.2342189631       -1.1155450305        1.1015437547
 C          1.1930258414       -0.0260807633        1.1652565403
 C          3.2202310615       -0.9557373003       -0.0168975033
 C          1.4700853081        0.2839047064       -1.2243738431
 H          1.7009738195       -2.0556440095        0.9257498002
 H          2.7486137440       -1.1919146295        2.0602565976
 H          3.2976646279       -0.2375715407       -1.9369026771
 O         -1.2556898378        1.3067003510        0.9226748265
 O         -3.9065586339        0.5527589367       -0.6947150276
 O         -1.8920132094        1.1075780180       -2.2554532956
 O         -0.9673518048       -1.7225316064        1.1923712114
 C         -2.7337771629       -0.0901980376       -0.2927411543
 C         -2.2714564455        0.3233201256        1.1192614541
 C         -1.5192060709        0.2788192379       -1.1951585090
 C         -0.5818115985        1.0837657318       -0.2575284509
 C         -1.8066933084       -0.8736181795        1.9554549823
 H         -2.9443400188       -1.1603277187       -0.3299823155
 H         -3.0721434071        0.8317038224        1.6626741570
 H         -1.0102894902       -0.6253637825       -1.5420660332
 H         -0.3453610641        2.0512845040       -0.7197426461
 H         -1.2631651594       -0.4904309830        2.8276388892
 H         -2.7006770538       -1.4117680236        2.2836407805
 H         -3.6874018367        1.4465145801       -1.0066787886
 H         -2.2989575367        0.5836285013       -2.9607786517
 H         -0.9237791995       -2.5772058494        1.6450863310
  30
        -59.78872394
 O          1.0693389555        1.0565783914        2.0509911361
 O          4.2056872282       -1.5741743764       -0.0418814227
 O          0.9452542966        0.5159037499       -2.3342449223
 N          0.6618712343        0.3516349255       -0.0836068427
 N          2.5463128887       -0.5335846728       -1.1474159984
 C          2.3301471483       -0.8092638189        1.2461965326
 C          1.3166683057        0.2946483840        1.1548169343
 C          3.1317502910       -1.0206770417       -0.0040723446
 C          1.3495285616        0.1323784616       -1.2536531341
 H          1.7664804635       -1.7274989931        1.4558717034
 H          2.9929817501       -0.6417704526        2.0965846854
 H          3.0593227291       -0.6497596010       -2.0186925082
 O         -1.3254077854        0.8996814597        1.0411872647
 O         -3.7939423863        1.0600743171       -0.5534128081
 O         -1.8320928365        1.2153117270       -2.3302597268
 O         -0.7160333521       -1.5146544171        2.1632700316
 C         -2.8490449090        0.0315073596       -0.4929636801
 C         -2.3227036899       -0.1131822549        0.9390784314
 C         -1.5514311661        0.3722038113       -1.2600282922
 C         -0.6551866479        1.0281226427       -0.1659136564
 C         -1.7426234689       -1.5201645114        1.2046038749
 H         -3.2894783920       -0.9039665855       -0.8635110695
 H         -3.0839059490        0.1518511877        1.6750107349
 H         -1.0913425893       -0.5614521879       -1.6033421008
 H         -0.4996399636        2.0961002556       -0.3673866660
 H         -2.5594238877       -2.1884696459        1.5015670595
 H         -1.2838740294       -1.9153474440        0.2950804071
 H         -3.7015050214        1.5079494606       -1.4109834971
 H         -1.0358978854        1.2982464536       -2.8795346558
 H         -1.0524700330       -1.1483817538        2.9931102388
  30
        -59.78834179
 O          1.4218986634        2.3215161523        0.0167958662
 O          4.1213023535       -1.3768117389       -0.8850930534
 O          0.4366320868       -1.7228333835        1.6375440766
 N          0.6544392685        0.2399687887        0.4553207344
 N          2.2003907174       -1.5146970654        0.2757499560
 C          2.6609075528        0.5235842845       -0.9267840824
 C          1.5574270619        1.1220979678       -0.1070231949
 C          3.0857739752       -0.8592460683       -0.5304287743
 C          1.0237922230       -1.0458774320        0.8302483210
 H          3.5206636965        1.1971918988       -0.9417619923
 H          2.2949448258        0.4681441789       -1.9595007325
 H          2.4613017903       -2.4494210477        0.5819075878
 O         -1.5343952630       -0.1275730300        1.3538360862
 O         -3.4591601912        1.0461905458       -1.2494525464
 O         -2.1915561594        2.5888984770        0.4266974664
 O         -0.7119503686       -1.8178012323       -1.0674520817
 C         -2.2246809384        0.5600321077       -0.8277110002
 C         -2.3245376874       -0.5540184200        0.2435200251
 C         -1.3424897862        1.6348420755       -0.1487484827
 C         -0.6199131538        0.8262682454        0.9590795168
 C         -1.8928998489       -1.9248683533       -0.2916265377
 H         -1.7190484333        0.1667803611       -1.7138382525
 H         -3.3485449348       -0.6418824634        0.6179289867
 H         -0.6566429849        2.0955089456       -0.8599029100
 H         -0.3870411734        1.4475963812        1.8317415006
 H         -1.7195411202       -2.5819996051        0.5689624598
 H         -2.7146453026       -2.3128699134       -0.9008787085
 H         -3.7477586531        1.7288136801       -0.6189805890
 H         -1.7012756244        3.3959668624        0.6332065103
 H         -0.6082639425       -2.6397282341       -1.5679984836
  30
        -59.78830543
 O          0.8672714654        0.6242030904        2.1501677689
 O          4.1480437714       -1.6872324657       -0.0021679032
 O          1.2380203439        0.8741352314       -2.2839995942
 N          0.6929459188        0.4104112293       -0.1240128156
 N          2.6449427350       -0.4366608613       -1.1201938589
 C          2.0913044318       -1.1438015506        1.1125036247
 C          1.1668765299        0.0436851415        1.1396395586
 C          3.0757677625       -1.1293153716       -0.0180194404
 C          1.4950888197        0.3080078082       -1.2423754358
 H          1.4597639953       -2.0292225450        0.9809395535
 H          2.6072615259       -1.2365086282        2.0688019660
 H          3.2530536101       -0.4233932288       -1.9360004239
 O         -1.2643812964        1.3528620609        0.8763555186
 O         -3.5905401889       -0.4769274683       -0.9775673040
 O         -2.3149862273        1.7071533544       -1.8352916519
 O         -0.9155394917       -1.6563889796        1.5677929420
 C         -2.2902528268       -0.3109434517       -0.5017791099
 C         -2.2275206070        0.2897627765        0.9235439059
 C         -1.4748361173        0.7070129176       -1.3320656258
 C         -0.5047511814        1.2757001438       -0.2778293922
 C         -1.9046353750       -0.7445369053        2.0061020569
 H         -1.8012736115       -1.2896493918       -0.5061775685
 H         -3.1837408255        0.7535366354        1.1877332731
 H         -0.9799098214        0.2614494223       -2.1926948248
 H         -0.1639987777        2.2848409667       -0.5397888341
 H         -1.5516232311       -0.2021589520        2.8915842791
 H         -2.8329292120       -1.2760403934        2.2381259495
 H         -3.8066800302        0.2870597740       -1.5438346533
 H         -2.5886690903        2.3009739933       -1.1181282797
 H         -0.8865389251       -2.3835044057        2.2059946911
  30
        -59.78815069
 O          1.1000280211        1.8053289945       -1.3214073570
 O          4.9029024943       -0.6094813364       -0.1375486178
 O          1.0653904647       -1.0544074427        2.1639431802
 N          0.9457342649        0.1636219966        0.2394626925
 N          2.9507387135       -0.8373432991        0.9586842136
 C          2.9481228258        0.3276794177       -1.1583035042
 C          1.5967706811        0.8497688112       -0.7665439827
 C          3.7137652360       -0.3984499531       -0.0920293753
 C          1.6119241229       -0.6226306913        1.1785424781
 H          3.5507064823        1.1436237467       -1.5652560279
 H          2.7946273908       -0.3761414559       -1.9864441702
 H          3.4264804961       -1.3592474182        1.6921146720
 O         -1.0286512087       -1.0056617752        0.3812758235
 O         -3.3005745857        1.1576811959        1.0175889997
 O         -1.3145727207        2.5219541618       -0.1740685084
 O         -4.1623046936       -1.7549751160       -1.3600473219
 C         -2.7372263560        0.5771596637       -0.1271820650
 C         -2.4346724139       -0.9030636150        0.1495152288
 C         -1.3425383298        1.1565528389       -0.4358241226
 C         -0.4858560146        0.2896730174        0.5106387106
 C         -2.8036463060       -1.8235005324       -1.0234935971
 H         -3.4153475584        0.6865886273       -0.9833383874
 H         -2.9673539897       -1.2035041512        1.0610332174
 H         -1.0869243605        0.9266639409       -1.4761730395
 H         -0.6095392821        0.6554948724        1.5441327271
 H         -2.2542390129       -1.5062778714       -1.9130257495
 H         -2.4970379831       -2.8451053889       -0.7712978989
 H         -3.2085485845        2.1213586663        0.9452252362
 H         -0.5168115386        2.8975866412       -0.5821241761
 H         -4.6991185207       -2.0956305570       -0.6302199052
