  30
        -59.79767795
 O          1.4999857843        2.3671634083        0.9124089705
 O          4.6855375047       -0.9095110952       -0.0678975947
 O          0.3022808568       -1.7716846966       -0.5356366904
 N          0.8518312267        0.3374970086        0.1363143493
 N          2.4812793870       -1.2864838762       -0.3163442726
 C          3.2198254013        0.9853074118        0.0350865494
 C          1.8047724424        1.3050638055        0.4212384205
 C          3.5612715313       -0.4674613568       -0.1011222913
 C          1.1516692382       -0.9514388051       -0.2640819955
 H          3.9040348698        1.4726597451        0.7340419580
 H          3.4021368976        1.4590332874       -0.9382375645
 H          2.6718447317       -2.2693426151       -0.5023412344
 O         -1.1266306325       -0.2599353861        1.2457836418
 O         -3.3593425068        1.7018949512        0.0028071754
 O         -1.3021700143        1.8581962574       -1.6407551538
 O         -2.5117706286       -2.4001774584       -0.4921311004
 C         -2.8166964297        0.4423747081       -0.3053097475
 C         -2.5230211595       -0.4043143938        0.9491821342
 C         -1.4163066988        0.6865886430       -0.9042514080
 C         -0.5468508978        0.6722941207        0.3748683234
 C         -2.8727106543       -1.8901187984        0.7655065326
 H         -3.4495286657       -0.1110520300       -1.0040671220
 H         -3.0770853117       -0.0100955756        1.8097792397
 H         -1.1315186021       -0.1440048315       -1.5547121786
 H         -0.5425525632        1.6771127100        0.8240599784
 H         -2.3907797332       -2.4520019708        1.5736196519
 H         -3.9552249383       -2.0133466905        0.8372455621
 H         -4.3184429931        1.6415680016        0.1064009922
 H         -1.9037289049        2.5190557514       -1.2528355920
 H         -1.5431592861       -2.3908673005       -0.5692681174
