30
barbituric_acid_Nlink_ribose  charge=0 mult=1  seed=1_b3lyp_pcm
O      0.33494400     1.53176200     1.18411100
O      4.84780300     0.59270300     0.12747600
O      1.52159700    -1.97454700    -1.49796700
N      0.86102400    -0.28228400    -0.08699700
N      3.13982700    -0.66778400    -0.64121900
C      2.65032600     1.14679500     0.89364000
C      1.18858100     0.83666800     0.67996100
C      3.65775300     0.36044300     0.10829800
C      1.81530700    -1.03851400    -0.78792500
H      2.86048500     0.99515900     1.95508300
H      2.80442400     2.20835300     0.70458200
H      3.79301900    -1.23073900    -1.17053000
O     -1.21029600     0.34910200    -1.03477300
O     -3.25244900    -1.83080700    -0.13624900
O     -1.21342100    -2.17565900     1.53426400
O     -2.38623100     2.88340200    -0.98118800
C     -2.80225200    -0.61438100     0.45882800
C     -2.57990700     0.49084900    -0.57860000
C     -1.38268300    -0.89143100     0.98406600
C     -0.54642800    -0.65654400    -0.28972500
C     -2.78508600     1.89883500    -0.03416200
H     -3.47886900    -0.30589800     1.25516500
H     -3.22565000     0.33469900    -1.44340300
H     -1.12788400    -0.16809200     1.75018500
H     -0.50924100    -1.58208200    -0.85804300
H     -3.84615500     2.05751500     0.15622000
H     -2.23909900     2.02875000     0.90291000
H     -4.21309700    -1.83626200    -0.17975100
H     -1.79364400    -2.77480600     1.04409600
H     -1.45947800     2.71990300    -1.19067700
