15
calc_836ae49f6e3efb58; angstrom; atom order from source job; valid
O -0.195662 2.643691 0.000560
O -2.973559 -0.985716 0.000734
N -0.729844 -1.400026 -0.000576
N 2.145462 0.587026 0.000027
N -1.532972 0.785319 -0.000712
N 1.698866 -1.598609 0.000159
C 0.772068 0.464110 -0.000559
C 0.542465 -0.894020 -0.000306
C -0.284039 1.414658 -0.000202
C -1.816932 -0.569197 -0.000130
C 2.644241 -0.660172 0.000361
H -0.899537 -2.396942 0.001401
H 2.676281 1.446393 0.000204
H -2.342977 1.393196 0.000099
H 3.702604 -0.854704 0.000672
