35
calc_a2c73d7b05c86175; angstrom; atom order from source job; valid
P -3.327099 -1.113048 -0.000911
O -0.036224 1.062595 1.018385
O 0.102889 4.116539 0.204926
O 2.042096 2.827374 -1.303600
O -2.614216 0.168429 0.582360
O 3.745668 0.531211 1.202803
O -3.831295 -1.838103 1.301291
O -2.211398 -2.083389 -0.541806
O -4.324309 -0.840322 -1.047001
N 1.816169 -0.055639 0.142491
N 3.594121 -1.588481 0.425806
N 3.411498 -3.718269 -0.376245
C -0.277230 2.917695 -0.439525
C 0.937514 2.081010 -0.864691
C -1.025356 1.941490 0.465801
C 1.216327 1.246013 0.390939
C -2.067841 1.158349 -0.302675
C 1.093315 -1.001180 -0.516421
C 3.098846 -0.347546 0.621127
C 1.574912 -2.237032 -0.721744
C 2.879774 -2.506201 -0.212452
H -0.873988 3.213577 -1.298971
H 0.644419 1.427653 -1.686380
H -1.502070 2.466294 1.293561
H 1.899267 1.777517 1.049930
H -1.628159 0.676584 -1.177561
H -2.864278 1.827157 -0.626453
H 0.467727 3.931027 1.074816
H 2.154384 3.569233 -0.699427
H 0.111044 -0.704922 -0.852329
H 1.000608 -2.988384 -1.240055
H 2.901633 -4.440844 -0.853227
H 4.329724 -3.918092 -0.018360
H -4.552101 -1.393825 1.761893
H -1.501513 -2.280797 0.080846
