35
calc_a2c73d7b05c86175; angstrom; first printed source-job orientation; unoptimized start
P -3.998731 -1.090662 0.056066
O -0.046321 0.506360 0.617876
O -0.285984 3.829372 0.161441
O 1.978554 2.934509 -1.122900
O -2.792589 -0.168248 0.515290
O 3.533621 0.729481 1.799417
O -4.373600 -1.846706 1.396043
O -3.410705 -2.243918 -0.855220
O -5.094385 -0.388627 -0.642123
N 2.176879 -0.017941 0.108008
N 4.168246 -1.161403 0.717288
N 4.785932 -3.070246 -0.387248
C -0.408320 2.588800 -0.526227
C 0.965930 1.982003 -0.881471
C -1.069025 1.483804 0.324547
C 1.231284 1.065436 0.320935
C -2.220825 0.815702 -0.385364
C 1.922233 -0.957895 -0.848947
C 3.325438 -0.125590 0.923903
C 2.758450 -1.993782 -1.056976
C 3.916691 -2.065375 -0.227073
H -0.980388 2.811071 -1.423086
H 0.864836 1.382072 -1.784586
H -1.421751 1.913427 1.264776
H 1.611511 1.646065 1.158521
H -1.883107 0.318559 -1.294711
H -2.979471 1.557321 -0.629413
H 0.042344 3.686119 1.058829
H 1.838159 3.675874 -0.517185
H 1.013269 -0.830760 -1.416045
H 2.556348 -2.736405 -1.812167
H 4.635659 -3.773581 -1.090632
H 5.604309 -3.128552 0.196504
H -4.807324 -1.295679 2.064079
H -2.630706 -2.694882 -0.500780
