32
calc_bdef5ac53c00d7a1; angstrom; atom order from source job; valid
O 1.932175 -1.677299 -1.133488
O -0.056424 1.763552 1.185323
N 3.242205 -0.065746 -0.231189
N 0.897004 0.006033 0.056611
C 2.013248 -0.648893 -0.482452
C 3.357096 1.096897 0.474261
C 4.424338 -0.744734 -0.771221
C 2.289822 1.746308 0.971485
C 0.963864 1.224735 0.775029
H 4.364395 1.462359 0.604588
H 4.367463 -0.793311 -1.855719
H 5.304076 -0.182381 -0.477772
H 4.488395 -1.754906 -0.375432
H 2.399153 2.665151 1.522618
O -1.170622 0.248421 -1.066125
O -2.903147 -2.188779 -0.210148
O -0.965987 -2.152364 1.612400
O -2.667151 2.589016 -1.141299
C -2.693861 -0.898363 0.364254
C -2.570587 0.196854 -0.698480
C -1.291348 -0.927695 0.996381
C -0.406481 -0.603006 -0.224114
C -3.021102 1.570405 -0.212605
H -3.468940 -0.678673 1.098162
H -3.128846 -0.077045 -1.594569
H -1.208092 -0.149051 1.745602
H -0.179089 -1.529275 -0.744284
H -2.592033 1.786521 0.767712
H -4.107650 1.581587 -0.129985
H -3.845438 -2.345067 -0.320973
H -1.398846 -2.851287 1.102854
H -1.709709 2.547953 -1.249286
