31
DFT refinement start; not an optimized result
O -2.075380 -0.432213 1.369738
O -1.344320 2.461999 -0.428268
O -3.824111 1.684893 0.111055
O -1.697635 -1.697223 -1.289454
O 4.540972 -1.286732 -0.350897
N 0.186066 -0.270806 0.784369
N 1.713195 -1.893473 0.838400
N 1.487617 1.479941 -0.297515
N 3.665968 0.761734 -0.782026
C -1.510706 1.080156 -0.391586
C -1.070037 0.436292 0.950551
C -3.003980 0.710818 -0.471029
C -3.069569 -0.580185 0.354696
C -2.849657 -1.843362 -0.483573
C 1.307325 0.235884 0.210265
C 0.493595 -1.549090 1.136521
C 2.262642 -0.787192 0.250430
C 3.570937 -0.544389 -0.284157
C 2.673648 1.677619 -0.772220
H -0.978513 0.583364 -1.211230
H -0.927937 1.212105 1.718021
H -3.307465 0.532816 -1.510504
H -4.028632 -0.653329 0.873321
H -2.733701 -2.690464 0.202987
H -3.739825 -1.997626 -1.103593
H -0.393446 2.658063 -0.469854
H -3.429225 2.555414 -0.065317
H -0.217241 -2.186890 1.619653
H -1.613727 -2.475715 -1.857672
H 2.891178 2.646797 -1.194014
H 4.569294 1.004681 -1.176727
