31
calc_aa14d9bca0bb84b5; angstrom; atom order from source job; valid
O -1.453227 0.074806 -1.333384
O -1.929617 -1.792879 1.704235
O -3.978822 -1.091569 0.159649
O -1.549774 2.523337 0.381261
O 4.882811 -0.275380 0.077797
N 0.371752 -1.050670 -0.412760
N 2.399705 -1.999629 -0.561459
N 1.030513 1.213953 0.255313
N 3.362788 1.398066 0.455146
C -1.764466 -0.664246 0.884594
C -1.078150 -0.968760 -0.464258
C -3.075476 -0.016213 0.418880
C -2.668745 0.721477 -0.866325
C -2.407430 2.211024 -0.703608
C 1.283416 -0.076936 -0.083366
C 1.111397 -2.176455 -0.693906
C 2.528919 -0.684911 -0.179504
C 3.710660 0.075207 0.104969
C 2.106269 1.899965 0.514649
H -1.174919 0.065515 1.434128
H -1.416419 -1.940493 -0.833844
H -3.485919 0.659061 1.166923
H -3.437134 0.579269 -1.628439
H -2.009858 2.597008 -1.647776
H -3.357583 2.712229 -0.514061
H -2.751137 -2.224415 1.430026
H -4.885029 -0.773637 0.207340
H 0.630229 -3.094256 -0.989628
H -0.675868 2.108998 0.240951
H 2.024310 2.940183 0.796644
H 4.136687 2.011069 0.674850
