31
calc_aa14d9bca0bb84b5; angstrom; first printed source-job orientation; unoptimized start
O -1.516477 -0.101570 1.329312
O -1.773279 2.212722 -1.387847
O -3.937714 1.380134 -0.129874
O -1.845697 -2.250089 -0.802696
O 4.793854 -0.305812 -0.044256
N 0.401173 0.966240 0.578323
N 2.516937 1.629949 0.842414
N 0.802809 -1.231077 -0.410740
N 3.089752 -1.682689 -0.635107
C -1.693393 0.969734 -0.775199
C -1.034056 1.011547 0.627047
C -3.058389 0.330960 -0.450524
C -2.742299 -0.575300 0.753520
C -2.600652 -2.055262 0.364287
C 1.186639 -0.043480 0.113668
C 1.264414 1.936154 1.001664
C 2.510022 0.380553 0.285439
C 3.586209 -0.482341 -0.109417
C 1.784528 -1.996322 -0.761132
H -1.109909 0.310962 -1.424471
H -1.309590 1.947434 1.138292
H -3.424482 -0.258888 -1.295068
H -3.517208 -0.477584 1.522819
H -2.158407 -2.586847 1.215005
H -3.590144 -2.468338 0.157784
H -2.587774 2.649581 -1.078837
H -4.854125 1.075694 -0.167106
H 0.924490 2.862372 1.418243
H -0.929835 -1.945390 -0.640846
H 1.539668 -2.956693 -1.188883
H 3.797725 -2.345719 -0.936116
