30
calc_3d9f45370675f460; angstrom; atom order from source job; valid
O 0.923115 -1.068877 2.339994
O 1.661652 -1.418909 -2.324381
O 3.975321 1.518976 0.229681
N 2.380735 0.261674 1.252659
N 2.777796 0.061814 -1.039914
C 0.916978 -1.228210 -0.055564
C 1.389491 -0.694719 1.284774
C 1.808934 -0.894887 -1.241161
C 3.102818 0.681968 0.152008
H 0.883573 -2.315695 0.019007
H 2.667574 0.656240 2.138971
H 3.341981 0.324407 -1.837560
O -0.569451 0.655391 -0.309531
O -3.752387 -0.576501 -0.565725
O -2.107257 -2.534663 0.271425
O -1.466970 3.436210 -0.329731
C -2.730738 -0.127868 0.320825
C -1.956356 1.027527 -0.346106
C -1.649939 -1.230486 0.541236
C -0.517647 -0.761246 -0.384908
C -2.147240 2.372723 0.327504
H -3.171450 0.173679 1.269749
H -2.280732 1.084709 -1.391165
H -1.313874 -1.211705 1.574026
H -0.733280 -1.106619 -1.402803
H -3.219616 2.576764 0.395430
H -1.743824 2.334231 1.339266
H -4.508934 -0.876881 -0.052800
H -2.747584 -2.471970 -0.451036
H -1.893543 3.606590 -1.175819
