30
calc_3d9f45370675f460; angstrom; first printed source-job orientation; unoptimized start
O 0.217485 -0.027039 -2.469558
O 1.998257 2.487057 1.070044
O 3.237795 -1.796107 0.378939
N 1.733274 -0.886947 -1.049590
N 2.598840 0.347799 0.720652
C 0.688467 1.239358 -0.495117
C 0.858659 0.083099 -1.444601
C 1.820634 1.445145 0.478235
C 2.553177 -0.855329 0.053417
H 0.485902 2.163607 -1.042450
H 1.735261 -1.758785 -1.574287
H 3.282834 0.416427 1.470680
O -0.491628 -0.308055 0.986052
O -3.381367 0.553108 1.379634
O -2.488214 2.275585 -0.425659
O -0.262131 -2.899174 -0.116308
C -2.741848 -0.065770 0.293435
C -1.669417 -1.074924 0.728515
C -1.898236 1.018410 -0.414352
C -0.574503 0.963815 0.382481
C -1.424472 -2.147712 -0.350407
H -3.465373 -0.515782 -0.392515
H -1.922524 -1.553589 1.680440
H -1.720990 0.741637 -1.457533
H -0.594195 1.732144 1.169223
H -2.308573 -2.794687 -0.407285
H -1.279701 -1.671342 -1.322630
H -4.077257 -0.016041 1.734908
H -2.957871 2.401762 0.417462
H -0.359215 -3.405309 0.702697
