33
DFT refinement start; not an optimized result
O -1.870632 0.970708 -0.904909
O -1.919953 -2.147598 0.816675
O -3.970901 -1.262487 -0.607846
O -2.755407 1.937656 1.843465
O 4.653026 0.738181 0.786056
N 0.111941 0.282994 0.113655
N 1.635275 1.400962 1.303609
N 1.561102 -1.110060 -1.230013
N 3.834235 -0.730014 -0.730229
N 3.187299 -2.274780 -2.333286
C -2.060506 -0.770549 0.710868
C -1.169016 -0.132829 -0.385735
C -3.470788 -0.309057 0.293649
C -3.192283 1.049304 -0.368925
C -3.351508 2.231078 0.596454
C 1.326030 -0.172906 -0.295816
C 0.370931 1.226421 1.073082
C 2.277097 0.527121 0.456789
C 3.660020 0.252484 0.248721
C 2.836054 -1.365116 -1.422002
H -1.798210 -0.336036 1.679639
H -0.962464 -0.857196 -1.186403
H -4.120427 -0.201866 1.166469
H -3.853819 1.216644 -1.225620
H -2.874346 3.105198 0.137053
H -4.422827 2.424616 0.720312
H -2.462435 -2.561689 0.121899
H -4.918818 -1.132605 -0.747505
H -0.416318 1.757603 1.568132
H -2.985929 2.635761 2.473054
H 4.801123 -0.969445 -0.922345
H 2.452656 -2.754011 -2.823943
H 4.148694 -2.518431 -2.490281
