33
DFT refinement start; not an optimized result
O -1.617568 0.164993 1.398716
O -2.207531 1.661708 -1.795110
O -4.219331 0.745794 -0.369384
O -1.450367 -2.472133 -0.094820
O 4.663336 0.634819 -0.055315
N 0.118904 1.312559 0.370037
N 2.096931 2.349334 0.447729
N 0.861278 -0.941367 -0.131385
N 3.203555 -1.076877 -0.307361
N 1.852577 -2.943366 -0.593882
C -1.910122 0.636127 -0.906291
C -1.303770 1.132085 0.430978
C -3.141023 -0.155857 -0.421107
C -2.713443 -0.655946 0.970743
C -2.290479 -2.133064 0.975590
C 1.063286 0.364345 0.117222
C 0.813083 2.479421 0.562461
C 2.298510 1.018836 0.168366
C 3.492443 0.269453 -0.056280
C 1.958279 -1.640313 -0.341679
H -1.193156 -0.030560 -1.393084
H -1.741154 2.106846 0.699354
H -3.351806 -0.995856 -1.088430
H -3.524124 -0.511961 1.695020
H -1.802471 -2.336213 1.937053
H -3.177678 -2.763267 0.883049
H -3.100999 1.989944 -1.586375
H -5.057942 0.266810 -0.334090
H 0.319977 3.405150 0.778428
H -0.655589 -1.890683 -0.059817
H 4.017034 -1.660324 -0.473309
H 0.930072 -3.347952 -0.628007
H 2.660341 -3.511093 -0.779570
