32
calc_699eb456c0bcee04; angstrom; atom order from source job; valid
O 1.183198 0.289554 1.052247
O 1.221396 -2.121203 -1.608346
O 3.425595 -1.709785 -0.111794
O 2.275671 2.856934 1.131672
O -0.334913 1.581694 -1.087363
O -4.746992 0.866166 -0.347577
N -0.896543 -0.309440 0.101654
N -2.524627 1.175091 -0.698421
C 1.341679 -0.839743 -1.037358
C 0.515274 -0.675588 0.256741
C 2.769011 -0.516371 -0.541597
C 2.535542 0.501099 0.575960
C 2.694921 1.948095 0.121796
C -1.911103 -1.067553 0.689256
C -1.190032 0.866763 -0.595034
C -3.209071 -0.707020 0.555761
C -1.552897 -2.293700 1.473985
C -3.600372 0.467167 -0.173020
H 1.035090 -0.112672 -1.780467
H 0.519976 -1.632870 0.767633
H 3.382316 -0.110961 -1.343378
H 3.206193 0.315481 1.417328
H 3.749959 2.146900 -0.063896
H 2.136731 2.117572 -0.800745
H 1.881162 -2.686313 -1.180842
H 3.270514 -1.864162 0.826240
H -3.986310 -1.301166 1.006443
H -0.887162 -2.059215 2.304926
H -2.460182 -2.729689 1.880074
H -1.065032 -3.043933 0.851719
H -2.731200 2.021826 -1.210893
H 1.346776 2.673875 1.313578
