36
calc_706acf64f1683d4e; angstrom; atom order from source job; valid
P -4.686922 -0.688477 -0.092417
O -0.093508 0.064822 1.254652
O -0.097296 2.835119 -0.425770
O -2.261937 1.570572 -1.212371
O -3.707101 -0.293755 1.104618
O -4.755667 0.596504 -1.012471
O -6.122375 -0.730555 0.580521
O 6.097388 -1.926241 -0.684142
O -4.357864 -1.962379 -0.752124
N 1.943368 -0.118884 0.141639
N 2.995265 -1.945668 -0.619154
N 3.861741 1.284542 0.672587
N 5.881642 0.185041 0.183721
C 0.133008 1.456874 -0.675400
C -1.241740 0.766719 -0.649127
C 0.875317 0.793571 0.514916
C -1.412414 0.440748 0.844728
C -2.334687 -0.716783 1.199982
C 3.288227 0.144671 0.220321
C 1.835705 -1.392646 -0.371883
C 3.921971 -0.995148 -0.256577
C 5.354009 -1.030750 -0.301535
C 5.160957 1.245300 0.632459
H 0.660735 1.311637 -1.614903
H -1.204788 -0.155943 -1.226694
H 1.332274 1.570266 1.126779
H -1.739787 1.337474 1.380958
H -2.170274 -1.004898 2.235607
H -2.158879 -1.579351 0.558868
H 0.581806 3.366830 -0.851758
H -2.040943 2.496901 -1.030608
H 0.878006 -1.860823 -0.520932
H 5.737381 2.095496 0.969821
H 6.890712 0.252655 0.189629
H -3.876198 1.032327 -1.141303
H -6.455561 0.121364 0.888610
