32
calc_d6e0ee5600c77646; angstrom; atom order from source job; valid
O -1.492425 0.057836 -1.342091
O -1.904022 -1.804768 1.694430
O -3.977945 -1.094974 0.132864
O -1.525315 2.482411 0.456544
N 0.349501 -1.022553 -0.420661
N 2.385952 -1.948295 -0.519768
N 0.996723 1.252589 0.212174
N 3.365307 1.485370 0.442187
N 4.848865 -0.250653 0.095883
C -1.771990 -0.673846 0.872531
C -1.092936 -0.970719 -0.471128
C -3.082537 -0.034974 0.420888
C -2.668024 0.727144 -0.839148
C -2.378191 2.201700 -0.634724
C 1.238245 -0.029057 -0.094745
C 1.105261 -2.136629 -0.664107
C 2.486714 -0.618059 -0.161729
C 3.591580 0.198976 0.127043
C 2.109120 1.926787 0.465043
H -1.188255 0.058715 1.424687
H -1.416378 -1.948337 -0.838247
H -3.500732 0.628328 1.177321
H -3.451317 0.639103 -1.594234
H -1.966578 2.602321 -1.566508
H -3.325000 2.708157 -0.442984
H -2.589892 -2.367153 1.320067
H -4.826904 -0.722179 -0.114668
H 0.636753 -3.066488 -0.945244
H -0.653679 2.059983 0.308511
H 1.980942 2.970928 0.722194
H 5.043612 -1.214568 -0.108611
H 5.607185 0.364015 0.335481
