34
calc_c921217b0ad50215; angstrom; atom order from source job; valid
O -5.629035 -1.013202 0.265037
O -3.566554 -1.859772 0.504272
N -2.507817 0.828138 0.087273
N -4.588969 1.452495 -0.408054
C -3.828600 0.447214 0.001192
C -2.455297 2.135855 -0.290828
C -3.748620 2.500918 -0.592773
C -4.297067 -0.908918 0.281605
H -1.534795 2.686861 -0.297091
H -4.097436 3.462597 -0.928311
H -5.858251 -1.939683 0.435077
P 4.248074 0.093262 0.207795
O -0.303545 0.887814 0.824917
O 1.452953 -1.629240 -1.061045
O -0.791301 -2.307657 -0.000743
O 3.102510 0.973822 -0.473756
O 4.055635 -1.341950 -0.427426
O 5.599041 0.618882 -0.439274
O 4.293226 0.175891 1.676206
C 0.577242 -0.535269 -0.821410
C 0.932541 0.288915 0.427688
C -0.866106 -1.000205 -0.531533
C -1.371209 0.013553 0.529938
C 1.921600 1.427881 0.211452
H 0.594886 0.100404 -1.704829
H 1.291350 -0.384794 1.212988
H -1.488230 -0.977434 -1.424973
H -1.680574 -0.528682 1.421757
H 1.478634 2.178476 -0.438612
H 2.195009 1.887095 1.158917
H 1.042263 -2.416412 -0.669266
H -1.695143 -2.593441 0.193059
H 3.116763 -1.524288 -0.687475
H 5.701587 0.429578 -1.380189
