39
calc_a3a7174101acabd5; angstrom; atom order from source job; valid
N -1.817605 -0.685416 -0.019130
N -3.152575 -2.403264 0.529113
N -5.274221 -1.271764 0.277811
N -5.096323 1.037422 -0.356335
N -3.106469 2.163649 -0.678947
N -7.148314 0.044594 -0.027513
C -3.128375 -0.212346 -0.083959
C -3.933758 -1.306731 0.252038
C -3.760988 1.012307 -0.365624
C -1.914437 -1.989280 0.355482
C -5.781155 -0.083885 -0.050577
H -1.036034 -2.599701 0.469014
H -2.173651 2.314312 -0.312806
H -3.689931 2.984985 -0.713806
H -7.533806 0.824942 -0.531703
H -7.677205 -0.810142 -0.071371
P 5.087746 -0.104808 0.005278
O 0.398836 -0.927745 -0.638724
O 2.071871 2.023269 0.291681
O -0.456330 2.227085 0.745346
O 4.015541 -0.839230 -0.902783
O 6.319106 0.029542 -0.979440
O 5.594701 -1.137330 1.091531
O 4.630689 1.141713 0.651698
C 1.530274 0.756223 0.592057
C 1.660623 -0.252796 -0.573455
C -0.004569 0.890374 0.799297
C -0.594529 0.027198 -0.341125
C 2.732508 -1.326012 -0.445260
H 1.989626 0.356663 1.496203
H 1.826277 0.309177 -1.498217
H -0.297592 0.459694 1.756081
H -0.793616 0.663879 -1.208700
H 2.490870 -2.156103 -1.103244
H 2.812205 -1.698640 0.575344
H 3.037970 1.955330 0.417422
H 0.311244 2.777946 0.523530
H 6.257531 0.754410 -1.614454
H 5.899583 -1.989934 0.754838
