39
calc_a3a7174101acabd5; angstrom; first printed source-job orientation; unoptimized start
N 1.594820 -0.273742 -0.541056
N 3.438431 0.412793 0.523784
N 4.694025 -1.642435 0.371573
N 3.538132 -3.420758 -0.741180
N 1.422821 -3.281912 -1.618349
N 5.645756 -3.705168 0.090439
C 2.455173 -1.357750 -0.510545
C 3.610449 -0.895225 0.159316
C 2.442135 -2.693662 -0.946226
C 2.249155 0.728447 0.090950
C 4.596419 -2.881271 -0.112679
H 1.818490 1.702975 0.198232
H 0.479535 -2.961847 -1.440387
H 1.537151 -4.275802 -1.743465
H 5.663548 -4.569498 -0.420203
H 6.500766 -3.286910 0.410233
P -3.630932 2.531014 1.149913
O -0.108603 1.116979 -1.325771
O -2.926309 -0.330370 -1.129416
O -1.163473 -2.160552 -0.750046
O -2.140490 3.110523 0.962112
O -4.364617 3.813348 1.670442
O -3.596609 1.574011 2.395817
O -4.204331 1.897321 -0.049427
C -1.955344 0.095307 -0.217172
C -1.307035 1.429272 -0.623383
C -0.789968 -0.915412 -0.256072
C 0.280935 -0.215401 -1.141907
C -1.017476 2.348493 0.567471
H -2.381890 0.160207 0.790301
H -1.953861 1.968039 -1.324170
H -0.373125 -1.063819 0.747134
H 0.341608 -0.710420 -2.122671
H -0.264009 3.082451 0.269364
H -0.643654 1.764043 1.414644
H -3.705015 0.243114 -1.022150
H -1.988867 -2.047985 -1.260189
H -4.625012 4.451053 0.996974
H -3.555949 2.012757 3.255799
