35
calc_6f912d137c0aee92; angstrom; atom order from source job; valid
P -4.142853 -1.077677 0.059748
O -0.030246 0.313108 0.356705
O -0.516908 3.735323 0.036009
O 1.977480 3.091486 -0.713116
O -2.832130 -0.265920 0.450218
O 3.348729 0.567230 2.029273
O -4.540243 -1.744190 1.445378
O -3.685672 -2.333679 -0.796809
O -5.175034 -0.302645 -0.643416
N 2.266078 -0.022328 0.095952
N 4.249209 -1.126744 0.808210
N 5.133131 -2.833074 -0.428263
C -0.418078 2.469201 -0.602111
C 1.060679 2.029359 -0.783106
C -1.045985 1.310852 0.210018
C 1.233888 0.970555 0.319944
C -2.261092 0.706901 -0.451913
C 2.192579 -0.842838 -0.989446
C 3.318067 -0.170079 1.045012
C 3.117971 -1.796870 -1.217727
C 4.174298 -1.908180 -0.260228
H -0.897463 2.594449 -1.570179
H 1.171250 1.551589 -1.756975
H -1.330005 1.680689 1.202093
H 1.470735 1.444112 1.271397
H -1.980168 0.220783 -1.386532
H -2.996864 1.484237 -0.652533
H -0.514790 3.635739 0.994753
H 1.524715 3.831771 -0.282916
H 1.346935 -0.695671 -1.643343
H 3.053577 -2.444150 -2.077140
H 5.126657 -3.461755 -1.211109
H 5.869559 -2.914728 0.251594
H -4.870129 -1.126554 2.110188
H -2.971903 -2.859449 -0.413399
