  29
        -55.71673618
 O         -1.3371422440        0.7312629197       -1.2995275235
 O         -1.8127665638       -2.2299046250        0.4363479433
 O         -3.8064397465       -0.6523343085       -0.2316740745
 O         -0.7703348448        1.8284757188        1.3918443136
 O          0.9578662655       -2.3059946154        0.1632715820
 O          4.5914735369        0.3811951742        0.3703225276
 N          0.7102898349       -0.1498414946       -0.5226314633
 N          2.7508947155       -0.9279922824        0.2459581150
 C         -1.4712418698       -0.8786337411        0.4514797899
 C         -2.7486355884       -0.0168337287        0.4298258015
 C         -0.7105913119       -0.4088053159       -0.8193308706
 C         -2.3077583090        1.2150244685       -0.3681889706
 C         -1.7599999971        2.3370543635        0.5192504680
 C          1.4425254456       -1.1983504229       -0.0240037853
 C          1.2796896870        1.0610035050       -0.7550944492
 C          2.5740737780        1.3162861510       -0.4832306245
 C          3.4112349109        0.2837295308        0.0692080145
 H         -0.8756808149       -0.6208027993        1.3364761122
 H         -3.0512398213        0.2533334906        1.4493126980
 H         -0.7424684834       -1.1933506979       -1.5893854941
 H         -3.1388310098        1.5979630637       -0.9652375381
 H         -1.3384916693        3.1158920170       -0.1275701508
 H         -2.6012277023        2.7539152880        1.0831282836
 H         -0.9918144892       -2.7523560354        0.4388738356
 H         -3.7255512998       -1.6084936489       -0.0774271247
 H          0.6137035763        1.7924671405       -1.1854493148
 H         -0.5329014944        2.5172444733        2.0283939181
 H          3.2979700745       -1.6987653496        0.6191259586
 H          3.0144898277        2.2786718942       -0.6708605670
