29
uracil_ribose  charge=0 mult=1  seed=1_b3lyp_pcm
O     -1.12404300     0.40099800    -1.06907400
O     -1.19261200    -2.44558200     1.11318400
O     -3.40807200    -1.69315000    -0.25031800
O     -2.07824800     2.98576600    -0.59154600
O      0.57329400     1.27052200     1.22451400
O      4.89265900     0.36590200     0.14716800
N      0.94786700    -0.42336900    -0.28910900
N      2.71356700     0.77540200     0.64787700
C     -1.28198400    -1.08240700     0.77851500
C     -2.70548100    -0.62806800     0.39041700
C     -0.47597500    -0.71031700    -0.48377200
C     -2.45093900     0.58119900    -0.50872500
C     -2.51597200     1.91278400     0.23164000
C      1.35017300     0.59300700     0.57658700
C      1.87879900    -1.13948700    -1.00738900
C      3.20583400    -0.94083800    -0.91364000
C      3.71571400     0.08051500    -0.03240400
H     -0.92971000    -0.50570000     1.62780800
H     -3.29194000    -0.36989300     1.26943000
H     -0.49567800    -1.55913100    -1.17011200
H     -3.15104200     0.60191400    -1.34560900
H     -3.55235900     2.12009100     0.49604200
H     -1.92233600     1.86613700     1.14654600
H     -1.86842600    -2.91017700     0.59884200
H     -3.25928000    -1.67692600    -1.20205200
H      1.46589600    -1.89106600    -1.66277000
H     -1.16226400     2.80742600    -0.83336200
H      3.01390700     1.50799200     1.27707300
H      3.89837300    -1.52887300    -1.49200400
