16
calc_8626fbd01c1c40ed; angstrom; atom order from source job; valid
O -0.086693 2.640830 0.002523
N 2.187716 0.516377 0.001770
N -1.452720 0.812270 -0.003582
N -0.733689 -1.434523 0.000445
N 1.672703 -1.648624 0.001180
N -2.981651 -0.915188 -0.049225
C 0.815936 0.433726 -0.001367
C 0.519529 -0.915680 -0.001487
C -0.200729 1.412668 -0.000544
C -1.685896 -0.538673 -0.003477
C 2.637835 -0.746324 0.002948
H 2.749376 1.352893 0.003062
H -2.244573 1.441853 -0.009007
H 3.691342 -0.970949 0.005122
H -3.174219 -1.883754 0.142396
H -3.694954 -0.253166 0.207696
