32
calc_7521e24e6129e1a8; angstrom; atom order from source job; valid
O 1.257303 -0.955421 -0.488117
O 2.758819 2.314391 -0.440706
O 4.026891 0.163953 -1.384815
O 2.162096 -1.090282 2.282870
O -4.627999 1.259873 0.685429
O -3.088866 -2.724872 -0.927292
N -0.131450 0.885865 -0.175923
N -1.547098 -1.068980 -0.631156
N -1.718824 2.287291 0.560949
N -3.791424 -0.697384 -0.138804
C 1.165723 0.434631 -0.690755
C 2.365938 1.057931 0.047468
C 3.423593 -0.043721 -0.109457
C 2.596939 -1.335595 -0.065865
C 2.541731 -2.028138 1.279834
C -1.310709 0.210238 -0.221129
C -0.449186 2.150266 0.301960
C -2.284287 1.070583 0.238577
C -3.649655 0.631483 0.307465
C -2.826542 -1.581360 -0.591142
H 1.205411 0.669816 -1.758012
H 2.117280 1.161461 1.101277
H 4.168868 -0.004885 0.682340
H 2.983528 -2.043740 -0.798746
H 1.825579 -2.851823 1.223134
H 3.530592 -2.447520 1.488405
H 0.307447 2.906583 0.419584
H 3.338676 2.158807 -1.199535
H 4.901057 -0.236612 -1.400967
H -0.785736 -1.684625 -0.879673
H 2.111384 -1.542157 3.130168
H -4.729749 -1.071891 -0.114129
