20
calc_609245ac8ac7d69b; angstrom; atom order from source job; valid
O 0.438696 0.169320 1.361428
O -1.687927 -1.690838 0.330747
O -2.315215 0.723509 -0.562438
O 0.666763 2.120548 0.092440
O 2.113044 -0.058492 -1.142726
C -0.612771 -1.054144 -0.345520
C 0.612089 -1.029530 0.570050
C -0.919618 0.447712 -0.568213
C -0.236529 1.156126 0.616289
C 1.963935 -1.049222 -0.131411
H -0.407551 -1.566161 -1.287488
H 0.576677 -1.870382 1.262884
H -0.466355 0.790947 -1.494813
H -0.953416 1.644955 1.274805
H 2.747020 -0.951613 0.626586
H 2.090624 -2.014800 -0.621539
H -2.480702 -1.164689 0.152459
H -2.642047 0.729643 -1.467560
H 1.011239 2.650408 0.820555
H 1.958976 0.813665 -0.748668
