20
calc_725de4a7fb1a69d0; angstrom; atom order from source job; valid
O -0.394082 0.960779 -0.653689
O 0.601402 -2.242360 0.601226
O 2.155320 -0.654908 -1.002844
O 0.881828 2.211874 0.840130
O -3.133042 0.082351 -0.459953
C 0.387916 -0.860155 0.638372
C -0.751723 -0.370378 -0.265863
C 1.572839 -0.031806 0.125125
C 0.907148 1.302088 -0.216863
C -2.106988 -0.358901 0.404532
H 0.178028 -0.598974 1.678175
H -0.802311 -0.992214 -1.165408
H 2.363847 0.086411 0.859998
H 1.419124 1.815591 -1.029165
H -2.360856 -1.375215 0.706381
H -2.061051 0.263943 1.304731
H 1.146911 -2.426100 -0.170926
H 1.611297 -0.514797 -1.781762
H 0.485141 1.815627 1.619572
H -2.926700 0.978749 -0.732375
