32
calc_072513ed48ae23dd; angstrom; atom order from source job; valid
O -1.467947 0.459630 -1.010720
O -2.576654 -2.261476 1.058522
O -4.253937 -0.702121 -0.335859
O -1.049902 3.004233 -0.103001
O 4.616131 -1.212218 0.280448
O 2.533416 2.842380 0.171532
N 0.081932 -1.177479 -0.426586
N 1.207396 1.006062 -0.115165
N 1.882045 -2.500025 -0.240494
N 3.505052 0.780074 0.236217
C -1.339736 -0.866403 -0.567882
C -2.159956 -0.961791 0.737926
C -3.304988 0.021133 0.439675
C -2.592465 1.112588 -0.363899
C -2.091507 2.257827 0.517287
C 1.149081 -0.356855 -0.198370
C 0.597455 -2.464775 -0.445964
C 2.252177 -1.181495 -0.082821
C 3.552211 -0.621195 0.153368
C 2.418740 1.628349 0.102144
H -1.735108 -1.572617 -1.302031
H -1.559014 -0.594702 1.568856
H -3.762065 0.408114 1.349998
H -3.234397 1.495422 -1.156722
H -2.935984 2.897844 0.782176
H -1.659905 1.875044 1.441565
H -0.043850 -3.312812 -0.617135
H -3.380785 -2.439750 0.550787
H -5.113064 -0.272196 -0.287271
H 0.396795 1.607884 -0.258613
H -1.390006 3.454546 -0.884127
H 4.387482 1.245079 0.398559
