32
calc_072513ed48ae23dd; angstrom; first printed source-job orientation; unoptimized start
O 1.601100 -0.321352 -1.042878
O 2.592426 2.465422 0.937917
O 4.327357 0.861445 -0.257101
O 1.160468 -2.841167 -0.100380
O -4.594642 0.810452 0.444646
O -2.273299 -3.010459 -0.265118
N -0.068087 1.153694 -0.309576
N -1.063355 -1.094855 -0.306507
N -1.917338 2.329216 0.115647
N -3.360640 -1.050654 0.073558
C 1.344194 0.961859 -0.560793
C 2.193889 1.155956 0.727029
C 3.356903 0.169473 0.483150
C 2.672062 -0.944627 -0.322068
C 2.119116 -2.066422 0.576723
C -1.079484 0.257235 -0.193854
C -0.643866 2.387046 -0.108107
C -2.234364 0.997370 0.063783
C -3.495784 0.330166 0.218005
C -2.229756 -1.796580 -0.172434
H 1.641890 1.711670 -1.310750
H 1.601531 0.852753 1.596100
H 3.763219 -0.207803 1.425784
H 3.339458 -1.361744 -1.082757
H 2.945672 -2.684908 0.940681
H 1.596001 -1.636713 1.434339
H -0.068653 3.289383 -0.123370
H 3.393221 2.630822 0.408031
H 5.173975 0.395016 -0.237499
H -0.201448 -1.638148 -0.447463
H 1.575392 -3.331458 -0.824562
H -4.217847 -1.587088 0.166766
