35
calc_2c948d08febcbd06; angstrom; atom order from source job; valid
N -1.606519 -0.258243 -0.430781
N -2.642159 1.025312 -1.964783
N -4.425635 1.814461 -0.522084
N -4.335074 0.991803 1.727146
C -2.691304 0.318022 0.207304
C -3.324516 1.107460 -0.771771
C -3.234314 0.280150 1.478717
C -1.642106 0.216992 -1.717807
C -4.868649 1.712082 0.727702
H -2.813179 -0.297751 2.291713
H -0.890673 -0.059978 -2.438496
H -5.762124 2.272787 0.972379
P 3.105701 1.702698 -0.001578
O 0.640132 -0.446495 0.176867
O 1.165520 -3.767718 0.810781
O -1.227617 -3.455898 -0.342986
O 3.443503 0.227197 0.509615
O 4.046707 2.607955 0.897764
O 1.700537 2.071175 0.632075
O 3.237427 1.879823 -1.458666
C 1.146340 -2.754790 -0.185025
C 1.666217 -1.435102 0.421224
C -0.316077 -2.427008 -0.611029
C -0.614080 -1.122698 0.154181
C 2.971298 -0.951586 -0.172471
H 1.733633 -3.063430 -1.047267
H 1.773736 -1.571052 1.499496
H -0.344372 -2.228463 -1.681060
H -0.945307 -1.357383 1.167562
H 2.867109 -0.748210 -1.237995
H 3.734718 -1.712491 -0.027430
H 1.459789 -4.597408 0.422602
H -0.888705 -3.949573 0.418368
H 4.874097 2.847377 0.462791
H 1.074940 1.322329 0.564768
