31
calc_9f3d4bba17d5da13; angstrom; atom order from source job; valid
N 2.810592 -0.480451 0.114150
N 4.359405 -2.011484 -0.265648
C 2.173916 -1.537798 -0.491560
C 4.116026 -0.819637 0.223360
C 3.139748 -2.467628 -0.714371
H 1.117014 -1.543863 -0.690665
H 4.838792 -0.154813 0.667816
H 3.027264 -3.438185 -1.167218
P -3.245914 -0.558339 -0.093191
O 1.221087 0.569841 1.491168
O -0.624755 2.288343 -1.029115
O 1.824823 2.973069 -0.242822
O -2.338271 0.244259 0.907104
O -3.327693 -1.983360 0.568842
O -2.395930 -0.842614 -1.396419
O -4.515530 0.147777 -0.319567
C 0.154302 1.233771 -0.512846
C -0.054563 0.955319 0.981964
C 1.632065 1.614161 -0.579381
C 2.247007 0.782816 0.544187
C -1.015793 -0.175990 1.284179
H -0.011948 0.323208 -1.091130
H -0.386296 1.868841 1.481115
H 2.079379 1.384546 -1.546539
H 3.059686 1.333738 1.013246
H -1.034292 -0.391506 2.350081
H -0.721348 -1.073951 0.740698
H -1.552182 2.043349 -0.991284
H 1.127443 3.483345 -0.666470
H -3.856100 -2.628812 0.085632
H -2.294759 -0.075873 -1.973661
