31
calc_9f3d4bba17d5da13; angstrom; first printed source-job orientation; unoptimized start
N 2.955162 -0.553465 0.189126
N 4.580752 -1.988438 -0.239156
C 2.387790 -1.583692 -0.521945
C 4.267968 -0.848339 0.328607
C 3.400346 -2.455348 -0.772843
H 1.339762 -1.618486 -0.760159
H 4.944244 -0.192474 0.852412
H 3.346403 -3.392595 -1.300385
P -3.545098 -0.468535 -0.088975
O 1.156380 0.344952 1.397462
O -0.250911 2.360790 -1.200820
O 2.026519 2.935978 0.111917
O -2.214174 0.337152 0.118104
O -3.928862 -0.875499 1.379990
O -3.183657 -1.858723 -0.744255
O -4.507783 0.326869 -0.831112
C 0.443837 1.264912 -0.653351
C -0.005848 0.862337 0.754727
C 1.906531 1.634689 -0.426787
C 2.326833 0.659991 0.672498
C -1.065840 -0.215662 0.781840
H 0.388283 0.403758 -1.323472
H -0.360861 1.745948 1.290721
H 2.514704 1.525102 -1.324574
H 3.050036 1.134952 1.332882
H -1.324486 -0.481421 1.805617
H -0.723090 -1.100177 0.244397
H -1.169084 2.109418 -1.329508
H 1.443974 3.518276 -0.385079
H -4.670588 -1.486602 1.460432
H -3.104010 -1.829824 -1.705217
