37
calc_a8abcfd149ab95f0; angstrom; atom order from source job; valid
P 2.488829 2.202015 -0.185601
O 0.833350 -0.841089 0.678755
O 1.282709 -3.788401 1.340075
O 2.447026 -3.547073 -1.084645
O 3.128305 0.764868 -0.405934
O -5.165249 0.874632 -0.900746
O 3.754703 3.065413 0.229346
O 1.664588 2.157955 1.174739
O -1.669593 3.226084 0.845725
O 1.655504 2.697958 -1.289466
N -1.391542 -1.471821 0.267742
N -1.374745 0.972398 0.615949
N -3.468799 -1.662803 -0.562437
N -3.378599 1.986882 -0.018621
C 0.479942 -3.160625 0.354442
C -0.121849 -1.859543 0.914162
C 1.440111 -2.637081 -0.725999
C 1.955641 -1.342449 -0.078929
C 2.430659 -0.312873 -1.073432
C -1.923195 -0.214727 0.221806
C -2.394937 -2.308004 -0.212444
C -3.194312 -0.338917 -0.297455
C -4.026935 0.820293 -0.457735
C -2.106528 2.139338 0.506800
H -0.256049 -3.851319 -0.044629
H -0.297601 -1.939194 1.986363
H 0.876545 -2.404887 -1.629745
H 2.767801 -1.578863 0.612755
H 1.604551 0.084193 -1.661198
H 3.157025 -0.772225 -1.740804
H 0.764972 -4.441853 1.820257
H 2.728248 -4.002247 -0.279202
H -2.265218 -3.373549 -0.271125
H -0.410390 1.050202 0.913967
H -3.908566 2.844050 -0.095329
H 4.389217 3.218869 -0.482033
H 2.130485 1.768754 1.926222
