31
calc_ff7a6be11ae8f1a9; angstrom; atom order from source job; valid
N 3.224139 -0.251365 0.136435
N 5.280919 -1.047938 -0.098000
C 3.170376 -1.191318 -0.873601
C 4.518803 -0.210707 0.565244
C 4.442888 -1.667832 -1.001226
H 2.258394 -1.440910 -1.383656
H 4.834376 0.448890 1.356698
H 4.800836 -2.419370 -1.684135
P -3.489862 -0.557863 -0.188517
O 1.147286 -0.295219 1.206258
O -0.955997 1.761704 -0.888458
O 1.254400 2.775512 0.101527
O -2.479445 -0.444334 1.041644
O -3.480872 0.869458 -0.869814
O -4.920251 -0.628634 0.493841
O -3.251103 -1.713876 -1.067874
C 0.033069 0.825663 -0.499557
C -0.151463 0.214865 0.900087
C 1.432650 1.456532 -0.396211
C 2.146144 0.559104 0.650541
C -1.129013 -0.944285 1.026628
H 0.037690 0.033372 -1.247210
H -0.436916 1.000655 1.608152
H 1.960932 1.468804 -1.346198
H 2.570421 1.197052 1.425983
H -0.973341 -1.445844 1.978888
H -1.001828 -1.665181 0.220476
H -0.695721 2.626773 -0.536244
H 1.940516 3.354161 -0.243947
H -2.580940 1.281267 -0.912343
H -5.194759 0.174384 0.953814
