32
unoptimized sampling seed; angstrom
O -1.658572 0.847349 -0.491156
O -0.916544 -2.464385 0.650713
O -3.447995 -2.092752 -0.124897
O -3.913516 2.609643 -0.431185
O 4.589429 -0.972326 -0.302695
N 0.563512 0.282757 -0.146666
N 2.205736 1.692371 0.354763
N 1.767333 -1.722809 -0.736209
N 4.993131 1.158150 0.384516
C -1.348602 -1.125136 0.708623
C -0.766426 -0.236732 -0.406438
C -2.878526 -0.955334 0.512333
C -2.999277 0.349070 -0.304090
C -3.821069 1.435572 0.363662
C 1.728479 -0.426394 -0.297609
C 0.914856 1.557550 0.257915
C 2.746625 0.460461 0.014509
C 4.166108 0.152772 0.015130
H -1.050858 -0.706686 1.670122
H -0.720267 -0.799417 -1.346896
H -3.378577 -0.877624 1.475209
H -3.425246 0.127589 -1.288754
H -4.838466 1.072227 0.503138
H -3.397603 1.661191 1.347072
H -1.623288 -2.972987 0.224010
H -3.437156 -1.987543 -1.082883
H 0.172460 2.311198 0.446798
H -3.032454 2.988053 -0.521001
H 2.700616 -2.107923 -0.677048
H 1.040528 -2.333482 -0.384006
H 4.620810 2.056049 0.641656
H 5.986088 1.004869 0.407292
