30
calc_3c5a4da3a0e261eb; angstrom; atom order from source job; valid
O -1.264645 0.618683 -1.269228
O -1.531893 -2.256220 0.749190
O -3.591313 -1.072322 -0.436927
O -1.230910 2.071768 1.314229
O 1.131517 -2.337931 0.079622
N 0.795285 -0.160456 -0.447047
N 2.929023 -0.960843 0.168756
N 4.702747 0.473841 0.279565
C -1.397574 -0.866985 0.567218
C -2.762208 -0.221914 0.334869
C -0.621919 -0.487914 -0.709986
C -2.417096 1.004762 -0.496315
C -2.176056 2.280097 0.277496
C 1.275360 1.100849 -0.558246
C 1.626371 -1.202281 -0.053701
C 2.573204 1.371000 -0.317291
C 3.403187 0.275999 0.047524
H -0.918822 -0.403928 1.430344
H -3.252876 0.043624 1.272215
H -0.625219 -1.316908 -1.418481
H -3.220377 1.205045 -1.204611
H -1.821351 3.044110 -0.418767
H -3.135594 2.608489 0.687779
H -0.647979 -2.623679 0.588513
H -3.380890 -1.978933 -0.188069
H 0.565020 1.854451 -0.856371
H -1.029645 2.920310 1.713321
H 2.964634 2.371553 -0.408647
H 5.101671 1.392931 0.206918
H 5.290375 -0.298358 0.542440
