34
DFT refinement start; not an optimized result
O -2.058331 -1.191011 -0.926389
O -1.311394 0.821318 1.911241
O -3.816065 0.065100 1.288418
O -4.093696 1.483687 -2.420991
N 0.192157 -0.866704 -0.394341
N 1.959111 -1.337803 -1.678097
N 1.326371 0.315000 1.409379
N 3.696507 0.446431 1.055910
N 4.780428 -0.443021 -0.766013
N 2.717456 1.394538 2.878110
C -1.553522 0.592562 0.561789
C -1.163962 -0.827572 0.090233
C -3.058291 0.622638 0.249406
C -3.149940 -0.268251 -0.993818
C -3.067741 0.536403 -2.302695
C 1.281888 -0.347234 0.247967
C 0.674264 -1.447066 -1.538438
C 2.381471 -0.648117 -0.563402
C 3.644479 -0.215304 -0.100930
C 2.573653 0.686639 1.745577
H -1.030984 1.326841 -0.069946
H -1.258655 -1.530221 0.937670
H -3.404932 1.640284 0.025800
H -4.074661 -0.854312 -0.958845
H -2.130431 1.098449 -2.322621
H -3.065616 -0.167034 -3.143451
H -0.336953 0.728280 2.045507
H -3.454546 0.389525 2.129605
H 0.018023 -1.933000 -2.230538
H -4.946591 1.033507 -2.506705
H 4.744616 -0.942127 -1.636315
H 5.647333 -0.112225 -0.380898
H 1.931341 1.511623 3.489884
H 3.649424 1.598402 3.189291
