  34
        -71.13667926
 P         -0.7403119748        2.2400989951        0.1226033338
 O          1.1726930274        0.3522321909        0.8713420888
 O          4.1521424306       -0.4837607354       -0.4919882143
 O          3.0693955663       -2.2784437518        1.0396812808
 O          0.6795056196        2.5968977123       -0.5478551238
 O          0.1284647237       -1.2635424519       -1.7116438349
 O         -1.4982341661        3.6194909601       -0.0703268220
 O         -0.5996040880        2.1907338289        1.6799812007
 O         -1.4096869712        1.0710341270       -0.4702632961
 O         -4.1955552599       -1.8736074841       -0.6081934924
 N         -0.3511186812       -1.4160140167        0.5189638328
 N         -1.9970215514       -1.6852983773       -1.0989741924
 C          2.7667420556       -0.5581493367       -0.6768240301
 C          2.1431627606       -1.7112527098        0.1639791126
 C          2.1240406209        0.7221445319       -0.1157754180
 C          0.9928816983       -1.0371477525        0.9475705561
 C          1.4205750927        1.5685286264       -1.1758334223
 C         -0.6888968214       -1.4144051339       -0.8186363799
 C         -1.3328201025       -1.4831586744        1.4676592397
 C         -2.6313052418       -1.6624478020        1.1743269845
 C         -3.0504309751       -1.7444958097       -0.2023979644
 H          2.4959062530       -0.6799782017       -1.7274690126
 H          1.7540127887       -2.5083948494       -0.4730636743
 H          2.8889404928        1.3270612176        0.3872849700
 H          1.0672252032       -1.3268796721        2.0030997808
 H          0.7443967439        0.9309329875       -1.7523034503
 H          2.1418343982        2.0603227795       -1.8285183573
 H          4.6062124245       -1.0869111286       -1.0987082984
 H          3.8311819253       -1.6711091131        1.1144208340
 H         -0.9934861115       -1.3888826006        2.4876333188
 H         -2.2401990186       -1.6689894767       -2.0850921829
 H         -3.3854017784       -1.7133569736        1.9387984736
 H         -1.8146209057        3.8076550667       -0.9593329681
 H         -0.2929901204        3.0096052301        2.0900764516
