34
uracil_ribose_phosphate  charge=0 mult=1  seed=1_b3lyp_pcm
P      4.43384900    -0.83349300     0.10036400
O     -0.37717000     0.06733500    -0.97337500
O      0.94032600     2.98605200     0.10151700
O     -1.29307600     2.48554700     1.52782300
O      3.20051800     0.02586500    -0.42394000
O     -3.88716900     1.45926900    -1.33611000
O      5.56167700     0.27384300     0.24781300
O      4.96599500    -1.69493500    -1.12115200
O      4.15356000    -1.68085200     1.26773700
O     -5.83183100    -2.27140200     0.37910800
N     -2.55002400     0.02778500    -0.12224300
N     -4.81102700    -0.41741400    -0.44807100
C      0.76380300     1.61867400     0.45753600
C     -0.67967900     1.36266000     0.95180800
C      0.91813800     0.63782100    -0.72256000
C     -1.36893400     0.85212300    -0.32569500
C      1.86851500    -0.52260200    -0.47575200
C     -3.75820800     0.43619800    -0.68849900
C     -2.45552200    -1.15816800     0.56914300
C     -3.50154000    -1.97670200     0.77664600
C     -4.80101400    -1.62355000     0.25623700
H      1.48910300     1.42479400     1.24317800
H     -0.66848300     0.57001700     1.70029200
H      1.25191300     1.18378700    -1.60983900
H     -1.69009800     1.68788200    -0.94595200
H      1.79673600    -1.23520100    -1.29646100
H      1.63929900    -1.02862400     0.46082000
H      0.68506600     3.13914200    -0.81490200
H     -0.86847900     3.26902200     1.14888500
H     -1.46802400    -1.40171900     0.92786800
H     -5.69601000    -0.12871900    -0.84298800
H     -3.38919600    -2.89840900     1.32242800
H      5.43166800     0.88788100     0.98153400
H      5.13014100    -1.20454600    -1.93669100
