29
calc_33f0d89cd9d3b947; angstrom; atom order from source job; valid
O -1.134701 0.389877 -1.067667
O -1.095842 -2.368736 1.217911
O -3.324889 -1.766397 -0.284000
O -2.153673 2.943241 -0.545793
O 0.572127 1.384466 1.101589
O 4.870501 0.371486 0.144747
N 0.942018 -0.397777 -0.292727
N 2.701719 0.832956 0.588035
C -1.263829 -1.038106 0.801452
C -2.693729 -0.680526 0.368760
C -0.474276 -0.697605 -0.467498
C -2.464884 0.531636 -0.528252
C -2.585397 1.841612 0.231583
C 1.344784 0.655198 0.506531
C 1.867797 -1.167303 -0.952590
C 3.191077 -0.976772 -0.854976
C 3.689327 0.089503 -0.032328
H -0.961179 -0.395192 1.622780
H -3.318494 -0.437811 1.224858
H -0.500661 -1.564281 -1.131942
H -3.156842 0.527991 -1.370786
H -3.636047 2.006340 0.467826
H -2.025788 1.791856 1.168676
H -1.619968 -2.927296 0.632811
H -2.945326 -1.897653 -1.157812
H 1.452626 -1.954764 -1.564183
H -1.214573 2.830331 -0.716187
H 3.000737 1.602728 1.172744
H 3.885952 -1.605824 -1.386320
