29
calc_33f0d89cd9d3b947; angstrom; first printed source-job orientation; unoptimized start
O 1.692480 0.392100 0.259510
O -1.863090 0.986090 -0.068540
O -0.857740 -1.288360 0.751150
O 3.363900 -0.914820 -1.589170
O 1.582400 2.161360 -2.146140
O 2.723280 6.212280 -0.516480
N 1.001690 2.642180 0.046110
N 2.018810 4.215000 -1.353310
C -0.550210 0.695080 -0.557360
C -0.246840 -0.795350 -0.460870
C 0.556380 1.277690 0.334950
C 1.274990 -0.840670 -0.380030
C 1.947540 -0.969330 -1.748420
C 1.522820 2.947330 -1.202340
C 0.973480 3.586000 1.058790
C 1.489710 4.806610 0.907410
C 2.127910 5.151580 -0.370310
H -0.486040 1.036440 -1.593450
H -0.669560 -1.374320 -1.286370
H 0.213450 1.243610 1.377540
H 1.627860 -1.652970 0.265090
H 1.696650 -1.928670 -2.211290
H 1.655720 -0.179310 -2.440870
H -2.130980 0.202210 0.457800
H -0.179870 -1.334670 1.451500
H 0.521710 3.296470 2.004390
H 3.543290 -0.065850 -1.139970
H 2.459390 4.422580 -2.235440
H 1.493510 5.554240 1.689290
