35
DFT refinement start; not an optimized result
P -0.022207 3.090328 0.233252
O 0.714692 0.388035 0.268684
O 3.831919 -0.829770 -0.960787
O 2.376734 -2.611907 0.236749
O 1.577840 2.983911 0.055300
O -0.203603 -3.458796 0.907361
O -0.179554 4.637869 0.526198
O -0.417631 2.474805 1.618968
O -0.785735 2.580180 -0.914630
N -0.806351 -1.396762 0.172226
N -2.352377 -3.176594 0.266641
N -4.500841 -2.879738 -0.414301
C 2.469674 -0.558285 -1.006452
C 1.582339 -1.709298 -0.472070
C 2.059174 0.631773 -0.108253
C 0.552544 -0.990368 0.448021
C 2.094275 1.984990 -0.799527
C -1.737685 -0.567484 -0.346957
C -1.115369 -2.748678 0.472915
C -2.996223 -1.014385 -0.572457
C -3.286174 -2.369894 -0.235296
H 2.206895 -0.331555 -2.045534
H 1.055323 -2.216628 -1.290830
H 2.698358 0.647953 0.786588
H 0.776820 -1.276219 1.492188
H 1.478778 1.936117 -1.702334
H 3.119540 2.267473 -1.038352
H 3.974625 -1.571777 -0.345740
H 1.787225 -3.288247 0.618685
H -1.419102 0.443425 -0.551727
H -3.747275 -0.366079 -0.984598
H -5.242327 -2.315937 -0.792154
H -4.660232 -3.840278 -0.161242
H -0.121081 5.216946 -0.240494
H -0.046271 2.935762 2.382138
