37
calc_24debaf35022ea98; angstrom; first printed source-job orientation; unoptimized start
P 1.060839 2.425567 -0.148776
O 1.537002 0.054350 1.160907
O 1.183479 -2.676673 -1.050583
O 3.598335 -1.752257 -0.987429
O 2.648849 2.199548 -0.286089
O 0.977786 3.895957 -0.734092
O 0.718722 2.654519 1.366454
O 0.207530 1.471286 -0.875302
N -0.624959 -0.745096 0.849785
N -2.512994 0.253359 1.501414
N -1.567458 -2.309577 -0.776319
N -3.934227 -2.105835 -0.967069
N -5.208099 -0.621171 0.252240
C 1.192031 -1.320249 -0.735195
C 2.632418 -0.761672 -0.798042
C 0.771217 -1.039157 0.729245
C 2.823562 -0.070753 0.571436
C 3.427097 1.321483 0.502952
C -1.630032 -1.320078 0.127482
C -1.224470 0.190949 1.644141
C -2.810030 -0.690091 0.547197
C -4.012582 -1.123162 -0.050496
C -2.758601 -2.623474 -1.263029
H 0.538897 -0.743187 -1.397100
H 2.709071 -0.020203 -1.603146
H 1.014608 -1.930295 1.340482
H 3.458351 -0.718202 1.193667
H 4.408868 1.282709 0.028203
H 3.505824 1.716313 1.519056
H 0.247247 -2.950999 -1.137982
H 3.137130 -2.584710 -1.197738
H -0.652759 0.802712 2.309954
H -2.768078 -3.413106 -2.001820
H -5.269216 0.125746 0.921691
H -6.019776 -0.972329 -0.226416
H 0.953906 3.954510 -1.693868
H 0.938635 3.540882 1.684080
