29
calc_12fd1c0e255a1a86; angstrom; atom order from source job; valid
O -1.068348 0.254891 -1.261298
O -1.178954 -2.021523 1.521109
O -3.234873 -1.778204 -0.132532
O -2.095845 2.375290 0.569227
O 0.610674 1.613716 0.753325
O 4.916020 0.335541 0.137289
N 0.962755 -0.418923 -0.282769
N 2.736380 0.917072 0.415846
C -1.305042 -0.797215 0.841253
C -2.714442 -0.518191 0.294242
C -0.463382 -0.722865 -0.449753
C -2.462721 0.430479 -0.890511
C -2.719285 1.902588 -0.614057
C 1.375099 0.761806 0.322743
C 1.892726 -1.316144 -0.761888
C 3.221744 -1.140548 -0.657526
C 3.738278 0.047933 -0.025749
H -1.013130 -0.003532 1.521204
H -3.361931 -0.071435 1.045642
H -0.488178 -1.701751 -0.934035
H -3.076800 0.119666 -1.737849
H -2.397708 2.479218 -1.487497
H -3.792262 2.054364 -0.491800
H -1.816289 -2.632338 1.124512
H -4.195957 -1.751801 -0.125248
H 1.474536 -2.191523 -1.234319
H -1.143959 2.185238 0.523123
H 3.039317 1.773997 0.859736
H 3.911156 -1.871899 -1.044496
