36
calc_bf334ede74e3ec76; angstrom; first printed source-job orientation; unoptimized start
P -4.258078 -1.029852 0.024194
O -0.051420 0.236815 0.327807
O 1.937043 3.103614 -0.515509
O -0.602059 3.669543 0.124662
O -2.842355 -0.383961 0.350449
O 3.046562 0.136792 2.289124
O 5.412724 -2.521175 -0.483004
O -4.550368 -1.860760 1.345758
O -4.026508 -2.177633 -1.048081
O -5.289587 -0.084780 -0.427121
N 2.265960 -0.030288 0.131440
N 4.079899 -1.302165 0.876937
C 1.207938 0.915709 0.359548
C 1.047977 2.027138 -0.690721
C -0.447647 2.425316 -0.545449
C -1.073197 1.227990 0.211388
C -2.277515 0.646962 -0.489433
C 2.228938 -0.894961 -1.056339
C 3.096492 -0.348435 1.169455
C 3.639592 -1.240890 -1.505760
C 4.465163 -1.767861 -0.361654
H 1.386198 1.360141 1.339019
H 1.207484 1.617248 -1.687191
H -0.898984 2.566454 -1.524788
H -1.371821 1.555985 1.214597
H -1.987531 0.213243 -1.446760
H -3.020080 1.426998 -0.651991
H 1.700771 -0.375723 -1.848836
H 1.666149 -1.803063 -0.831789
H 4.147974 -0.353557 -1.891920
H 3.626203 -1.985056 -2.298210
H 1.439203 3.817477 -0.090451
H -0.631968 3.540284 1.079368
H 4.656862 -1.561502 1.665375
H -4.737265 -1.324398 2.126399
H -3.331734 -2.813045 -0.833251
