  35
        -75.21827900
 O          0.3423476447       -1.3899455958       -1.8546983318
 O         -1.1466881302       -0.3880338897        2.3070501718
 O         -3.9960620919       -1.8646029319       -0.8163577592
 N         -1.7817876444       -1.8661010667       -1.2866913667
 N         -2.5495789083       -1.4046535593        0.8649467998
 C         -0.1647180038       -1.6338933036        0.4953320065
 C         -0.4778537163       -1.5690700750       -0.9839176652
 C         -1.3030713597       -1.0421543501        1.3014383682
 C         -2.8567872149       -1.7226322645       -0.4392124604
 H         -0.1149560825       -2.7005271631        0.7538641823
 H         -2.0205319136       -1.9062860383       -2.2749864512
 H         -3.3398520981       -1.0974492678        1.4278481614
 P         -0.8359403157        2.0931366083       -0.0039922328
 O          1.1370048938        0.4201506606        0.7430496055
 O          4.2804701134       -0.0869421277       -0.4622598054
 O          3.3856600795       -1.9818167188        1.0909270990
 O          0.5030860748        2.5649664375       -0.7527599873
 O         -1.7958008238        3.2878253241       -0.3598265033
 O         -0.6388003380        2.3088124000        1.5473404217
 O         -1.3925272105        0.8066967682       -0.4644548607
 C          2.9204168331       -0.3429074299       -0.6739509796
 C          2.1101202355        0.8669635252       -0.1832349911
 C          2.4151437795       -1.5356729607        0.1901597203
 C          1.1688188958       -0.9868799772        0.9198628291
 C          1.3847867197        1.6073187234       -1.3061171281
 H          2.7013297980       -0.5312704710       -1.7281786123
 H          2.7737976989        1.5663161119        0.3422783253
 H          2.1505360313       -2.3885687877       -0.4384765856
 H          1.2794435239       -1.1705415137        1.9974878580
 H          2.0840478326        2.1612235953       -1.9324840046
 H          0.8135784729        0.8905151391       -1.9028175676
 H          4.8198513235       -0.6994175409       -0.9841002740
 H          4.0116564467       -1.2548020602        1.2610151996
 H         -1.5227223674        4.1524558828       -0.0290174001
 H         -0.4571542908        1.5139835915        2.0653264360
