35
barbituric_acid_Clink_ribose_phosphate  charge=0 mult=1  seed=1_b3lyp_pcm
O     -1.79994300    -0.39735700     2.41341100
O     -4.20770200     0.98419200    -1.42702700
O     -3.60609000    -3.39694100    -0.45195400
N     -2.64981400    -1.86881600     0.93396800
N     -3.86585600    -1.19190400    -0.94132500
C     -2.74271300     0.53912500     0.41498300
C     -2.35375600    -0.59000300     1.35165200
C     -3.67535300     0.15355400    -0.72262600
C     -3.38347600    -2.23820300    -0.17737000
H     -3.26684500     1.28989300     1.00835000
H     -2.35578900    -2.62798800     1.53468800
H     -4.44820400    -1.45517300    -1.72558700
P      4.13949000    -0.83376000     0.07892800
O     -0.67552800     0.26580500    -0.81040300
O      0.61704000     3.19519200    -0.86799700
O     -1.04948300     3.22718900     1.21548700
O      2.93204000    -0.02086300    -0.56257000
O      5.38144100     0.08534500    -0.28789100
O      4.38681700    -2.11188100    -0.82916300
O      3.96562800    -1.20894300     1.48922300
C      0.72533400     2.04190600    -0.03599900
C      0.68704100     0.73739000    -0.84906500
C     -0.57181500     1.97409700     0.79151700
C     -1.50402300     1.24131400    -0.18450800
C      1.55830800    -0.38260700    -0.30202200
H      1.61142000     2.10841100     0.59246100
H      0.96802200     0.94321000    -1.88328400
H     -0.41155100     1.36550000     1.67769200
H     -1.87796600     1.96039100    -0.91975600
H      1.41162300    -0.51906000     0.76852900
H      1.32195400    -1.31281100    -0.81717000
H      1.49488000     3.51091400    -1.10090900
H     -0.81694300     3.86705200     0.52817100
H      5.43525300     0.90899300     0.21294100
H      4.46044700    -1.94122600    -1.77683500
