20
calc_d806614af126d622; angstrom; atom order from source job; valid
O -0.382099 0.950218 -0.711207
O 0.612084 -2.256803 0.592415
O 2.246155 -0.614598 -0.959049
O 0.820522 2.224417 0.849780
O -3.167960 0.042069 -0.458686
C 0.388040 -0.860247 0.627775
C -0.758698 -0.381309 -0.280160
C 1.580955 -0.014410 0.148921
C 0.907465 1.309050 -0.221640
C -2.103871 -0.346546 0.412531
H 0.169937 -0.607597 1.666128
H -0.818359 -1.016119 -1.167899
H 2.335803 0.118947 0.917955
H 1.436344 1.835807 -1.012480
H -2.345000 -1.349058 0.765634
H -2.054857 0.322841 1.275824
H 1.077001 -2.459204 -0.231225
H 1.678752 -0.598996 -1.740334
H 0.426933 1.794791 1.620246
H -3.019519 0.956941 -0.724434
