20
calc_d806614af126d622; angstrom; first printed source-job orientation; unoptimized start
O -0.843840 -0.934890 0.294490
O 2.321190 0.461520 -0.643340
O -0.009670 1.214330 -1.650990
O -1.383930 0.777500 1.763710
O 0.447420 -3.245340 1.231250
C 1.200790 0.321020 0.218720
C 0.592870 -1.079400 0.170170
C 0.037030 1.200620 -0.212250
C -1.151330 0.459710 0.404350
C 1.081760 -1.970060 1.311020
H 1.515350 0.577480 1.237230
H 0.782050 -1.575190 -0.788950
H 0.143590 2.231960 0.133860
H -2.075890 0.644590 -0.150220
H 2.165260 -2.117420 1.268050
H 0.821200 -1.541930 2.284770
H 1.978400 0.831400 -1.483730
H -0.489940 0.415970 -1.945480
H -0.536820 0.894110 2.219340
H -0.504760 -3.062730 1.110410
