32
calc_b818eb6e36db503a; angstrom; first printed source-job orientation; unoptimized start
N -2.218816 1.032226 -0.421023
N -1.663038 -1.188775 0.191661
N -3.935551 -0.499593 0.162763
N -0.049115 0.331929 -0.460127
N -4.420212 1.665162 -0.400038
N -3.348819 -2.626038 0.770412
C -1.346188 0.044952 -0.201242
C -3.501878 0.705268 -0.221327
C -2.974673 -1.406741 0.358023
H 0.163675 1.307186 -0.631890
H -5.390698 1.419441 -0.330286
H -4.124879 2.548971 -0.771891
H -2.652747 -3.345765 0.835457
H -4.329160 -2.835739 0.817761
O 1.529773 -0.024334 1.257398
O 4.195595 -1.056992 0.286027
O 2.476555 -1.636246 -1.628512
O 1.933331 2.472399 -0.428220
C 3.421389 0.043920 -0.111920
C 2.722886 0.727643 1.069277
C 2.233543 -0.416427 -0.993624
C 1.040348 -0.472111 -0.000998
C 2.478494 2.226930 0.851280
H 4.092576 0.712706 -0.650499
H 3.298398 0.617122 1.993611
H 2.012946 0.332811 -1.759794
H 0.656919 -1.488047 0.130601
H 3.441384 2.738370 0.961218
H 1.791412 2.570887 1.634609
H 3.717122 -1.555019 0.966625
H 3.283143 -2.021265 -1.233924
H 1.891279 3.428828 -0.571713
