32
calc_20fc3c3d23a5dbe2; angstrom; atom order from source job; valid
O -1.285912 0.553332 -0.784481
O -1.241742 -2.199652 1.523330
O -3.642066 -1.592179 0.483285
O -2.982095 2.792430 -1.260992
O 1.246656 -2.176468 -1.588267
O 4.740968 0.286401 -0.060200
N 0.773059 -0.386230 -0.215696
N 2.956475 -0.910645 -0.787055
C -1.364000 -0.881343 1.055713
C -2.824073 -0.458079 0.752470
C -0.660097 -0.619582 -0.287525
C -2.685010 0.514059 -0.437543
C -3.141507 1.931281 -0.141707
C 1.260756 0.689282 0.500607
C 1.624172 -1.230232 -0.917443
C 2.567455 0.995813 0.610844
C 3.525189 0.141533 -0.071692
C 3.071147 2.169386 1.392985
H -0.950074 -0.216343 1.813934
H -3.271372 0.023469 1.619049
H -0.794186 -1.466785 -0.959228
H -3.244414 0.127975 -1.296161
H -4.204799 1.919920 0.094555
H -2.599275 2.317119 0.727222
H -2.032114 -2.678140 1.232258
H -3.620421 -1.815565 -0.453906
H 0.502360 1.298493 0.967809
H 3.595366 -1.518843 -1.281113
H -2.043667 2.844112 -1.471944
H 3.746833 1.848409 2.186890
H 3.631992 2.853208 0.754441
H 2.246367 2.717482 1.843789
