15
calc_6e5426e1ce41021c; angstrom; atom order from source job; valid
O -0.199974 2.632844 0.001055
O -2.960739 -0.983351 0.001114
N -0.726660 -1.397965 -0.000912
N 2.138908 0.587407 -0.000242
N -1.529029 0.781855 -0.001084
N 1.695783 -1.592146 0.000491
C 0.770123 0.461971 -0.000960
C 0.542778 -0.888741 -0.000470
C -0.288453 1.410652 -0.000356
C -1.808470 -0.570397 -0.000273
C 2.634796 -0.653674 0.000632
H -0.894681 -2.393483 0.001955
H 2.668951 1.445287 0.000014
H -2.340289 1.385881 0.000279
H 3.694060 -0.846557 0.001187
