37
calc_b7b2c419d15de4e2; angstrom; atom order from source job; valid
P 4.573154 -0.782029 0.051041
O 0.050079 -0.160717 0.026565
O 0.224817 3.394631 -0.475982
O 2.412558 2.068948 -1.008758
O 3.494935 -0.674521 1.201602
O -6.319928 -0.134998 0.591105
O 4.329183 -2.247993 -0.512910
O 5.937163 -0.774059 0.848687
O -3.402501 -3.391967 -0.726051
O 4.563612 0.285893 -0.968736
N -1.925192 1.043721 -0.033570
N -2.548590 -1.294013 -0.450103
N -3.939256 1.832230 0.552439
N -4.810536 -1.708147 -0.086003
C 0.327854 2.152461 0.167254
C -0.532742 1.037301 -0.450829
C 1.745079 1.530030 0.115997
C 1.477176 0.012635 -0.031574
C 2.071972 -0.877600 1.051540
C -2.796314 0.000174 -0.100463
C -2.687315 2.135920 0.364987
C -4.031443 0.484974 0.266353
C -5.164210 -0.398164 0.294107
C -3.573832 -2.218284 -0.442142
H 0.027276 2.279799 1.206832
H -0.489927 1.079605 -1.544410
H 2.296885 1.752528 1.029758
H 1.828913 -0.299403 -1.017725
H 1.881556 -1.926574 0.833318
H 1.647541 -0.629897 2.020635
H 0.918586 3.429095 -1.150337
H 3.260876 1.596932 -1.107366
H -2.246455 3.110943 0.477782
H -1.609841 -1.622647 -0.625618
H -5.561995 -2.384087 -0.084810
H 4.642103 -2.386587 -1.415978
H 6.035473 -1.464227 1.517383
