36
calc_f7835dfddd84e750; angstrom; atom order from source job; valid
P 3.213039 -1.687085 -0.069058
O 0.923985 0.755775 -0.738383
O -0.934738 3.161706 1.195349
O 0.991986 3.903994 -0.505667
O 3.607361 -0.170660 -0.338350
O 4.602985 -2.448634 -0.222404
O 2.434720 -2.215294 -1.343914
O -4.789214 -2.635068 0.615738
O 2.451739 -1.922514 1.167660
N -1.165644 0.157692 0.096082
N -1.836197 -1.774326 1.010817
N -3.242887 0.866777 -0.963432
N -4.965909 -0.687263 -0.581443
C 0.058460 2.223538 0.879323
C 1.367084 2.835030 0.356167
C -0.310572 1.268479 -0.273994
C 2.001202 1.662937 -0.412065
C 3.057255 0.938390 0.402474
C -2.491269 0.013598 -0.227706
C -0.830459 -0.953134 0.840528
C -2.890157 -1.184222 0.351663
C -4.244257 -1.622445 0.190578
C -4.470102 0.462988 -1.107994
H 0.256218 1.638947 1.777359
H 2.001597 3.197926 1.163667
H -0.841508 1.814890 -1.055794
H 2.437018 2.018761 -1.346012
H 2.656880 0.575361 1.347098
H 3.889557 1.611067 0.600358
H -0.841455 3.898280 0.575192
H 1.719327 4.527664 -0.588980
H 0.176139 -1.117052 1.190815
H -5.169912 1.057481 -1.678659
H -5.937478 -0.913194 -0.748482
H 5.273440 -2.194349 0.423995
H 2.865362 -2.055053 -2.192909
