37
calc_bdba36e59c4d6113; angstrom; atom order from source job; valid
P -3.016210 -1.775399 0.149802
O -0.470373 1.453728 1.126283
O 1.159611 3.609023 -1.221295
O -1.288299 4.233159 -0.092051
O -2.531521 -0.346175 0.592691
O -3.210641 -2.388481 1.587688
O -1.794787 -2.503329 -0.538787
O -4.180437 -1.825427 -0.748189
N 1.755580 1.003105 0.583681
N 3.569061 -0.069947 1.343752
N 1.020617 -0.619808 -1.091568
N 2.457267 -2.534425 -1.178106
N 4.326815 -2.784516 0.156358
C 0.338650 2.552117 -0.797682
C -1.137262 2.924162 -0.605926
C 0.714750 1.999744 0.583133
C -1.615002 1.833468 0.348962
C -2.173151 0.639096 -0.390944
C 1.836266 -0.168280 -0.132778
C 2.814381 0.985279 1.451089
C 2.961162 -0.812262 0.348346
C 3.268870 -2.058011 -0.220819
C 1.404390 -1.801905 -1.547654
H 0.411203 1.761741 -1.540940
H -1.676128 2.906047 -1.549662
H 1.077432 2.811480 1.217987
H -2.368079 2.221384 1.034703
H -1.428020 0.219735 -1.067782
H -3.062417 0.935115 -0.946848
H 0.884811 4.402172 -0.748232
H -1.020896 4.268156 0.830975
H 2.970350 1.799432 2.141237
H 0.787405 -2.234558 -2.325883
H 4.956816 -2.447417 0.861782
H 4.509652 -3.668294 -0.285563
H -3.674966 -3.233151 1.595569
H -0.976139 -2.492138 -0.028290
