  37
        -74.30823515
 P          0.3067020115        2.3458017426       -0.0951099425
 O         -1.3008225815        0.1957507754       -0.9269721938
 O         -2.8432754735       -2.6302625885       -1.1282683710
 O         -4.2605865091       -0.9550410186        0.2648000851
 O         -1.2146243944        2.5466857380        0.3939170129
 O         -0.3156845761       -1.1978309977        1.8440386721
 O          4.1323986531       -1.1666494569        1.1607306551
 O          0.8556672945        3.8237987387        0.0722731010
 O          0.3586321690        2.1799894406       -1.6491889467
 O          1.0424258649        1.3132509343        0.6521382384
 N          0.3921210146       -1.3356435829       -0.3263268037
 N          1.8966080918       -1.3218491426        1.4350714754
 C         -2.0706823464       -1.9383126511       -0.1938426917
 C         -2.8934231501       -0.8400649688        0.5410985032
 C         -2.3742989947        0.4850975060       -0.0443167414
 C         -0.9384093393       -1.1604051019       -0.9008001438
 C         -1.8792800075        1.4656056744        1.0179354006
 C          1.4650128369       -1.2684851252       -1.1816260969
 C          0.5936435423       -1.2504637945        1.0293948038
 C          2.7481704361       -1.2263618372       -0.7799719684
 C          3.0261516863       -1.2234889478        0.6440909306
 C          3.9030396751       -1.1496947231       -1.7242286698
 H         -1.6545427098       -2.6654008180        0.5073705508
 H         -2.6828524380       -0.8798496690        1.6114124005
 H         -0.8688651651       -1.5071775936       -1.9391954656
 H         -3.1621536134        0.9597303401       -0.6427177150
 H         -1.1850408145        0.9481367412        1.6865449367
 H         -2.7116294331        1.8925074215        1.5774561309
 H         -3.6838827814       -2.1459518797       -1.2483666741
 H         -4.6822919062       -1.5559473392        0.8965315393
 H          1.2102383865       -1.2485403409       -2.2301233963
 H          2.0408830599       -1.2531035838        2.4383629317
 H          3.5699991236       -1.2533141778       -2.7507036548
 H          4.4086546301       -0.1940754187       -1.6002589713
 H          4.6224495773       -1.9296846785       -1.4845781294
 H          1.0095469686        4.1218560277        0.9743797248
 H         -0.0020794504        2.9186342904       -2.1562273002
