37
thymine_ribose_phosphate  charge=0 mult=1  seed=1_b3lyp_pcm
P     -4.25338600    -1.08978700     0.20704400
O     -0.17364200     0.49292600     0.46558400
O      1.73160100     3.14601500    -1.02961800
O     -0.78594500     3.78920500    -0.33787700
O     -2.90108500    -0.30522200     0.46632800
O      3.23105200     1.17591600     2.06800400
O      5.11726400    -2.47463100     0.13640400
O     -4.45492200    -1.86270600     1.57953000
O     -3.78868100    -2.25054500    -0.77550300
O     -5.39401000    -0.28108900    -0.25526300
N      2.13549200     0.22811800     0.27554700
N      4.13237400    -0.64969500     1.05578500
C      0.85436000     2.05502000    -0.92763700
C     -0.63911500     2.46018000    -0.82025200
C     -1.24086400     1.38580200     0.11680500
C      1.05395400     1.19624200     0.33352500
C     -2.36973100     0.60766700    -0.51740900
C      2.10160200    -0.78511900    -0.66258900
C      3.16638400     0.31954300     1.20195900
C      3.04883400    -1.73424200    -0.78593000
C      4.17766800    -1.68968800     0.12886300
C      2.98792700    -2.82577900    -1.80947000
H      0.99030100     1.42946700    -1.81023900
H     -1.10689200     2.45526600    -1.80177600
H      1.25665000     1.82763300     1.19843800
H     -1.61212900     1.86716600     1.02768000
H     -2.01089000     0.03986300    -1.37621400
H     -3.15214400     1.29641800    -0.83499400
H      1.26370500     3.92273800    -0.68940900
H     -0.79080400     3.80570500     0.62579900
H      1.22968500    -0.77740100    -1.29812700
H      4.89834900    -0.59688900     1.71364500
H      3.85743000    -2.79306500    -2.46729300
H      2.98485500    -3.80751800    -1.33400800
H      2.09145200    -2.73583100    -2.41940200
H     -4.96279000    -1.36910400     2.23529500
H     -4.51024100    -2.64331400    -1.28227500
