  33
        -63.10338156
 O         -1.6175683359        0.1649927002        1.3987164769
 O         -2.2075313790        1.6617078570       -1.7951102322
 O         -4.2193310289        0.7457938438       -0.3693842268
 O         -1.4503672635       -2.4721329383       -0.0948202172
 O          4.6633355679        0.6348185978       -0.0553154044
 N          0.1189037844        1.3125587927        0.3700365219
 N          2.0969307760        2.3493340256        0.4477285652
 N          0.8612777473       -0.9413672130       -0.1313847713
 N          3.2035551279       -1.0768769276       -0.3073613233
 N          1.8525768036       -2.9433658887       -0.5938815392
 C         -1.9101221579        0.6361274337       -0.9062911992
 C         -1.3037702483        1.1320854007        0.4309776615
 C         -3.1410225542       -0.1558574001       -0.4211066027
 C         -2.7134425318       -0.6559460270        0.9707430955
 C         -2.2904787403       -2.1330638922        0.9755899586
 C          1.0632856104        0.3643445511        0.1172222844
 C          0.8130832297        2.4794212693        0.5624606628
 C          2.2985101999        1.0188355510        0.1683663708
 C          3.4924425002        0.2694525869       -0.0562798648
 C          1.9582794623       -1.6403134167       -0.3416790361
 H         -1.1931555253       -0.0305599535       -1.3930841603
 H         -1.7411537185        2.1068459107        0.6993543621
 H         -3.3518057960       -0.9958558719       -1.0884299513
 H         -3.5241235105       -0.5119612950        1.6950200327
 H         -1.8024711004       -2.3362132681        1.9370531342
 H         -3.1776775492       -2.7632668374        0.8830489819
 H         -3.1009991196        1.9899437777       -1.5863751131
 H         -5.0579416335        0.2668101369       -0.3340902516
 H          0.3199774053        3.4051500835        0.7784283291
 H         -0.6555890335       -1.8906830082       -0.0598170629
 H          4.0170340472       -1.6603237536       -0.4733090626
 H          0.9300721403       -3.3479515010       -0.6280073671
 H          2.6603407761       -3.5110925007       -0.7795696900
