33
guanine_ribose  charge=0 mult=1  seed=1_b3lyp_pcm
O     -1.67711400    -0.07160600    -1.22119500
O     -1.95401700    -1.81570900     1.91230400
O     -4.18533800    -0.93226200     0.63918100
O     -1.97262800     2.66742800    -1.77033600
O      4.75829100    -0.66360600    -0.30530000
N      0.19527400    -1.23878100    -0.42290800
N      2.14919300    -2.22177000    -0.92795900
N      1.00148500     0.87214300     0.48569800
N      3.35802900     0.96990100     0.46615200
N      2.09489500     2.72244000     1.32840600
C     -1.79016200    -0.71807700     1.04973100
C     -1.24139000    -1.09602700    -0.34066900
C     -3.10622000     0.00044900     0.69341700
C     -2.78573600     0.66679200    -0.64626200
C     -2.38639100     2.13102200    -0.52024700
C      1.18006900    -0.34844900    -0.05673500
C      0.85216400    -2.33867600    -0.94486000
C      2.37839200    -0.97628100    -0.37476000
C      3.60385200    -0.29655500    -0.10754300
C      2.12623100     1.50474000     0.73847000
H     -1.10712600    -0.01739000     1.52419500
H     -1.64972300    -2.06295400    -0.64693400
H     -3.38063500     0.72527600     1.45663900
H     -3.62978900     0.58276300    -1.33400500
H     -3.25004700     2.71235200    -0.19939200
H     -1.59419400     2.23980300     0.22544500
H     -2.82914000    -2.18954000     1.73525600
H     -4.25608800    -1.32369300    -0.23826100
H      0.29902400    -3.18768900    -1.31218800
H     -1.22024900     2.14875400    -2.07684300
H      4.18865800     1.49787700     0.69678500
H      1.19831700     3.17556800     1.37942600
H      2.90045500     3.32374500     1.30365900
