31
calc_0fc80346cb0cfb89; angstrom; atom order from source job; valid
N 2.113899 1.048837 -0.161674
N 3.169038 2.971308 -0.494853
C 2.029341 1.755926 1.023367
C 2.807447 1.834404 -1.037893
C 2.681777 2.931854 0.795802
H 1.515128 1.377567 1.887171
H 3.015681 1.513274 -2.045089
H 2.826743 3.748976 1.481698
P -2.965899 0.645000 0.065378
O 0.159376 -0.218153 -0.350190
O 1.197416 -3.456476 -0.507620
O 3.251537 -1.919086 0.269892
O -2.650701 -0.897164 -0.208416
O -4.307536 0.875958 -0.748370
O -1.959134 1.463621 -0.843260
O -3.007347 1.007130 1.493535
C 0.822294 -2.401134 0.368524
C -0.314514 -1.580954 -0.276195
C 1.983294 -1.377556 0.521370
C 1.583558 -0.252454 -0.450733
C -1.615460 -1.611161 0.496926
H 0.534617 -2.803445 1.337598
H -0.474562 -1.953423 -1.290198
H 1.986392 -0.981237 1.535322
H 1.891497 -0.508306 -1.467506
H -1.489981 -1.193194 1.495501
H -1.960392 -2.639115 0.581451
H 1.352903 -4.257759 0.001271
H 3.136571 -2.632430 -0.374721
H -5.100930 0.799433 -0.204538
H -1.061053 1.073461 -0.814531
