30
calc_03cc711480b12784; angstrom; first printed source-job orientation; unoptimized start
O -1.223615 0.553077 -1.289602
O -2.232632 -2.180103 -0.133943
O -3.335057 -0.366174 1.467311
O -1.492039 2.798378 0.511802
O 1.366755 -2.418856 -0.717775
N 0.823484 -0.234276 -0.421328
N 3.015999 -1.022152 -0.050057
N 4.651404 0.392267 0.653350
C -1.331998 -1.203787 0.311087
C -2.158543 -0.007088 0.819203
C -0.526195 -0.573374 -0.846731
C -2.374846 0.794984 -0.479694
C -2.565064 2.292031 -0.250302
C 1.169872 1.008968 -0.026152
C 1.764841 -1.294988 -0.405726
C 2.440327 1.279411 0.355585
C 3.377693 0.204887 0.315864
H -0.657216 -1.606392 1.074920
H -1.570085 0.593388 1.519620
H -0.415458 -1.293377 -1.671452
H -3.258646 0.403721 -1.002788
H -2.610571 2.786185 -1.227920
H -3.516307 2.421260 0.278355
H -1.754947 -2.986203 -0.371305
H -3.701634 -1.147500 1.019618
H 0.382402 1.748171 -0.040369
H -1.659337 3.729739 0.714061
H 2.731284 2.264005 0.672307
H 4.978026 1.299425 0.936533
H 5.279429 -0.391938 0.609556
