37
calc_f79711e8c20fd629; angstrom; atom order from source job; valid
P -3.439930 -1.040673 -0.041860
O -0.092851 1.419264 0.993754
O 1.818391 3.708083 -1.008408
O -0.523975 4.522234 0.140229
O -2.293187 0.017891 0.346704
O 4.134748 -3.209428 -0.310572
O -3.676163 -1.768432 1.353503
O -2.763950 -2.157117 -0.906885
O -0.419623 -3.127618 -0.223686
O -4.617560 -0.434996 -0.683090
N 2.092875 0.830402 0.464681
N 0.651601 -1.145903 0.145928
N 4.083565 -0.178821 0.252937
N 1.855604 -3.088570 -0.265230
C 0.877426 2.712375 -0.717514
C 1.151754 1.942773 0.592285
C -0.554554 3.243969 -0.480250
C -1.189322 2.138774 0.370629
C -2.028171 1.180796 -0.461648
C 1.846995 -0.488111 0.229523
C 3.474944 0.951497 0.472254
C 3.073417 -1.103447 0.096906
C 3.143591 -2.513475 -0.166342
C 0.631258 -2.487474 -0.119960
H 0.874528 2.005179 -1.547083
H 1.568695 2.612767 1.348645
H -1.078298 3.385687 -1.422668
H -1.800257 2.554416 1.171663
H -1.503948 0.873275 -1.367375
H -2.963560 1.661662 -0.742041
H 1.533109 4.519370 -0.563911
H -0.442605 4.446557 1.097541
H 3.945360 1.904641 0.644630
H -0.220064 -0.678631 0.367250
H 1.828083 -4.079021 -0.467223
H -4.137759 -1.231043 2.009270
H -1.880534 -2.509624 -0.596705
