30
calc_ba6fa49138980b02; angstrom; first printed source-job orientation; unoptimized start
O -1.112854 0.845522 -0.480406
O -0.856513 -2.528297 0.669489
O -3.307526 -1.815292 -0.072560
O -3.147323 2.873885 -0.557816
O 4.906704 1.023411 0.148869
N 1.031819 0.007499 -0.089819
N 3.320957 -0.548408 -0.298310
N 1.710630 -2.113105 -0.805801
C -1.087556 -1.139256 0.741077
C -2.578080 -0.754553 0.530527
C -0.369601 -0.341282 -0.365637
C -2.510573 0.527779 -0.324794
C -3.209312 1.729799 0.281999
C 2.055351 -0.869405 -0.381960
C 1.369375 1.240440 0.425181
C 2.655301 1.606909 0.558325
C 3.709332 0.704821 0.126491
H -0.744708 -0.777005 1.710431
H -3.059820 -0.575536 1.488805
H -0.376864 -0.905413 -1.303129
H -2.929943 0.329022 -1.317007
H -4.264985 1.493637 0.409708
H -2.782429 1.942183 1.266661
H -1.656246 -2.929575 0.293538
H -3.270523 -1.751653 -1.033778
H 0.539132 1.874507 0.685295
H -2.228430 3.152655 -0.630422
H 2.910433 2.575939 0.957641
H 2.493076 -2.736168 -0.924043
H 0.862146 -2.539840 -0.454045
