37
calc_89d5b7ad758f6bc5; angstrom; atom order from source job; valid
P -2.254016 -2.267179 0.185390
O -1.057724 0.789230 0.797045
O 0.247319 3.536011 -1.078799
O -2.279823 3.745705 -0.144127
O -3.146619 -0.964170 0.316077
O -1.435577 -2.234061 1.548408
O -1.249518 -2.014714 -0.978741
O -3.051657 -3.487764 0.010609
N 1.241726 1.129770 0.665637
N 3.433217 1.069056 1.128364
N 1.108380 -0.886804 -0.732153
N 3.239015 -1.935860 -1.006374
N 5.170524 -1.144702 -0.020454
C -0.406949 2.342203 -0.789397
C -1.934263 2.474939 -0.653651
C -0.056467 1.741216 0.575230
C -2.288618 1.297877 0.271632
C -3.003439 0.199534 -0.485902
C 1.739290 0.026758 0.018969
C 2.313006 1.701789 1.307779
C 3.090727 0.010418 0.316699
C 3.858333 -1.029165 -0.234909
C 1.931810 -1.820203 -1.199778
H -0.162510 1.613381 -1.563509
H -2.427774 2.395972 -1.619926
H -0.069705 2.528597 1.338552
H -2.908297 1.638787 1.105064
H -2.466034 -0.040528 -1.402740
H -4.004800 0.538467 -0.746001
H -0.288113 4.251385 -0.716542
H -2.236679 3.755067 0.814206
H 2.185894 2.598514 1.893604
H 1.471286 -2.588353 -1.809832
H 5.657823 -0.474939 0.545942
H 5.681711 -1.898956 -0.441989
H -1.216207 -3.115487 1.861679
H -0.428183 -1.448529 -0.808298
