  8
        -20.49113240
 P          0.0750175630        0.0304874970       -0.0593436863
 O          0.3090545380       -1.2380975913        0.8728025623
 O         -0.6020706789        1.1083737857        0.8905772224
 O         -1.0985919486       -0.3990688214       -1.0031477431
 O          1.2859553884        0.4935232032       -0.7543109724
 H          1.2387229962       -1.4341477256        1.0135349833
 H          0.0164326070        1.7530502419        1.2440658592
 H         -1.8833629599       -0.6959313064       -0.5279717641
  8
        -20.49113114
 P          0.0879686668        0.0205992574       -0.0444449247
 O          0.3119743681       -1.2407396458        0.8612258625
 O         -0.5780743736        1.1140224612        0.9037884736
 O         -1.0989339202       -0.4336369738       -0.9880355374
 O          1.3034094804        0.4930731964       -0.7250876132
 H         -0.4959739648       -1.5699634137        1.2721013854
 H         -0.0190066054        1.8838843679        1.0348661866
 H         -1.2100871966        0.1210439561       -1.7648737697
  8
        -20.48962778
 P          0.0774858716        0.0389287049       -0.0547851867
 O          0.3063459087       -1.2376962407        0.8692906117
 O         -0.5462725124        1.1451586278        0.8910103172
 O         -1.0768595064       -0.4154395320       -1.0286515148
 O          1.2715672011        0.5343769041       -0.7465409387
 H          1.2259145365       -1.3516658137        1.1205792826
 H         -1.2416956597        0.8525715259        1.4917858759
 H         -1.6475639808       -1.1162277235       -0.6924518421
  8
        -20.48948223
 P          0.0787321626        0.0419546626       -0.0510839144
 O          0.3148832569       -1.2116958876        0.9024621968
 O         -0.5563094522        1.1155257369        0.9138846397
 O         -1.0683276575       -0.3880819763       -1.0542186197
 O          1.2655596811        0.5156188408       -0.7702382509
 H          1.0848811619       -1.7286500802        0.6532055623
 H         -0.9617600806        0.7565637370        1.7115771692
 H         -1.8410304106       -0.8150648258       -0.6662535983
  8
        -20.48942398
 P          0.0744225332        0.0288634324       -0.0429218996
 O          0.2860858845       -1.2249364924        0.8899669133
 O         -0.5966448260        1.0885495019        0.9129302836
 O         -1.1083340277       -0.4137620403       -0.9871745046
 O          1.2884400974        0.4994365772       -0.7415591078
 H          1.1300052421       -1.2128469315        1.3501363379
 H         -0.5406753963        1.9873528021        0.5764846440
 H         -0.8055900909       -0.8564948196       -1.7848671298
