  8
        -20.49113240
 P          0.0750175630        0.0304874970       -0.0593436863
 O          0.3090545380       -1.2380975913        0.8728025623
 O         -0.6020706789        1.1083737857        0.8905772224
 O         -1.0985919486       -0.3990688214       -1.0031477431
 O          1.2859553884        0.4935232032       -0.7543109724
 H          1.2387229962       -1.4341477256        1.0135349833
 H          0.0164326070        1.7530502419        1.2440658592
 H         -1.8833629599       -0.6959313064       -0.5279717641
