  15
        -27.80288208
 O          1.4640341642        1.7541963916       -0.0005936478
 O         -2.8237074100        0.3049178438        0.0016086363
 N          1.1204241330       -0.5017302286       -0.0019923890
 N         -0.6635142059        0.9787164094       -0.0003216778
 C          0.6962918323        0.8055762985       -0.0008699998
 C          0.2310611863       -1.5275129694       -0.0012441006
 C          2.5431819884       -0.7843820743        0.0029108879
 C         -1.1045144505       -1.3433013037       -0.0007804409
 C         -1.6399092891       -0.0068485155        0.0003143841
 H          0.6673880449       -2.5151187267       -0.0017178264
 H          2.8120889516       -1.3260428562        0.9081691473
 H          2.8081802548       -1.3748970335       -0.8720252462
 H          3.0742053283        0.1647570081       -0.0232028485
 H         -0.9849828377        1.9418529059        0.0015611143
 H         -1.7961056168       -2.1659772243       -0.0006795461
  15
        -27.80212956
 O          1.4752985782        1.7342583361        0.0001065215
 O         -2.8250191491        0.3085760317       -0.0001081764
 N          1.1164257035       -0.5124237430        0.0003358633
 N         -0.6631495791        0.9784093280        0.0001280578
 C          0.6948353590        0.7970043804        0.0002383616
 C          0.2261555120       -1.5343659369        0.0002472345
 C          2.5467147367       -0.7477782964       -0.0007153670
 C         -1.1095641454       -1.3426898784        0.0002010629
 C         -1.6416120946       -0.0059185199       -0.0002984593
 H          0.6512127906       -2.5267033601       -0.0000091673
 H          2.9899185276       -0.2950557499       -0.8873458152
 H          2.9935997136       -0.2771734829        0.8746598693
 H          2.7383289507       -1.8152936012        0.0095836740
 H         -0.9817389868        1.9424017804        0.0000799163
 H         -1.8038536308       -2.1630549661        0.0005095415
