  15
        -27.80288208
 O          1.4640341642        1.7541963916       -0.0005936478
 O         -2.8237074100        0.3049178438        0.0016086363
 N          1.1204241330       -0.5017302286       -0.0019923890
 N         -0.6635142059        0.9787164094       -0.0003216778
 C          0.6962918323        0.8055762985       -0.0008699998
 C          0.2310611863       -1.5275129694       -0.0012441006
 C          2.5431819884       -0.7843820743        0.0029108879
 C         -1.1045144505       -1.3433013037       -0.0007804409
 C         -1.6399092891       -0.0068485155        0.0003143841
 H          0.6673880449       -2.5151187267       -0.0017178264
 H          2.8120889516       -1.3260428562        0.9081691473
 H          2.8081802548       -1.3748970335       -0.8720252462
 H          3.0742053283        0.1647570081       -0.0232028485
 H         -0.9849828377        1.9418529059        0.0015611143
 H         -1.7961056168       -2.1659772243       -0.0006795461
