15
1_methyluracil  charge=0 mult=1  seed=1_b3lyp_pcm
O      1.39180100     1.82028000    -0.00000200
O     -2.89310700     0.27970500    -0.00000000
N      1.08187000    -0.44666400     0.00000300
N     -0.73743900     1.00358300     0.00000100
C      0.63368100     0.86388700     0.00000100
C      0.20058300    -1.49334300     0.00000000
C      2.53070300    -0.66581700    -0.00000100
C     -1.13908700    -1.33449600    -0.00000100
C     -1.70082800    -0.00767000    -0.00000000
H      0.65503900    -2.47263000    -0.00000000
H      2.97708700    -0.21917100    -0.88494300
H      2.97710000    -0.21909300     0.88489500
H      2.71608700    -1.73446200     0.00004500
H     -1.07587500     1.95619800     0.00000100
H     -1.80032500    -2.18452400    -0.00000300
