32
calc_14dd388accc7bb16; angstrom; first printed source-job orientation; unoptimized start
O -0.411154 -1.672264 0.522966
O -1.601268 2.431427 -1.083002
N -2.611059 -1.200783 0.300969
N -0.989774 0.381990 -0.280071
C -1.282122 -0.878270 0.197939
C -3.585003 -0.323980 -0.043524
C -2.983013 -2.513053 0.799885
C -3.307960 0.908087 -0.508874
C -1.945815 1.336242 -0.661312
H -4.597339 -0.678133 0.080263
H -3.576516 -2.407626 1.705882
H -3.555049 -3.046199 0.043030
H -2.073378 -3.064853 1.023868
H -4.076684 1.607143 -0.784738
O 1.071163 -0.180915 -1.242783
O 3.175312 1.864843 0.110815
O 1.009176 1.996366 1.607729
O 2.390762 -2.258072 0.582958
C 2.638587 0.597515 0.397700
C 2.450261 -0.269179 -0.862900
C 1.196770 0.815569 0.899999
C 0.407061 0.749546 -0.427784
C 2.835582 -1.740840 -0.644023
H 3.234949 0.067236 1.145251
H 3.042033 0.138651 -1.692235
H 0.892678 -0.008237 1.550026
H 0.403436 1.746268 -0.897145
H 3.923775 -1.829492 -0.629046
H 2.436181 -2.320587 -1.484586
H 4.139840 1.819283 0.063444
H 1.603844 2.670866 1.233626
H 1.418159 -2.232234 0.599364
