34
calc_ae9385daab161c6f; angstrom; atom order from source job; valid
P -4.022442 -0.813909 -0.189529
O 0.394768 0.448395 1.499166
O -1.600433 1.582836 -1.304328
O 0.341326 3.086089 -0.173200
O -3.118180 -0.352766 1.035399
O 3.952791 1.814671 0.126424
O -3.937087 0.331464 -1.270868
O -5.496281 -0.718121 0.379321
O -3.741486 -2.179183 -0.683036
O 5.403920 -2.414671 -0.704028
N 2.445843 0.106281 0.375768
N 4.639866 -0.321230 -0.260980
C -0.568810 0.926555 -0.584329
C 0.717564 1.748951 -0.465315
C -0.897932 0.619519 0.884377
C 1.402210 1.094524 0.750341
C -1.705780 -0.638352 1.167890
C 3.697766 0.615579 0.083545
C 2.184156 -1.234302 0.274420
C 3.122281 -2.135093 -0.081888
C 4.456621 -1.695493 -0.374400
H -0.359025 -0.000460 -1.115325
H 1.337214 1.703573 -1.358275
H -1.404663 1.475429 1.337646
H 1.896573 1.845212 1.360037
H -1.557151 -0.937912 2.202276
H -1.422097 -1.459939 0.512680
H -1.667843 2.494971 -0.987011
H 1.114036 3.655076 -0.266985
H 1.173286 -1.523121 0.513139
H 5.562687 0.043059 -0.467325
H 2.887987 -3.184697 -0.147079
H -3.068799 0.823692 -1.299449
H -5.798692 0.177353 0.588456
