38
calc_b2b0d02a6d2c305f; angstrom; atom order from source job; valid
N 3.782653 -0.317010 -0.528649
N 2.483826 -1.893297 0.678138
N 3.108320 1.840597 -0.836894
N 0.455203 -1.436264 1.628813
N 4.546053 -2.460751 -0.174961
C 2.826817 0.604339 -0.344078
C 1.539769 -0.963379 0.869228
C 1.620603 0.336417 0.358187
C 3.562627 -1.526341 -0.014506
H 3.931517 1.893480 -1.414544
H 2.351764 2.468309 -1.077502
H -0.016022 -0.696580 2.134679
H 0.756425 -2.191829 2.231878
H 4.297448 -3.421878 -0.015446
H 5.236782 -2.284311 -0.883987
P -2.455717 -1.742037 -0.681703
O -0.404412 1.097646 1.506887
O -1.194888 3.865668 0.329745
O 0.540841 2.974037 -1.413286
O -2.323485 -0.182725 -0.379042
O -1.734719 -2.497878 0.492518
O -3.985879 -2.151762 -0.485191
O -2.013793 -2.006875 -2.059584
C -1.455301 2.520908 -0.074663
C -1.697494 1.605120 1.125448
C -0.146615 1.981215 -0.673433
C 0.625661 1.467017 0.577257
C -2.666415 0.464750 0.862878
H -2.272284 2.491305 -0.792800
H -2.093705 2.184463 1.960943
H -0.359324 1.153422 -1.344243
H 1.170868 2.323955 0.993152
H -2.631048 -0.243425 1.690108
H -3.679902 0.856561 0.777828
H -2.012598 4.371693 0.317983
H 0.300053 3.826467 -1.019260
H -0.858640 -2.105366 0.825869
H -4.245208 -2.353791 0.421489
