38
calc_b2b0d02a6d2c305f; angstrom; first printed source-job orientation; unoptimized start
N 3.529889 0.525898 -0.648242
N 2.860102 -1.327495 0.652650
N 2.440626 2.507252 -0.597340
N 0.960428 -1.383490 1.905913
N 4.783546 -1.391986 -0.592788
C 2.438598 1.198061 -0.266429
C 1.751172 -0.674745 1.004979
C 1.425789 0.588401 0.512856
C 3.675800 -0.721278 -0.209820
H 3.157502 2.784742 -1.245793
H 1.600213 3.058330 -0.548235
H 0.418033 -0.811060 2.536682
H 1.491071 -2.125212 2.345039
H 4.805472 -2.380369 -0.416503
H 5.307453 -1.009725 -1.359386
P -1.578127 -1.719270 -0.633548
O -0.864777 0.349063 1.240950
O -2.788522 2.873312 -0.188956
O -0.268745 3.364773 -0.453843
O -2.988518 -1.051776 -0.206659
O -1.042279 -2.469515 0.631380
O -2.133235 -2.857699 -1.572293
O -0.654810 -0.849064 -1.379718
C -2.039071 1.692654 -0.303799
C -2.142501 0.892744 1.001990
C -0.518960 1.987132 -0.435055
C 0.116269 1.280824 0.796544
C -3.145986 -0.250198 0.947275
H -2.368959 1.073278 -1.139714
H -2.420209 1.586655 1.811856
H -0.128500 1.542635 -1.354537
H 0.247046 2.052003 1.580481
H -3.016577 -0.869993 1.838760
H -4.163241 0.142113 0.896593
H -3.101022 3.158434 -1.059090
H -1.053642 3.817402 -0.086033
H -0.226059 -2.056794 1.092670
H -2.695270 -3.510131 -1.136916
