38
calc_59c363ed4bc285ea; angstrom; first printed source-job orientation; unoptimized start
P 3.440760 2.891120 1.510990
O -0.813440 3.037700 2.941830
O -3.780270 1.651800 1.430560
O -1.949050 0.009230 2.329760
O 2.054040 2.440840 2.284240
O 3.557290 1.738880 0.361280
O 4.194190 1.746530 2.567000
O -3.048900 8.786180 0.952900
O 2.766430 3.915520 0.565850
N -2.616060 4.489150 2.415290
N -3.894080 6.321950 2.548580
N -0.934390 5.249290 0.820680
N -1.317890 7.500890 0.187720
N 0.527230 6.332990 -0.593170
C -2.466030 2.216080 1.431320
C -1.417750 1.129190 1.609020
C -2.217060 3.113140 2.636590
C -0.297270 1.791810 2.414240
C 0.919790 2.046450 1.522370
C -2.047810 5.412860 1.582610
C -3.736140 5.079720 2.958330
C -2.838380 6.533990 1.700280
C -2.461830 7.710920 0.946430
C -0.600230 6.324580 0.164690
H -2.304290 2.749900 0.486160
H -1.081660 0.738880 0.643040
H -2.765710 2.750920 3.515210
H -0.003480 1.186030 3.278530
H 0.679150 2.813180 0.782280
H 1.181890 1.116680 1.007600
H -3.818210 1.009850 0.696140
H -2.821980 0.264000 2.685120
H -4.398060 4.556200 3.635910
H -0.979180 8.310330 -0.303350
H 0.986720 5.427550 -0.656880
H 0.532620 6.869550 -1.450130
H 2.891050 1.933120 -0.320480
H 4.638620 2.206800 3.299250
