37
calc_8efe3a51a5020e3f; angstrom; atom order from source job; valid
N 3.382562 0.630338 0.540941
N 3.177574 -1.134399 -1.035925
N 5.148206 -0.945081 0.283695
N 1.510208 0.403115 -0.789857
N 5.303238 0.785672 1.772479
N 4.901615 -2.623470 -1.251830
C 2.734610 -0.045743 -0.403235
C 4.591267 0.133813 0.838485
C 4.392731 -1.536706 -0.647919
H 1.019215 -0.207174 -1.422338
H 4.890882 1.557234 2.262156
H 6.181484 0.412409 2.079971
H 4.344414 -3.134767 -1.909940
H 5.781421 -2.995699 -0.947800
P -3.986933 -1.205156 0.097364
O 0.115854 0.985708 1.044305
O -2.715666 1.730798 -1.017283
O -0.659788 3.334340 -0.583520
O -3.133811 -0.617286 1.298687
O -4.729430 0.038117 -0.518786
O -5.154850 -2.008100 0.787173
O -3.214264 -2.040038 -0.828373
C -1.480381 1.140564 -0.687875
C -1.278577 0.865707 0.813368
C -0.289670 2.042278 -1.010455
C 0.801350 1.447392 -0.120849
C -1.708452 -0.514712 1.282356
H -1.416906 0.212903 -1.257403
H -1.815765 1.625013 1.390469
H -0.017696 2.031437 -2.064776
H 1.516787 2.198052 0.200370
H -1.280679 -1.288422 0.644351
H -1.376581 -0.671885 2.305721
H -2.665979 2.666866 -0.791712
H -0.098687 3.989274 -0.999998
H -4.103928 0.764557 -0.742240
H -5.759412 -1.479585 1.315289
