35
calc_9b9694792829334f; angstrom; first printed source-job orientation; unoptimized start
P 1.518330 -2.813900 1.302410
O -0.995940 -0.999760 -1.667500
O -1.040500 -2.380880 -4.400910
O 0.288580 -0.115320 -4.963210
O 0.429220 -2.872870 0.136070
O -1.397270 2.298540 -4.000960
O 0.852150 -3.602250 2.518560
O 1.457730 -1.317560 1.847240
O 2.874090 -3.333460 0.975990
N -0.527840 1.298920 -2.129190
N -0.714100 3.668250 -2.334920
N -0.094920 5.051150 -0.642900
C 0.052440 -2.051350 -3.522010
C 0.320250 -0.556420 -3.612640
C -0.337900 -2.231800 -2.058890
C -0.798230 -0.009560 -2.710660
C 0.874130 -2.473560 -1.156080
C 0.057850 1.436540 -0.890680
C -0.894170 2.420000 -2.886020
C 0.250800 2.636150 -0.346790
C -0.204820 3.786810 -1.150120
H 0.905230 -2.658840 -3.837480
H 1.304430 -0.316820 -3.196060
H -1.070170 -3.035510 -1.923850
H -1.740840 0.046850 -3.270230
H 1.482740 -1.568380 -1.060190
H 1.492720 -3.282900 -1.556980
H -1.874730 -2.376900 -3.895400
H -0.447820 -0.589170 -5.396480
H 0.339210 0.535030 -0.356740
H 0.684350 2.787820 0.629620
H 0.655230 5.240640 0.008600
H -0.217130 5.768660 -1.351110
H 1.280730 -4.472770 2.625380
H 0.612490 -1.169390 2.309240
