34
calc_efcba939421d0874; angstrom; atom order from source job; valid
O 2.112142 2.216314 2.383373
O 1.197378 0.206175 1.985049
N 2.011683 0.519449 -0.839971
N 3.004381 2.402184 -0.183263
C 2.269947 1.376508 0.212727
C 2.624674 1.065743 -1.934381
C 3.235202 2.218015 -1.510048
C 1.797990 1.182359 1.588704
H 2.571995 0.597055 -2.900538
H 3.817290 2.911348 -2.092301
H 1.781337 2.013661 3.271472
P -3.113811 0.894819 -0.160569
O -0.111698 -0.432223 -0.579944
O 0.192594 -3.793346 0.452186
O 2.282972 -2.897289 -0.865101
O -2.968322 -0.686561 0.008359
O -2.107034 1.306207 -1.312332
O -4.490280 1.033850 -0.936708
O -3.009868 1.650882 1.100524
C 0.387774 -2.399341 0.631409
C -0.726759 -1.637645 -0.097123
C 1.701935 -1.901979 -0.048676
C 1.240160 -0.710377 -0.922886
C -1.903673 -1.280123 0.782142
H 0.406938 -2.143909 1.686540
H -1.065975 -2.238092 -0.946510
H 2.424178 -1.579332 0.696061
H 1.303353 -1.027940 -1.963476
H -2.315489 -2.187652 1.217432
H -1.598363 -0.604577 1.580271
H 0.451183 -4.261601 1.252326
H 1.766817 -3.707336 -0.730399
H -1.258676 0.820176 -1.239058
H -5.236452 1.223446 -0.355099
