38
calc_d9f69c85a52fb242; angstrom; atom order from source job; valid
N 2.692198 -2.183875 -0.226365
N 4.393250 -0.574702 0.216281
N 0.474908 -1.630046 -0.302315
N 3.936837 1.623071 0.646668
N 4.917160 -2.769776 -0.231234
C 1.756275 -1.225669 -0.095473
C 3.452668 0.379574 0.342104
C 2.079614 0.113350 0.207259
C 3.961749 -1.807184 -0.060035
H 0.315047 -2.623538 -0.345311
H -0.281740 -1.060617 0.041895
H 3.384956 2.433318 0.422561
H 4.929806 1.739357 0.520275
H 5.831397 -2.575054 0.142726
H 4.612104 -3.727795 -0.179757
P -3.632808 -1.224696 -0.021522
O -0.039223 0.765669 1.203267
O -0.739200 3.734269 -0.110165
O 1.112221 2.487390 -1.758058
O -2.485867 -0.139392 0.050649
O -4.850237 -0.418825 -0.639690
O -3.167919 -2.135487 -1.231778
O -3.924285 -1.934076 1.243103
C -0.946645 2.343080 -0.360985
C -1.163833 1.639886 0.991206
C 0.323202 1.663985 -0.920115
C 1.047809 1.192490 0.355443
C -2.437033 0.842063 1.120876
H -1.795311 2.216493 -1.030676
H -1.184408 2.402522 1.774729
H 0.032905 0.806339 -1.522717
H 1.501836 2.076400 0.812662
H -2.462596 0.323835 2.077695
H -3.297610 1.505090 1.040842
H -0.797725 4.205857 -0.949469
H 1.336890 3.292128 -1.272603
H -5.715319 -0.821546 -0.476350
H -2.505342 -2.800900 -0.995196
