15
calc_33fca431883e2cd5; angstrom; first printed source-job orientation; unoptimized start
N 1.112286 0.812066 0.001034
N 0.147185 -1.369313 0.000616
N -1.259370 0.557108 -0.000227
N 2.424916 -1.072661 -0.035693
N -0.283438 2.636538 0.031672
N -2.141670 -1.563773 0.032231
C 1.189486 -0.526276 -0.002802
C -0.138913 1.293204 0.002983
C -1.050422 -0.767055 0.002980
H 2.525411 -2.062640 0.099456
H 3.224797 -0.480832 0.099879
H -1.196211 3.032660 -0.103939
H 0.523218 3.218193 -0.107922
H -2.029061 -2.551715 -0.108539
H -3.048430 -1.154660 -0.105341
