43
two-water starting placement; unconstrained optimization required
P -2.438546 2.031129 0.212587
O -0.760314 -1.040624 -1.217839
O 0.071510 -3.036781 1.650306
O -2.218895 -3.607037 0.348197
O -2.888861 0.501939 0.261138
O -3.511397 2.783844 -0.702923
O -1.139674 2.118609 -0.657502
O -2.405800 2.557417 1.587530
N 1.476997 -1.229666 -0.529408
N 3.727077 -1.263823 -0.569120
N 1.173295 1.134188 0.123355
N 3.263554 2.257110 0.465648
N 5.316384 1.233883 0.151174
C -0.478949 -2.001031 0.881686
C -1.962586 -2.211841 0.501693
C 0.162991 -1.834176 -0.507679
C -2.084464 -1.497904 -0.865116
C -3.048074 -0.332916 -0.901572
C 1.890795 0.037369 -0.172334
C 2.633829 -1.949786 -0.754299
C 3.282279 -0.011615 -0.200049
C 3.979085 1.163509 0.139579
C 1.937405 2.186569 0.432189
H -0.365972 -1.070793 1.436636
H -2.629346 -1.785174 1.244582
H 0.282229 -2.819736 -0.970231
H -2.412823 -2.231800 -1.605462
H -4.069492 -0.709527 -0.885740
H -2.901355 0.236990 -1.817652
H -0.363396 -3.856658 1.374712
H -2.826540 -3.898397 1.033757
H 2.586534 -2.984939 -1.050304
H 1.404535 3.097170 0.676746
H 5.876171 0.433138 -0.082311
H 5.771274 2.093437 0.405778
H -3.212511 2.973167 -1.599700
H -0.746692 3.048843 -0.827830
O -0.075159 4.638443 -1.118888
H 0.851323 4.885788 -1.164177
H -0.550579 5.458816 -1.269100
O 6.410363 -2.040578 -0.377742
H 5.490379 -1.774262 -0.443357
H 6.869317 -1.475853 -1.003878
