34
calc_d3ed330e1379286a; angstrom; atom order from source job; failed
O -1.594504 -0.414236 -1.319060
O -1.751633 -1.599805 2.080544
O -3.915154 -1.319924 0.544631
O -3.687083 2.504656 -0.763850
N 0.354558 -1.259681 -0.319441
N 2.396979 -2.130124 -0.709214
N 1.023883 1.008703 0.357262
N 3.422041 1.294944 0.323012
N 4.904093 -0.403852 -0.265452
N 2.012294 3.037079 0.889464
C -1.694197 -0.666911 1.028699
C -1.088855 -1.231387 -0.272540
C -3.061852 -0.174752 0.541182
C -2.757269 0.320182 -0.876251
C -2.458584 1.810123 -0.972306
C 1.263783 -0.247672 -0.052614
C 1.108557 -2.352891 -0.714009
C 2.515989 -0.811011 -0.297197
C 3.632051 0.027502 -0.085979
C 2.153980 1.720848 0.520182
H -1.093819 0.174563 1.363675
H -1.413819 -2.265987 -0.407421
H -3.474160 0.612520 1.170155
H -3.589557 0.081597 -1.540707
H -1.708986 2.097921 -0.231420
H -2.052819 2.018094 -1.965608
H -2.547409 -2.132602 1.946163
H -4.833547 -1.039723 0.490060
H 0.630728 -3.280789 -0.985052
H -3.511139 3.449937 -0.751133
H 5.082942 -1.316665 -0.644289
H 5.666438 0.245427 -0.181428
H 1.128035 3.304010 1.287502
H 2.825552 3.492496 1.266960
