37
calc_2ab52de2d0314391; angstrom; atom order from source job; valid
P 2.309219 2.300582 -0.162747
O 0.854908 -0.768334 0.797057
O 1.036316 -3.708901 1.291618
O 2.209772 -3.494113 -1.126902
O 2.965386 0.877955 -0.425009
O 3.589830 3.230314 -0.005793
O 1.729166 2.314373 1.316624
O 1.285939 2.711325 -1.134764
O -3.853598 2.301721 0.598446
N -1.413783 -1.131757 0.256840
N -3.269305 -0.929805 -0.957522
N -1.450758 0.895625 1.567070
N -5.085067 1.249693 -0.998518
C 0.272770 -3.003518 0.324552
C 1.265132 -2.524567 -0.749371
C -0.228734 -1.681134 0.918074
C 1.871846 -1.270819 -0.089188
C 2.273858 -0.208441 -1.084679
C -1.969844 0.078920 0.600433
C -2.250688 -1.692724 -0.695061
C -3.121233 0.195232 -0.159355
C -4.034984 1.325374 -0.148993
H -0.515507 -3.634036 -0.075958
H 0.718179 -2.247221 -1.650672
H -0.456941 -1.785019 1.977948
H 2.739955 -1.557564 0.508872
H 1.408155 0.178687 -1.619221
H 2.980987 -0.627237 -1.798370
H 0.474127 -4.332831 1.760832
H 2.461396 -3.978271 -0.328614
H -2.054065 -2.647698 -1.148139
H -1.938275 1.781300 1.604224
H -0.443285 0.979202 1.585370
H 4.129079 3.308671 -0.802703
H 2.330987 1.990219 1.998739
H -5.201441 0.449592 -1.596223
H -5.749721 2.002519 -1.038655
