35
DFT refinement start; not an optimized result
O 1.050962 -0.668985 -2.241415
O 3.894860 -1.891227 1.147708
O -0.477956 -1.333103 1.881330
N 0.153299 -1.443307 -0.310058
N 1.664127 -1.829715 1.446343
C 2.506466 -1.898289 -0.810033
C 1.213792 -1.251411 -1.194261
C 2.789659 -1.852716 0.662356
C 0.389448 -1.511256 1.053623
H 3.327349 -1.445832 -1.368096
H 2.448726 -2.954095 -1.101130
H 1.814091 -1.788270 2.452406
P 0.939249 2.110750 -0.173187
O -1.176039 0.447057 -0.842753
O -4.251568 0.025238 0.477092
O -3.343717 -1.897632 -1.015286
O -0.403957 2.641736 0.533590
O 0.743818 2.189556 -1.738115
O 1.902383 3.324647 0.080403
O 1.468909 0.856241 0.391190
C -2.891361 -0.211553 0.701981
C -2.079224 0.962733 0.125457
C -2.393479 -1.456374 -0.093070
C -1.134481 -0.954509 -0.826507
C -1.277072 1.732512 1.174946
H -2.664374 -0.335564 1.762626
H -2.745763 1.654831 -0.402642
H -2.155524 -2.292799 0.566848
H -1.163142 -1.296187 -1.869352
H -0.693105 1.031518 1.778171
H -1.931623 2.331012 1.808669
H -4.791877 -0.481411 1.101704
H -4.026450 -1.204607 -1.107018
H 0.504184 1.364882 -2.179201
H 1.634641 4.158149 -0.326329
