32
calc_ef13cf20cb2d6086; angstrom; atom order from source job; valid
O -0.591934 1.347182 -1.046633
O -1.642225 -2.369819 1.440586
N -2.756930 1.013239 -0.452835
N -1.084996 -0.530582 0.170433
C -1.419603 0.655822 -0.478119
C -3.688943 0.247164 0.183504
C -3.129894 2.254151 -1.138508
C -3.373892 -0.893703 0.824076
C -2.012818 -1.354179 0.865704
H -4.701610 0.618826 0.141246
H -4.200842 2.391634 -1.036118
H -2.609682 3.099147 -0.694624
H -2.869241 2.192727 -2.191970
H -4.126633 -1.480209 1.323177
O 1.037702 -0.020050 1.047020
O 3.409198 -0.352724 -1.587950
O 1.634078 -2.295674 -1.262795
O 3.026565 1.638072 2.377278
C 2.182613 0.070083 -1.005048
C 2.343903 0.211236 0.510489
C 1.068896 -0.996775 -1.141968
C 0.323014 -0.924653 0.206451
C 2.824808 1.571646 0.968243
H 1.846198 1.005942 -1.442943
H 3.035162 -0.560883 0.867958
H 0.412873 -0.795501 -1.986773
H 0.323008 -1.916761 0.646113
H 2.113008 2.335600 0.641899
H 3.790204 1.780181 0.508548
H 3.490894 0.024248 -2.469442
H 2.514369 -2.177719 -1.649031
H 2.180206 1.483516 2.809785
