  35
        -75.22235942
 O         -0.4616065532       -1.0120929644        1.9160321550
 O          3.9545755121       -1.4647725701        0.8877253046
 O          0.8862766165       -1.5143976180       -2.3770127845
 N          0.0985388256       -1.4654391727       -0.2358930898
 N          2.3946990364       -1.6870841057       -0.7258000223
 C          1.6949510931       -1.9437614181        1.5523054148
 C          0.3670046877       -1.3916011690        1.1186957621
 C          2.7996195734       -1.6463018356        0.5854234902
 C          1.1118687737       -1.5502101386       -1.1891322977
 H          1.5955867329       -3.0330865801        1.6191084478
 H          1.9397216274       -1.5620939326        2.5439009703
 H          3.1121625470       -1.5694173618       -1.4378911555
 P          0.9988927586        2.0431474586       -0.1441224691
 O         -1.1583338294        0.4404078522       -0.8309138927
 O         -4.2791451687        0.1593543017        0.4160020386
 O         -3.3929836199       -1.9322208524       -0.8491113592
 O         -0.3661949424        2.6805165330        0.4149850451
 O          0.9331423719        1.8685318593       -1.6971015258
 O          1.9639230219        3.2937208062       -0.0244791620
 O          1.4515168375        0.8411776032        0.5790586780
 C         -2.9319641010       -0.0900661199        0.6998575944
 C         -2.0842522727        1.0296079687        0.0725461399
 C         -2.4332853418       -1.3957404107        0.0090867377
 C         -1.1743273953       -0.9600448037       -0.7701079652
 C         -1.3015839687        1.8602817901        1.0904686585
 H         -2.7443303611       -0.1424017333        1.7747957679
 H         -2.7293000287        1.6905250872       -0.5198809020
 H         -2.1877610376       -2.1706110349        0.7372494794
 H         -1.2205097082       -1.3438647593       -1.7972906704
 H         -0.7713518969        1.1916361698        1.7739219573
 H         -1.9606139645        2.5333921860        1.6387160141
 H         -4.8477846445       -0.3670822330        0.9981201652
 H         -3.9964897423       -1.2182070697       -1.1274535872
 H          0.7656114343        2.6759331791       -2.1997812023
 H          2.2364307566        3.5437510756        0.8643659765
