35
barbituric_acid_Nlink_ribose_phosphate  charge=0 mult=1  seed=1_b3lyp_pcm
O     -3.82033400     1.58241900    -1.20335300
O     -5.27151400    -2.69132000     0.18268500
O     -1.00254900    -1.39233600     0.82595600
N     -2.37871200     0.17725600    -0.12175200
N     -3.14919900    -1.98342400     0.48972100
C     -4.77977500    -0.42471600    -0.40274800
C     -3.63690800     0.53316200    -0.62850400
C     -4.45345800    -1.79969300     0.10173400
C     -2.10195500    -1.07908500     0.42684900
H     -5.34348900    -0.50922000    -1.33009000
H     -5.45315200     0.04314100     0.32019700
H     -2.89794700    -2.88955100     0.86370900
P      4.31084600    -0.94973800    -0.11550700
O     -0.32581900     0.63110700    -1.20084700
O      0.70711300     3.30706400    -0.00320300
O     -1.14676400     2.54146600     1.73921400
O      3.18087100     0.12987900    -0.37235300
O      5.62690600    -0.05995100    -0.12399500
O      4.12625600    -1.27305000     1.43076500
O      4.31365900    -2.11605200    -1.01463800
C      0.84677000     1.94721300     0.40294400
C      1.00486300     1.00820000    -0.79935600
C     -0.51190100     1.53175700     0.99302500
C     -1.28188400     1.13991700    -0.28480200
C      1.79598900    -0.26212800    -0.51697100
H      1.65945900     1.84112200     1.11934400
H      1.47640900     1.54235100    -1.62507500
H     -0.38545800     0.67283900     1.64214300
H     -1.75760900     2.02681800    -0.69507500
H      1.69656100    -0.94763800    -1.35653300
H      1.45381900    -0.75573400     0.39029700
H      1.57211300     3.72503400    -0.04428200
H     -0.90491200     3.38766400     1.33735300
H      6.02696300     0.03432700    -0.99737500
H      4.49688000    -2.12346100     1.69734300
