32
DFT refinement start; not an optimized result
O 1.549890 -0.005361 -1.302279
O 3.171949 2.169139 0.503490
O 3.868344 -0.195073 1.430363
O 1.373742 -2.558504 -0.085423
O -4.636563 0.672026 0.374656
O -1.926341 -2.954839 0.310747
N -0.161863 1.338493 -0.478609
N -0.920912 -0.960891 -0.064143
N -2.130170 2.372393 -0.263020
N -3.212287 -1.087972 0.338906
C 1.263866 1.220177 -0.685564
C 2.081814 1.299375 0.636471
C 2.635115 -0.137381 0.793291
C 2.658790 -0.635369 -0.667242
C 2.523513 -2.147551 -0.798192
C -1.079482 0.378211 -0.195271
C -0.868598 2.520096 -0.508037
C -2.306106 1.028632 -0.062872
C -3.492986 0.273728 0.227536
C -2.010742 -1.744559 0.200461
H 1.562737 2.050777 -1.343147
H 1.436343 1.576885 1.473483
H 1.943087 -0.755147 1.372853
H 3.591032 -0.310595 -1.149464
H 2.433755 -2.399430 -1.859821
H 3.423848 -2.607701 -0.377965
H -0.404857 3.460684 -0.720096
H 2.966248 3.050462 0.841783
H 4.389486 0.581602 1.160401
H -0.016933 -1.442098 -0.179770
H 1.241898 -3.509969 -0.192912
H -4.009283 -1.685407 0.537650
