32
DFT refinement start; not an optimized result
O 2.210154 1.397927 -0.743791
O 1.598907 -0.740452 1.988345
O 4.018460 -0.028491 1.192444
O 1.723813 -1.174176 -2.184154
O -4.541791 0.101892 -0.913321
O -2.586516 -1.394953 2.886874
N -0.037339 0.865777 -0.356662
N -1.221576 -0.324528 1.426026
N -1.745484 1.182031 -1.751610
N -3.483622 -0.599756 0.961026
C 1.304846 0.913440 0.196034
C 1.769879 -0.504934 0.627808
C 3.231587 -0.533047 0.145516
C 3.181750 0.402010 -1.074255
C 2.839156 -0.329343 -2.377701
C -1.124084 0.306518 0.225675
C -0.479516 1.375844 -1.549217
C -2.192133 0.507483 -0.644554
C -3.497654 0.026824 -0.288069
C -2.436830 -0.812614 1.827579
H 1.291877 1.593809 1.062091
H 1.191101 -1.252072 0.077380
H 3.535394 -1.544763 -0.136719
H 4.122210 0.941804 -1.213225
H 2.624694 0.427031 -3.141421
H 3.716267 -0.912697 -2.682867
H 0.177786 1.885869 -2.221319
H 2.389411 -0.420102 2.458251
H 4.957763 -0.160159 1.007323
H -0.401994 -0.509636 2.005076
H 1.526196 -1.631253 -3.013247
H -4.378575 -0.964191 1.274268
