32
DFT refinement start; not an optimized result
O 2.118044 -0.854790 -0.442396
O 0.708225 2.352592 0.324262
O 3.267389 2.375686 -0.434539
O 4.601196 -2.172744 0.065523
O -4.597332 -1.871457 0.227061
O -3.576945 2.573923 0.026323
N -0.181236 -0.701440 -0.244053
N -1.832748 1.111973 -0.138269
N -1.575050 -2.445286 -0.051340
N -4.015595 0.332024 0.096508
C 1.045497 0.045261 -0.515885
C 1.385073 1.132514 0.519758
C 2.923239 1.252978 0.368120
C 3.337869 -0.105993 -0.230543
C 4.251520 -0.930500 0.658027
C -1.439248 -0.194324 -0.134726
C -0.331750 -2.081977 -0.192598
C -2.293918 -1.268276 -0.014322
C -3.706036 -1.042068 0.114847
C -3.169462 1.423833 -0.003187
H 0.955598 0.486455 -1.515870
H 1.138604 0.756662 1.512519
H 3.387177 1.429502 1.335558
H 3.819654 0.045342 -1.201244
H 5.181186 -0.383020 0.807770
H 3.778751 -1.080224 1.633094
H 0.521293 -2.731641 -0.262506
H 1.294411 2.929248 -0.190524
H 3.316069 2.131936 -1.365827
H -1.153153 1.869086 -0.119325
H 3.806628 -2.711814 -0.009017
H -4.995132 0.563214 0.188626
