  39
        -77.87488572
 N          0.0946123161       -1.4730490074        0.1272400499
 N          1.3310829179       -1.9645304862        1.9294968056
 N          3.4558656192       -1.1665164091        1.0923857579
 N          3.3301909706       -0.1549235776       -1.0771907550
 N          1.3986505535        0.0644973076       -2.3200954045
 N          5.3244139035       -0.4040782209        0.0093308363
 C          1.3850748992       -1.0581779998       -0.1492593606
 C          2.1454701172       -1.3883113151        0.9898897705
 C          2.0221803277       -0.3595740670       -1.1822728410
 C          0.1471044587       -1.9775238380        1.3870401332
 C          3.9850484101       -0.5792916504        0.0186253257
 H         -0.7086951737       -2.3795691383        1.8916041375
 H          0.4514734744        0.3921838173       -2.1951056835
 H          1.9785764197        0.6810229997       -2.8716343070
 H          5.7000602022        0.2178704373       -0.6843993008
 H          5.8031141717       -0.5283705227        0.8837476811
 P         -0.3499203124        2.4744587954        0.1777058633
 O         -1.4998319701        0.0218768865       -0.7815093282
 O         -4.4276921450       -1.4638494679        0.4813411204
 O         -3.0407280181       -2.4280745347       -1.5243778401
 O         -1.8620174212        2.3513380234        0.7232523960
 O         -0.0612412345        4.0066789396        0.4486221517
 O         -0.3808582153        2.4439607983       -1.3894088650
 O          0.5808123310        1.5233868816        0.8013636468
 C         -3.0583786997       -1.2438902887        0.5325436884
 C         -2.6373066605        0.1694536508        0.0616132927
 C         -2.2464905401       -2.1766334296       -0.3992192019
 C         -1.0266594305       -1.3091851949       -0.7644620770
 C         -2.2909299260        1.1003887867        1.2192311642
 H         -2.7559398365       -1.3852742149        1.5743028139
 H         -3.4291997779        0.6248527699       -0.5442271441
 H         -1.9513145371       -3.1028680298        0.1000323051
 H         -0.6696021950       -1.5242248710       -1.7790116639
 H         -1.4835459277        0.6569610134        1.8118801500
 H         -3.1680068765        1.2900647673        1.8387305074
 H         -4.6662165289       -1.7097565328       -0.4309230537
 H         -2.7117579568       -3.1885854738       -2.0233907393
 H          0.1456042428        4.2458250599        1.3573861002
 H         -0.8436629779        3.1876065249       -1.7976011208
