39
2_6_diaminopurine_ribose_phosphate  charge=0 mult=1  seed=1_b3lyp_pcm
N      1.80076500    -0.53846700    -0.01837500
N      2.88309500    -2.39183100    -0.67051300
N      5.14111600    -1.59799000    -0.33004900
N      5.28729800     0.66758100     0.45173500
N      3.47862300     2.04753200     0.83491300
N      7.17440800    -0.62336700     0.17588900
C      3.16459200    -0.26635600     0.09156000
C      3.80953100    -1.44111700    -0.31218900
C      3.96263300     0.83411600     0.45318500
C      1.71502900    -1.81519100    -0.48089800
C      5.80842500    -0.52101100     0.08340000
H      0.75988700    -2.28257700    -0.64409000
H      2.57557500     2.35086800     0.49601900
H      4.17125600     2.77443600     0.92317300
H      7.68819400     0.24120600     0.19769400
H      7.60119500    -1.37325700    -0.34169400
P     -5.37146900    -0.55893400    -0.01423600
O     -0.42218900    -0.48792900     0.62102800
O     -1.92163000     2.51568400    -0.59398500
O      0.74109000     2.59052300    -0.47178900
O     -3.96817000     0.11437600     0.28069300
O     -6.35252500     0.68575600     0.01523300
O     -5.61971600    -1.39452400     1.32242300
O     -5.50516200    -1.32403400    -1.26208100
C     -1.32873100     1.24435800    -0.71408800
C     -1.60256700     0.30992000     0.48464000
C      0.23174200     1.29925000    -0.78308000
C      0.68725800     0.32668800     0.32617900
C     -2.75454600    -0.66293400     0.32175100
H     -1.71681500     0.79318900    -1.62623000
H     -1.75350600     0.91807000     1.38266400
H      0.59358900     0.97097900    -1.75426000
H      0.97930600     0.91110100     1.20360400
H     -2.79035700    -1.35088200     1.16541300
H     -2.64780500    -1.22887400    -0.60356000
H     -1.27860000     3.10392400    -0.17499900
H      0.86162400     3.09706300    -1.28239400
H     -6.35771500     1.19170300     0.83769500
H     -6.24471300    -2.12230300     1.21438700
