30
calc_591f499b8d1ae2c9; angstrom; atom order from source job; valid
O 0.358179 1.834419 0.635294
O 4.875275 0.566483 0.097172
O 1.550410 -2.264538 -1.011424
N 0.876776 -0.256490 -0.112959
N 3.168327 -0.815572 -0.426940
C 2.661278 1.335997 0.571787
C 1.204836 1.006193 0.364050
C 3.681506 0.358615 0.068832
C 1.842536 -1.186065 -0.547298
H 2.814149 1.459376 1.646510
H 2.854764 2.311082 0.126605
H 3.828267 -1.506603 -0.759974
O -1.151520 0.189869 -1.226779
O -3.244784 -1.830282 0.095393
O -1.241266 -1.723935 1.824899
O -2.404477 2.448991 0.234869
C -2.811264 -0.494766 0.359090
C -2.570399 0.296753 -0.939500
C -1.409537 -0.608086 0.984729
C -0.530643 -0.654715 -0.280113
C -2.949139 1.766959 -0.884888
H -3.512045 0.009736 1.020607
H -3.120008 -0.178477 -1.754669
H -1.197575 0.281961 1.567209
H -0.490469 -1.680141 -0.639609
H -2.640024 2.240129 -1.822499
H -4.033860 1.849536 -0.811036
H -4.205492 -1.865209 0.097916
H -1.818620 -2.422491 1.485420
H -1.444395 2.312166 0.247286
