30
calc_591f499b8d1ae2c9; angstrom; first printed source-job orientation; unoptimized start
O 0.268949 -1.888133 -0.187438
O 4.740781 -0.560641 -0.451310
O 1.508970 2.438717 0.429420
N 0.843797 0.266794 0.205988
N 3.094033 0.901406 0.011418
C 2.584897 -1.459282 0.085851
C 1.137996 -1.066480 0.005771
C 3.583541 -0.368970 -0.160049
C 1.794998 1.278744 0.241021
H 2.769954 -2.300771 -0.586716
H 2.759519 -1.844226 1.098823
H 3.756051 1.670147 -0.074020
O -1.180663 -0.108269 1.314153
O -3.317975 1.710310 -0.255526
O -1.214695 1.579520 -1.848565
O -2.558110 -2.441763 -0.162356
C -2.805521 0.406638 -0.372914
C -2.570180 -0.267449 0.993152
C -1.382766 0.529621 -0.955545
C -0.550280 0.675903 0.340333
C -2.947933 -1.757855 1.000398
H -3.435511 -0.219751 -1.010142
H -3.140939 0.249204 1.774144
H -1.103832 -0.391813 -1.472334
H -0.529196 1.734394 0.640869
H -2.506707 -2.213169 1.894252
H -4.034906 -1.849160 1.049306
H -4.279477 1.688542 -0.158003
H -1.801216 2.307022 -1.573794
H -1.587224 -2.468226 -0.202084
