  34
        -71.11218621
 O         -4.9025258476       -1.1367365356       -0.5400514289
 O         -3.5913882162        0.5559766778       -1.1621355922
 N         -1.3837996875       -0.7721810228        0.2000256486
 N         -2.8620099912       -2.2832196372        0.8814926556
 C         -2.6940144545       -1.1852104725        0.1639584109
 C         -0.7196230280       -1.6596598690        0.9737263456
 C         -1.6544330241       -2.5853570431        1.3829709813
 C         -3.7489855322       -0.5046417520       -0.5704225881
 H          0.3360877738       -1.5960364928        1.1388769471
 H         -1.5151878924       -3.4419355227        2.0093993387
 H         -5.6021561034       -0.6633040573       -1.0352329986
 P          3.1385329316       -0.8679596945       -0.2585219823
 O          0.5597532046        0.3712017619       -0.4049896963
 O         -0.0026289454        3.5941822820        1.0792738573
 O         -1.6881294418        2.6713719265       -0.7439414911
 O          3.2838355917        0.7302719795       -0.0955917449
 O          2.4636826398       -1.1790149945       -1.6360708419
 O          4.6406911854       -1.2742714035       -0.5446458818
 O          2.5085883288       -1.5164331619        0.9009590353
 C         -0.0579291961        2.2171848320        0.9278242758
 C          1.0535115038        1.6289736892        0.0360805829
 C         -1.3240890404        1.7129624610        0.2033111329
 C         -0.8440032082        0.3923050491       -0.4601507174
 C          2.3718741819        1.3948201147        0.7548714905
 H          0.0066514385        1.7732702943        1.9264881489
 H          1.2128212726        2.2801502472       -0.8352552477
 H         -2.1450172186        1.5163779857        0.9025716674
 H         -1.1751775546        0.3704655599       -1.5100623973
 H          2.8274539830        2.3455190578        1.0330355726
 H          2.1933067357        0.7751274213        1.6384366738
 H         -0.4291349633        4.0055929306        0.3068179965
 H         -2.5116789458        2.3883297636       -1.1736515346
 H          2.9645582522       -0.8807491855       -2.4060265486
 H          5.2300147917       -1.2679063470        0.2164868401
  34
        -71.11209342
 O         -1.5436157113       -1.8623745095        2.3051119614
 O         -1.0864559264        0.2639061833        1.8354673813
 N         -1.5709185127       -0.4661180449       -1.0292671172
 N         -2.3935856007       -2.3455205320       -0.1859589223
 C         -1.7759127931       -1.2162005648        0.1005473781
 C         -2.0743124320       -1.1956266064       -2.0608150188
 C         -2.5869912274       -2.3435425603       -1.5191300087
 C         -1.4066276155       -0.8553652429        1.4695163613
 H         -2.0384552940       -0.8461987747       -3.0711206675
 H         -3.0808834158       -3.1603576179       -2.0033498371
 H         -1.3233838961       -1.6111768243        3.2243650432
 P          2.2374223687       -1.0821479207        0.2241209993
 O          0.4515113222        0.6545102995       -0.7897408287
 O         -0.1520637824        3.9829564664       -0.0793196662
 O         -2.1114630623        2.8757475978       -1.3713710834
 O          2.7321708574        0.4244321918        0.5208090301
 O          2.1265871701       -1.3031282843       -1.3226101359
 O          3.5779706252       -1.8741604923        0.5350479522
 O          1.0726519406       -1.5085378099        1.0137305628
 C         -0.3234470338        2.6445331671        0.2930146353
 C          0.9059827111        1.8336038245       -0.1518126187
 C         -1.5149811466        1.9946717471       -0.4723779365
 C         -0.8832151797        0.7841523037       -1.2107061063
 C          1.8004301984        1.3755455620        0.9956409602
 H         -0.4725244475        2.5267086266        1.3665433882
 H          1.4848092598        2.4296040166       -0.8726980227
 H         -2.2813998507        1.6447576474        0.2239279633
 H         -0.9097477676        0.9947107900       -2.2923486554
 H          2.3802408928        2.2008026002        1.4082426849
 H          1.1676157728        0.9120487003        1.7575304333
 H         -0.6152778176        4.5683172381        0.5377125782
 H         -1.4990122308        3.6272736112       -1.5064140089
 H          2.9611193046       -1.2007461069       -1.7983781003
 H          3.7782952710       -2.0121003741        1.4662952967
  34
        -71.11139508
 O         -1.5311833150       -1.8714064670        2.3052460710
 O         -1.0832877051        0.2599504752        1.8455267260
 N         -1.5705602202       -0.4514405254       -1.0197535137
 N         -2.3753347882       -2.3453473043       -0.1924193587
 C         -1.7674193421       -1.2141163858        0.1038088530
 C         -2.0661558287       -1.1778774305       -2.0582128665
 C         -2.5681334538       -2.3345286579       -1.5261377111
 C         -1.3984977119       -0.8594738382        1.4752186586
 H         -2.0326159200       -0.8196055537       -3.0654734788
 H         -3.0544049888       -3.1521298671       -2.0166675237
 H         -1.3083381197       -1.6253669649        3.2251927986
 P          2.2320831775       -1.0887449186        0.2255824151
 O          0.4554585036        0.6687743035       -0.8030204686
 O         -0.1720950804        4.0243707642       -0.0641589768
 O         -2.1067795251        2.8355471982       -1.3798494342
 O          2.7292074690        0.4119059613        0.5435310947
 O          2.1388378567       -1.2921324449       -1.3249375534
 O          3.5633489801       -1.8916954091        0.5453811918
 O          1.0533844652       -1.5168827826        0.9934263918
 C         -0.2981891844        2.6789914123        0.2724033213
 C          0.9260980554        1.8391149243       -0.1553176220
 C         -1.5059410489        1.9948550902       -0.4353962674
 C         -0.8869553648        0.8024027563       -1.1937489076
 C          1.7930353151        1.3658568538        1.0057798973
 H         -0.4226637895        2.6296975056        1.3552201934
 H          1.5394643765        2.4106905278       -0.8668563213
 H         -2.2266307453        1.6362382656        0.3035480813
 H         -0.9361441773        1.0345518444       -2.2707305453
 H          2.3668292910        2.1864565243        1.4355685700
 H          1.1426307135        0.9036159930        1.7530436798
 H         -0.3820732614        4.1361919171       -1.0087657961
 H         -2.6773796307        3.4796088049       -0.9333458214
 H          2.9810090260       -1.1966150099       -1.7885714119
 H          3.7553307435       -2.0330482368        1.4777645449
  34
        -71.11131333
 O         -4.9563685450       -1.1056791074       -0.4229633164
 O         -3.6216277917        0.5110615210       -1.1848115701
 N         -1.4141094843       -0.7702386684        0.2119748855
 N         -2.8988824013       -2.2181478443        1.0065990990
 C         -2.7315263737       -1.1624707085        0.2292971574
 C         -0.7455127349       -1.6273565338        1.0169917931
 C         -1.6844439736       -2.5144325932        1.4954978045
 C         -3.7905909767       -0.5046814581       -0.5223662617
 H          0.3152869614       -1.5811311577        1.1534300442
 H         -1.5429713151       -3.3400532567        2.1616856221
 H         -5.6580335721       -0.6503924478       -0.9320904036
 P          3.2232496794       -0.8467824280       -0.3022200358
 O          0.5215387106        0.3511795975       -0.5062246530
 O         -0.0150400394        3.5306012387        1.0767785281
 O         -1.6275245692        2.6643720955       -0.8578310561
 O          3.3078574548        0.7107471748        0.1032395322
 O          2.7315313998       -0.8950975957       -1.8072901733
 O          4.7299894246       -1.2395722218       -0.4353592135
 O          2.4775378741       -1.6671755473        0.6621738650
 C         -0.1067553079        2.1582837715        0.9037248557
 C          1.0386150602        1.5514191230        0.0692120187
 C         -1.3504493565        1.7030402152        0.1146132238
 C         -0.8853123847        0.3637456072       -0.5121384638
 C          2.2704787584        1.2367178002        0.9043823888
 H         -0.1095977283        1.7041554818        1.9000171444
 H          1.3130668158        2.2378055364       -0.7429796404
 H         -2.2117876092        1.5440658597        0.7724871521
 H         -1.2462765299        0.2993325227       -1.5487678673
 H          2.6519295334        2.1540579461        1.3548900694
 H          2.0116559504        0.5069233761        1.6770509898
 H         -0.3675063010        3.9678787672        0.2815995981
 H         -2.4596802122        2.4346323169       -1.3003479065
 H          1.7837595608       -0.7615101243       -1.9064161628
 H          5.2444799153       -0.7215799918       -1.0678724592
  34
        -71.11123330
 O         -2.0682140025       -2.8622947452       -1.4378470948
 O         -1.2291625876       -0.8825334655       -2.0120885868
 N         -1.5101228039       -0.0691946947        0.7795194264
 N         -2.1059752843       -2.1699181639        1.1932887543
 C         -1.8012850309       -1.3014959090        0.2513465143
 C         -1.6135697580       -0.2089699213        2.1282409984
 C         -1.9896620750       -1.5076287130        2.3589562192
 C         -1.6680541764       -1.6423984928       -1.1601131278
 H         -1.4299026200        0.5864379966        2.8174583611
 H         -2.1795508112       -1.9990583753        3.2907786865
 H         -1.9321886510       -3.0965195084       -2.3789215382
 P          1.9516390893       -1.1099760816       -0.8078710533
 O          0.1355721545        1.0627522354       -0.4893038394
 O          0.6370346672        3.9182017975        1.2923716737
 O         -1.6770996358        3.4979012251        0.0411220780
 O          2.6804475467        0.0475272641        0.0441582104
 O          1.5623877723       -0.5060297636       -2.2169641903
 O          3.1847625823       -2.0159420253       -1.1656389817
 O          0.9049589941       -1.8258752962       -0.0645450350
 C          0.1915779744        2.5969983330        1.3509983481
 C          1.0320979138        1.7536661830        0.3737324956
 C         -1.2641384108        2.4232990470        0.8263937088
 C         -1.1762809257        1.1145381919        0.0113346781
 C          1.9520766392        0.7351846860        1.0413765083
 H          0.2834818021        2.1916726141        2.3668535627
 H          1.6422348326        2.4113274391       -0.2566189863
 H         -2.0053581919        2.3497966961        1.6232387986
 H         -1.8433464988        1.1418029982       -0.8582789239
 H          2.6892959917        1.2253617683        1.6784281489
 H          1.3584300352        0.0121594978        1.6108285554
 H          0.1287527731        4.4746759645        1.9019941253
 H         -0.9729103771        3.7585783711       -0.5729560366
 H          0.6123336905       -0.3518315742       -2.3260969235
 H          3.8733011596       -1.5898642609       -1.6917610932
  34
        -71.11037256
 O         -1.4762012276       -1.9192064432        2.3054967446
 O         -1.0217193463        0.2150371144        1.8607501483
 N         -1.6470008159       -0.4520390486       -0.9918454664
 N         -2.5026724583       -2.3113033022       -0.1367201626
 C         -1.8248697418       -1.2142951236        0.1353988857
 C         -2.2410114620       -1.1393194596       -2.0061508221
 C         -2.7697083705       -2.2757740545       -1.4567890590
 C         -1.3754218422       -0.8928293214        1.4907007326
 H         -2.2512685005       -0.7712454379       -3.0105119787
 H         -3.3226839085       -3.0628378044       -1.9260033764
 H         -1.1991973437       -1.7000502814        3.2174085958
 P          2.3380040495       -1.0840284446        0.1844040496
 O          0.4122785434        0.6555280555       -0.8582093632
 O         -0.1318783544        3.9645922768       -0.1486367694
 O         -2.2033969226        2.8722401521       -1.2567341334
 O          2.7483099600        0.4283206320        0.5580840611
 O          2.4426432881       -1.1971626974       -1.3925463286
 O          3.6088611533       -1.8846373135        0.6323172753
 O          1.1093489316       -1.5730829297        0.8245878537
 C         -0.3088209211        2.6453056795        0.2857829464
 C          0.8942414143        1.7990086380       -0.1644476788
 C         -1.5405721334        1.9915159974       -0.4064604431
 C         -0.9512130376        0.7921515116       -1.1922104585
 C          1.7485961902        1.3196037890        1.0058857098
 H         -0.4199554801        2.5768378258        1.3685048826
 H          1.5078531948        2.3896324417       -0.8591235786
 H         -2.2561603479        1.6302358278        0.3362237528
 H         -1.0400165285        1.0195388254       -2.2665588773
 H          2.2676626690        2.1556860811        1.4748219038
 H          1.0999675922        0.8084238963        1.7212624332
 H         -0.5315711663        4.5850448357        0.4774437139
 H         -1.5992700479        3.6184458697       -1.4481332388
 H          1.7291175676       -0.7638167870       -1.8695926905
 H          4.4410207781       -1.6125071071        0.2243969940
  34
        -71.11024101
 O         -1.4226697106       -2.2539826632        2.0955738677
 O         -0.9456617879       -0.0847020448        2.0089250399
 N         -1.6906560588       -0.2907487224       -0.9320155295
 N         -2.5976684852       -2.2079323986       -0.2805695670
 C         -1.8472884705       -1.1907773029        0.0939602755
 C         -2.3808522096       -0.8069487477       -1.9878392501
 C         -2.9383102814       -1.9814294217       -1.5638290323
 C         -1.3312280884       -1.1066900074        1.4627800692
 H         -2.4273102494       -0.3076945675       -2.9328052926
 H         -3.5603879498       -2.6704175571       -2.0964770809
 H         -1.1144917604       -2.1905206761        3.0216904158
 P          2.3145622521       -1.1095702646        0.1669368016
 O          0.4390566090        0.7189460144       -0.8740544795
 O         -0.0727156347        3.8541622942       -0.8945620599
 O         -2.4413303577        2.7971591538       -0.4946992319
 O          2.6942907112        0.3276351159        0.7825930540
 O          2.5528622481       -1.0060642691       -1.3973455956
 O          3.5514695409       -1.9581253032        0.6188366649
 O          1.0358886365       -1.6794105793        0.6126529124
 C         -0.0537566394        2.8547739942        0.0905702025
 C          1.0429873493        1.8059830094       -0.1683702525
 C         -1.3629456308        2.0462770629       -0.0466338281
 C         -0.9474000063        0.9356682051       -1.0406004667
 C          1.6902632476        1.2696517628        1.1058680556
 H          0.0351917320        3.2766659194        1.0938330607
 H          1.8223090974        2.2110400793       -0.8255861854
 H         -1.6350442272        1.5977571377        0.9104843703
 H         -1.1251195198        1.3069976914       -2.0630412051
 H          2.1980041516        2.0636553091        1.6547893901
 H          0.9239138573        0.7980164756        1.7254721003
 H          0.5216614398        4.5809137036       -0.6611549243
 H         -2.0982883897        3.5073260615       -1.0692154550
 H          1.7987700489       -0.6717212955       -1.8913442057
 H          4.4111627953       -1.6390106028        0.3153143558
  34
        -71.11021498
 O         -2.0353995504       -2.8838331754       -1.4156649775
 O         -1.2189575483       -0.8992844695       -2.0041400299
 N         -1.5473425117       -0.0607342959        0.7806028045
 N         -2.1494022611       -2.1587774184        1.1990376608
 C         -1.8148617171       -1.3004514802        0.2576676350
 C         -1.7022898250       -0.1837909173        2.1258928957
 C         -2.0811326265       -1.4811709383        2.3594855603
 C         -1.6546859999       -1.6552157030       -1.1474063386
 H         -1.5562478591        0.6232884585        2.8105692289
 H         -2.3043498387       -1.9614571254        3.2897331273
 H         -1.8920784468       -3.1237687501       -2.3542032869
 P          1.9566311650       -1.0960445164       -0.8265712676
 O          0.1447825076        1.0225434323       -0.4594611910
 O          0.5044783500        3.9101828784        1.4629738354
 O         -1.5450533242        3.4531633423       -0.0955970507
 O          2.7055788157        0.0816628734       -0.0192873081
 O          1.5403958600       -0.5224439213       -2.2392542999
 O          3.1848223788       -2.0071843427       -1.1938205879
 O          0.9350246943       -1.8034530066       -0.0411024853
 C          0.1803781751        2.5551918644        1.3822705305
 C          1.0382998098        1.7610481666        0.3698019421
 C         -1.2484048286        2.4243971202        0.8027478478
 C         -1.1755767258        1.1105285076        0.0113108538
 C          2.0137266587        0.7702742384        1.0026013193
 H          0.2292802509        2.0724739501        2.3653460419
 H          1.5880511308        2.4423557789       -0.2908142113
 H         -2.0152502775        2.3926564137        1.5863442843
 H         -1.8234109624        1.1569942796       -0.8715950528
 H          2.7780284381        1.2695394145        1.5990188508
 H          1.4580440534        0.0440793724        1.6059407829
 H          1.3104134713        4.0470650176        1.9791261548
 H         -1.0950597580        4.2610896863        0.2091628070
 H          0.5900757215       -0.3583953584       -2.3313016471
 H          3.8540834360       -1.5929047905       -1.7531217796
  34
        -71.11010841
 O         -5.3466872204       -0.4438838047        0.8053901478
 O         -3.9273512640        1.0930964519        0.0311291766
 N         -2.0169194459       -1.0279883183       -0.4630661135
 N         -3.4471545004       -2.4158331533        0.5146223205
 C         -3.2473166454       -1.1676467201        0.1283175269
 C         -1.4364500752       -2.2488121519       -0.4364718297
 C         -2.3393909076       -3.0921390883        0.1706747903
 C         -4.1880233174       -0.0700990145        0.3088189925
 H         -0.4666780812       -2.4207525442       -0.8525049658
 H         -2.2459074446       -4.1381686352        0.3766429953
 H         -5.9625599549        0.3072748747        0.9297519259
 P          3.7015506204        0.0863103581        0.5775059638
 O         -0.3346231758       -0.0872120315       -1.7852667098
 O          1.1709525558        2.1193636620        0.5907672798
 O         -1.2972743862        2.4988679935       -0.2108571957
 O          3.2030952078        0.2197225898       -0.9556641440
 O          5.2018617384       -0.3430740251        0.4478884655
 O          3.8162761604        1.5643134396        1.1079581586
 O          2.8905003018       -0.8581263954        1.3610576290
 C          0.4930157947        0.9758736713        0.1743357381
 C          0.8290263383        0.5470910381       -1.2678691935
 C         -1.0359063363        1.1681027197        0.1199113470
 C         -1.4632512432        0.1948634273       -1.0042298987
 C          2.0105369919       -0.4199498802       -1.3517109102
 H          0.7510675890        0.1698541452        0.8685608744
 H          1.0524897597        1.4393946256       -1.8694718655
 H         -1.5111216233        0.8951729658        1.0685046144
 H         -2.2325917990        0.6613856906       -1.6355587960
 H          1.8256480071       -1.2829001011       -0.7049093364
 H          2.1460630182       -0.7476389440       -2.3843135283
 H          0.6658559935        2.8954359613        0.2826631340
 H         -2.2533510060        2.6550778570       -0.1666885206
 H          5.7707599133        0.2815975020       -0.0206459976
 H          2.9588097272        2.0168854279        1.1765536247
  34
        -71.10976581
 O         -2.0820034717       -2.7661055099       -1.6377908278
 O         -2.2475609718       -0.5917778627       -2.0818161239
 N         -1.4381399569       -0.1251657570        0.7225186973
 N         -1.9531261483       -2.2623787629        1.0414834313
 C         -1.8152107109       -1.3097288153        0.1428017718
 C         -1.2939102591       -0.3889716240        2.0484064509
 C         -1.6336924289       -1.7048611271        2.2245303629
 C         -2.0576355064       -1.4972685657       -1.2862742876
 H         -0.9798488339        0.3463546119        2.7575369280
 H         -1.6670732607       -2.2775301075        3.1282129681
 H         -2.2755750629       -2.8811664995       -2.5911251740
 P          1.9334247950       -1.1226919400       -0.6373455607
 O          0.2276503468        1.0171646895       -0.4831326604
 O          0.6172855396        3.8792273404        1.5858824032
 O         -1.4967139856        3.4816019040        0.0840827191
 O          2.7550038218        0.2315409282       -0.3222476927
 O          1.1624680381       -0.9740306369       -1.9933629239
 O          3.1194445095       -2.0800821326       -1.0823297706
 O          1.1369565075       -1.6017616195        0.5002801454
 C          0.2790569498        2.5542330956        1.3514140022
 C          1.1016906779        1.8872117551        0.2259852570
 C         -1.1787989544        2.3623221217        0.8627544909
 C         -1.0930634017        1.0843025051        0.0059954457
 C          2.2807230285        1.0550668940        0.7252414248
 H          0.4453653142        2.0202037562        2.2913863695
 H          1.4580550453        2.6451477826       -0.4832836806
 H         -1.8815629745        2.2443580569        1.6929695501
 H         -1.7494821117        1.1346730773       -0.8712190319
 H          3.1114566442        1.6899039372        1.0327897804
 H          1.9504296223        0.4153838684        1.5499399442
 H          0.1727513274        4.4345117993        0.9208268858
 H         -2.4425183435        3.5113042303       -0.1152038217
 H          1.7242509799       -0.7769766406       -2.7543011382
 H          3.6463508505       -2.4535246994       -0.3687260389
  34
        -71.10967971
 O         -1.4622816584       -1.9382694668        2.2999576099
 O         -1.0245930153        0.2045565366        1.8765730917
 N         -1.6442808410       -0.4351216005       -0.9816521298
 N         -2.4825940776       -2.3123348021       -0.1493152087
 C         -1.8146326284       -1.2137048196        0.1365043292
 C         -2.2299000436       -1.1173755060       -2.0053053773
 C         -2.7481898765       -2.2646482132       -1.4697766600
 C         -1.3682398392       -0.9031249165        1.4960737711
 H         -2.2417052289       -0.7379022483       -3.0053696166
 H         -3.2933242975       -3.0517473460       -1.9479983698
 H         -1.1849963187       -1.7273868546        3.2136625306
 P          2.3274505512       -1.0901162476        0.1872507551
 O          0.4179091238        0.6722273267       -0.8712451818
 O         -0.1429905891        4.0099249624       -0.1352722598
 O         -2.1923651790        2.8355316075       -1.2646180366
 O          2.7440310576        0.4138000285        0.5838749309
 O          2.4467294404       -1.1859181027       -1.3900495820
 O          3.5869364237       -1.9055067229        0.6394158933
 O          1.0867660365       -1.5776550563        0.8054990502
 C         -0.2787824627        2.6822255612        0.2631954923
 C          0.9179150149        1.8065572998       -0.1701653020
 C         -1.5248719687        1.9945186070       -0.3668327883
 C         -0.9517362738        0.8126644003       -1.1726852066
 C          1.7427670172        1.3130147336        1.0141470935
 H         -0.3597846337        2.6802251709        1.3515985486
 H          1.5651489908        2.3708261278       -0.8553533713
 H         -2.1906078483        1.6259730238        0.4170175176
 H         -1.0634727359        1.0631776855       -2.2404509286
 H          2.2572547968        2.1445685623        1.4958580354
 H          1.0760587308        0.8075617294        1.7165883859
 H         -0.4447284887        4.0979970727       -1.0575189480
 H         -2.7516088215        3.4625015658       -0.7815084842
 H          1.7359594098       -0.7501308466       -1.8692077799
 H          4.4270903959       -1.6331268165        0.2481697179
  34
        -71.10956943
 O         -2.0332792647       -2.8892334241       -1.4194143064
 O         -1.9080162948       -0.7673816867       -2.0775829206
 N         -1.4752627195       -0.0648788086        0.7508397167
 N         -2.0491316193       -2.1635966985        1.1971285634
 C         -1.8227265444       -1.2893876183        0.2401916082
 C         -1.4582255604       -0.2170781143        2.1036995861
 C         -1.8270799355       -1.5122848663        2.3552914131
 C         -1.9135524487       -1.5990164419       -1.1857065391
 H         -1.2138352496        0.5752060671        2.7775245890
 H         -1.9467762173       -2.0094529894        3.2956952269
 H         -2.0974965715       -3.0842819831       -2.3767166900
 P          1.9731499087       -1.1181246967       -0.7689663821
 O          0.1951228318        1.0652726003       -0.5101072303
 O          0.5953881089        3.9106079119        1.4612213698
 O         -1.5223665794        3.5035668779       -0.0721284615
 O          2.7238974131        0.0491823872        0.0548231831
 O          1.5784742776       -0.5735235323       -2.1825087494
 O          3.2049418290       -2.0466123015       -1.1299689252
 O          0.8895379150       -1.7655343781       -0.0172637460
 C          0.2034877687        2.5792034887        1.3546410450
 C          1.0759830192        1.7654253110        0.3680328642
 C         -1.2238707793        2.4206717396        0.7610493632
 C         -1.1289364269        1.1059750590       -0.0278584543
 C          2.0006086710        0.7566336018        1.0420957473
 H          0.2712640114        2.1373797445        2.3534531025
 H          1.6824205673        2.4351431523       -0.2528016829
 H         -2.0026462221        2.4047405078        1.5241043666
 H         -1.7782242967        1.1015474638       -0.9110773198
 H          2.7381927594        1.2590180035        1.6688035746
 H          1.4065235487        0.0460862685        1.6259086743
 H         -0.0082893771        4.4543226433        0.9187352922
 H         -1.0553276096        3.4155312885       -0.9174207911
 H          2.3236164444       -0.3142728542       -2.7400156008
 H          3.5353069913       -2.5988195099       -0.4141962327
  34
        -71.10950353
 O         -2.1847771142       -2.2298914035       -2.1032346877
 O         -2.0890462242       -0.0070299600       -2.0078115850
 N         -1.3609506906       -0.2837339912        0.8173782287
 N         -2.0058721980       -2.3985155748        0.6233078328
 C         -1.7666271576       -1.2789008384       -0.0314976171
 C         -1.3387136726       -0.8285355926        2.0584817571
 C         -1.7487827146       -2.1299771323        1.9169874514
 C         -2.0061124805       -1.0920497329       -1.4583926398
 H         -1.0782024966       -0.2718759904        2.9324151192
 H         -1.8730796246       -2.8814294837        2.6691207162
 H         -2.4096825317       -2.0858681418       -3.0451438614
 P          1.9194372194       -1.0700224015       -0.4624127538
 O          0.1391013243        0.9136994041       -0.5036495463
 O         -0.4088132669        3.9018113313        0.2601693202
 O         -1.3785089731        2.5003147541        2.3456271450
 O          2.6949418811        0.3124933507       -0.7777157984
 O          0.9244717536       -1.3608799529       -1.6412248912
 O          3.0659824567       -2.1145798111       -0.8109429870
 O          1.4077721370       -1.1708192213        0.9115577724
 C          0.4563515901        2.9155606157        0.7517247306
 C          1.0385222402        2.0111913855       -0.3483516417
 C         -0.4039493645        1.9163705752        1.5532151748
 C         -0.9359306514        1.0254100866        0.4105864956
 C          2.4128923065        1.4398720639        0.0228029487
 H          1.2465958064        3.3508125916        1.3711004040
 H          1.0885138168        2.5187270014       -1.3179936135
 H          0.2408149915        1.3134352688        2.1985955475
 H         -1.7798591865        1.5203952231       -0.0992838011
 H          3.2097983297        2.1584683073       -0.1693186473
 H          2.4059560375        1.1345223798        1.0733259389
 H          0.0904300357        4.6474898132       -0.1020609058
 H         -1.7603675374        3.2541609040        1.8629674217
 H          1.3944934760       -1.4724289893       -2.4785532649
 H          3.7124388362       -2.2724482545       -0.1157173202
  34
        -71.10945245
 O         -4.9478530825       -1.1052598732       -0.4761101742
 O         -3.6053680448        0.5294483580       -1.1830631789
 N         -1.4179013218       -0.7774515296        0.2246526343
 N         -2.9142725061       -2.2405339363        0.9673939178
 C         -2.7346376916       -1.1695620382        0.2130306893
 C         -0.7612855794       -1.6507091673        1.0215013738
 C         -1.7073635568       -2.5465669659        1.4687658192
 C         -3.7817440678       -0.4994454396       -0.5430294096
 H          0.2977596829       -1.6012089223        1.1709344689
 H         -1.5774342135       -3.3848195651        2.1214739446
 H         -5.6415856370       -0.6411248169       -0.9880262764
 P          3.1967440441       -0.8375465309       -0.2955237113
 O          0.5405526520        0.3227832470       -0.4062104184
 O          0.0007696372        3.5759347201        1.0147877682
 O         -1.6517234960        2.6450890096       -0.8386852418
 O          3.3171491736        0.7121532720        0.0611522158
 O          2.6510411105       -0.8627989168       -1.7679710382
 O          4.7109276326       -1.2419277262       -0.5055395451
 O          2.4829104293       -1.6437819519        0.7141691000
 C         -0.0819896059        2.1972450271        0.8944973088
 C          1.0516216964        1.5625300631        0.0626693811
 C         -1.3346877683        1.7036340753        0.1415858239
 C         -0.8624693942        0.3589730196       -0.4736595467
 C          2.3118357050        1.2960949599        0.8680336698
 H         -0.0639354979        1.7799133117        1.9065975988
 H          1.2921369430        2.2008975593       -0.7989417143
 H         -2.1796049100        1.5410606207        0.8206361740
 H         -1.1855264917        0.3042500788       -1.5244054126
 H          2.7198163877        2.2336598838        1.2474128651
 H          2.0729986325        0.6124482919        1.6881639221
 H         -0.3834108995        3.9785056341        0.2161126141
 H         -2.4751613011        2.3750345253       -1.2762116387
 H          2.5002887451       -1.7427193929       -2.1296371915
 H          5.2043811865       -1.4355612068        0.2984209084
  34
        -71.10934107
 O         -1.4071241353       -2.2157549362        2.1262523027
 O         -0.9828584580       -0.0359524828        1.9975016253
 N         -1.6767202800       -0.3125010691       -0.9384743969
 N         -2.5535406928       -2.2391965158       -0.2743530542
 C         -1.8295645309       -1.2031943735        0.0970734422
 C         -2.3365551470       -0.8588766849       -1.9993445352
 C         -2.8767441071       -2.0382075659       -1.5669993886
 C         -1.3332183411       -1.0809885762        1.4708822174
 H         -2.3773905155       -0.3728155983       -2.9513827732
 H         -3.4760762473       -2.7473496840       -2.0992277957
 H         -1.1071722002       -2.1295157150        3.0531499878
 P          2.3077039902       -1.1024711603        0.1709784100
 O          0.4375387480        0.7213041794       -0.8670652257
 O          0.0021066257        3.9187435845       -0.7528827227
 O         -2.3833354030        2.8087497649       -0.7058348196
 O          2.7036749009        0.3433433755        0.7549361576
 O          2.5188629853       -1.0344941804       -1.3983859561
 O          3.5430119333       -1.9572098892        0.6147671804
 O          1.0326654691       -1.6514768448        0.6535280186
 C         -0.0866784244        2.8375639712        0.1306440147
 C          1.0239720560        1.8151888290       -0.1575308186
 C         -1.3955629550        2.0360114503       -0.0856080314
 C         -0.9465352618        0.9228548616       -1.0516185838
 C          1.6993195425        1.2761941865        1.0998970522
 H         -0.0124531118        3.2017204309        1.1620516740
 H          1.7785261336        2.2668467502       -0.8130005445
 H         -1.7247098881        1.5982772249        0.8570549097
 H         -1.1227262501        1.2858057423       -2.0775759075
 H          2.2057561865        2.0758598556        1.6410060371
 H          0.9478180541        0.7938956634        1.7301336660
 H         -0.8811457915        4.0621258436       -1.1453335326
 H         -2.9911374939        3.1794091600       -0.0503287526
 H          1.7894255919       -0.6345831322       -1.8809922196
 H          4.4015649329       -1.6517558264        0.2941979924
  34
        -71.10925965
 O         -2.0516372760       -2.8736212921       -1.4288673444
 O         -1.2133596405       -0.8984963333       -2.0189148828
 N         -1.5072374395       -0.0634225213        0.7701751703
 N         -2.1077752728       -2.1612191217        1.1917281745
 C         -1.7968504570       -1.2981043181        0.2468197532
 C         -1.6188493986       -0.1960057562        2.1190932931
 C         -1.9978592757       -1.4929347151        2.3545703797
 C         -1.6555422253       -1.6505195753       -1.1607399177
 H         -1.4386801324        0.6029857486        2.8050495937
 H         -2.1944558936       -1.9790314226        3.2878080785
 H         -1.9135366539       -3.1161191056       -2.3675177148
 P          1.9295291097       -1.0975774644       -0.8037746721
 O          0.1548049883        1.0589463655       -0.4874003816
 O          0.6461279408        3.9183346851        1.2924274524
 O         -1.6549966544        3.5012365425        0.0154327402
 O          2.6789853007        0.0270300519        0.0684773924
 O          1.5582339986       -0.4965609557       -2.2051296985
 O          3.1617026617       -1.9784805974       -1.2426969619
 O          0.8790613650       -1.8112327643       -0.0509243308
 C          0.1960982323        2.5986303767        1.3487007233
 C          1.0443015857        1.7502106123        0.3824193044
 C         -1.2545148603        2.4279378816        0.8087789142
 C         -1.1626386140        1.1156035708       -0.0001888097
 C          1.9520716903        0.7274718268        1.0594899198
 H          0.2759637940        2.1960216911        2.3667198376
 H          1.6638037809        2.4030408730       -0.2438200286
 H         -2.0046676925        2.3607174882        1.5978329464
 H         -1.8202113788        1.1407292665       -0.8770237725
 H          2.6912145801        1.2129773990        1.6975368874
 H          1.3468659740        0.0121514788        1.6266335452
 H          0.1278680012        4.4785736095        1.8902247248
 H         -0.9470537513        3.7506298791       -0.5987328876
 H          0.6003783476       -0.4337375960       -2.3476517316
 H          3.5354390249       -2.5375317073       -0.5529628428
  34
        -71.10908603
 O         -1.4157011549       -1.9769391274        2.2776147664
 O         -0.9785615747        0.1672331921        1.8602589190
 N         -1.7228082881       -0.4372775968       -0.9717287304
 N         -2.6005897001       -2.2858626769       -0.1179558913
 C         -1.8716788401       -1.2186364588        0.1449119644
 C         -2.3899716324       -1.0749021873       -1.9707181067
 C         -2.9317524260       -2.2064278216       -1.4215022287
 C         -1.3529097199       -0.9310630219        1.4830013356
 H         -2.4327842539       -0.6805966871       -2.9641055359
 H         -3.5365910616       -2.9611673553       -1.8798075957
 H         -1.0999469296       -1.7785475214        3.1814785748
 P          2.3889379475       -1.0641512105        0.1571511131
 O          0.3584380057        0.5833106426       -0.7552496372
 O         -0.1000300486        3.9505572878       -0.1652067909
 O         -2.2005180716        2.8778818509       -1.2532015307
 O          2.7731051212        0.4335473410        0.5545562365
 O          2.4580396751       -1.0514754973       -1.4279350488
 O          3.6948138788       -1.8386539361        0.6024459432
 O          1.1913682571       -1.6470514457        0.7764432540
 C         -0.3003518422        2.6399743902        0.2833541472
 C          0.8805800123        1.7605538988       -0.1678198451
 C         -1.5471615064        1.9994414175       -0.3937752095
 C         -0.9747969006        0.7761815201       -1.1594913022
 C          1.7750602427        1.3359557209        0.9899596458
 H         -0.4035392091        2.5834646418        1.3678050299
 H          1.4690172190        2.3034868746       -0.9218665562
 H         -2.2645353827        1.6582232683        0.3572201663
 H         -1.0094746900        1.0006334239       -2.2382092597
 H          2.3042014096        2.1921464075        1.4094284860
 H          1.1487068266        0.8494993042        1.7420682617
 H         -0.4964014407        4.5839536826        0.4504343450
 H         -1.5829396198        3.6070179572       -1.4648205749
 H          2.1036096309       -1.8386843024       -1.8524815087
 H          4.5304290698       -1.4758799564        0.2828301401
  34
        -71.10899504
 O         -2.3086158878       -2.7843002334       -1.5199819461
 O         -2.1733598334       -0.6356028287       -2.0814451032
 N         -1.4013451804       -0.1092565277        0.7208099793
 N         -2.0034288093       -2.2115454763        1.1104197160
 C         -1.8526012211       -1.2870737799        0.1841756449
 C         -1.2298193304       -0.3473191657        2.0485897636
 C         -1.6194505144       -1.6428328655        2.2681658178
 C         -2.1166671092       -1.5120620270       -1.2346538446
 H         -0.8638536991        0.3907327425        2.7296914583
 H         -1.6458481704       -2.1934646415        3.1857674757
 H         -2.4870759985       -2.9236300037       -2.4726634374
 P          1.9968473263       -1.1394993307       -0.7007234488
 O          0.2412759622        1.0721559561       -0.5087638542
 O          0.6443721362        3.9754094882        1.1894818981
 O         -1.7265363121        3.4481140725        0.1449390282
 O          2.7655810867        0.0890963059        0.0107125707
 O          1.5166935145       -0.7000543541       -2.1243292129
 O          3.2274189247       -2.0687431228       -1.0667473866
 O          0.9686705456       -1.7531710705        0.1498531230
 C          0.2720189087        2.6351818705        1.3114096575
 C          1.1235184997        1.8026258639        0.3364559235
 C         -1.1943233502        2.3725948369        0.8524532036
 C         -1.0751811267        1.0969766599       -0.0122959501
 C          2.0836660356        0.8229545938        1.0081120749
 H          0.4221941589        2.2808794261        2.3394375820
 H          1.7022735292        2.4747039824       -0.3084534110
 H         -1.8771493355        2.2132245249        1.6891239142
 H         -1.7410627384        1.1340695045       -0.8818455318
 H          2.8465031237        1.3488711611        1.5831142874
 H          1.5219013724        0.1258985896        1.6379078458
 H          0.1007589476        4.5290565171        1.7709152366
 H         -1.1007120465        3.7480110051       -0.5329753938
 H          2.2239460022       -0.4503015468       -2.7328801834
 H          3.5966435479       -2.5778359525       -0.3379972576
  34
        -71.10882367
 O         -1.5395020656       -2.8920479470       -1.4540156475
 O         -1.0417179407       -0.7961309319       -2.0077594197
 N         -1.7029267886       -0.0738045679        0.7983496970
 N         -2.4795701646       -2.1482682624        0.9467897454
 C         -1.8385308636       -1.2885546720        0.1778899551
 C         -2.3079829482       -0.2009954857        2.0096411553
 C         -2.7783271308       -1.4874047354        2.0791490686
 C         -1.4093431145       -1.6141579770       -1.1753746242
 H         -2.4046473949        0.6138243316        2.6952999759
 H         -3.3125869405       -1.9680179111        2.8724155028
 H         -1.3039684778       -3.1001738807       -2.3806190676
 P          2.0671243450       -1.0727246329       -0.7793772573
 O          0.1069808776        0.8989442770       -0.3814177228
 O         -0.0873034743        3.9249254287        0.0478552783
 O         -1.8288712349        2.9404220774        1.8305487482
 O          2.8527534944        0.1179859881       -0.0299831402
 O          1.6354824308       -0.4990615894       -2.1893661723
 O          3.2820639491       -2.0010889215       -1.1411694614
 O          1.0491297973       -1.7648914164        0.0242481561
 C          0.4305856516        2.9010282748        0.8519830674
 C          1.1304502911        1.7995946570        0.0443153112
 C         -0.7696288091        2.1373527115        1.4405098864
 C         -1.1034801325        1.1435116262        0.2966484050
 C          2.1773811107        1.0105711755        0.8314237908
 H          1.0758341062        3.2983878178        1.6409947081
 H          1.5968553868        2.1895445369       -0.8667024393
 H         -0.4388743062        1.5714994976        2.3165918656
 H         -1.8110437186        1.6014178012       -0.4155991195
 H          2.9504921790        1.6624347070        1.2415553698
 H          1.6866026137        0.4399501082        1.6256931859
 H          0.6125741976        4.5325411902       -0.2296290630
 H         -1.9071327597        3.6801306058        1.2028827723
 H          0.6730361235       -0.3953960847       -2.2866468552
 H          3.9626214848       -1.5989346974       -1.6958884444
  34
        -71.10867849
 O         -4.9423995092       -1.1145516426       -0.4469612619
 O         -3.6132330881        0.5150592083       -1.1912463564
 N         -1.4048618883       -0.7646198396        0.2056371436
 N         -2.8865695643       -2.2213874102        0.9895747566
 C         -2.7207547294       -1.1624765818        0.2164368750
 C         -0.7356859270       -1.6215301524        1.0105018950
 C         -1.6727067256       -2.5142087731        1.4820885999
 C         -3.7796133461       -0.5060850836       -0.5363672240
 H          0.3245672823       -1.5709298836        1.1505138642
 H         -1.5309944616       -3.3414698422        2.1461646026
 H         -5.6441762602       -0.6599860288       -0.9564364158
 P          3.1998193300       -0.8498318053       -0.2930187635
 O          0.5302774073        0.3619734145       -0.5028833846
 O         -0.0161579194        3.5405832104        1.0810836530
 O         -1.6293407724        2.6719707987       -0.8517204893
 O          3.3050458887        0.7089479452        0.0889052781
 O          2.7196715753       -0.9483483844       -1.7869289404
 O          4.7026880592       -1.2386566597       -0.5122587185
 O          2.4609727166       -1.6378660214        0.7124180441
 C         -0.1023395638        2.1684106410        0.9050246213
 C          1.0429246650        1.5670600486        0.0661868791
 C         -1.3459520023        1.7094725901        0.1177773850
 C         -0.8772158852        0.3730743937       -0.5129773805
 C          2.2800924896        1.2553384151        0.8939974290
 H         -0.1011196098        1.7126775641        1.9005383938
 H          1.3103664159        2.2528416119       -0.7488702208
 H         -2.2054557589        1.5455422876        0.7769997350
 H         -1.2361155166        0.3129557575       -1.5505974467
 H          2.6737378903        2.1748512287        1.3286999209
 H          2.0213775646        0.5360153428        1.6764769900
 H         -0.3688006945        3.9784543239        0.2865179057
 H         -2.4601872718        2.4382669230       -1.2946780347
 H          1.7739126573       -0.8053396451       -1.8941279398
 H          5.1849504878       -1.4700627913        0.2893233736
  34
        -71.10856413
 O         -4.6933759230       -1.2066821072       -0.9635995558
 O         -3.4301856323        0.5600159597       -1.4525908246
 N         -1.3258038062       -0.6504724295        0.2371984244
 N         -2.7277432923       -2.3510575422        0.4918519872
 C         -2.5651297646       -1.1603738980       -0.0586693107
 C         -0.7042132440       -1.5718366359        1.0119795428
 C         -1.5861241584       -2.6175538791        1.1482310424
 C         -3.5771389006       -0.5093672893       -0.8807513835
 H          0.2998471295       -1.4422107044        1.3581951780
 H         -1.4592542042       -3.5361946339        1.6827365406
 H         -5.3640266486       -0.7616398644       -1.5206921213
 P          2.9573182219       -0.9514537360       -0.1492444442
 O          0.5499902017        0.5377850504       -0.4791782437
 O         -0.4377551817        3.6511743408       -0.1169087858
 O         -2.0474137729        2.1817958899        1.3771001709
 O          3.2522674007        0.6057465116       -0.4515056924
 O          2.0892419107       -1.5491267366       -1.3048418163
 O          4.3734391294       -1.5872123084       -0.4599523844
 O          2.4419194877       -1.1827895737        1.2086887139
 C          0.2425992260        2.6591597875        0.6026279318
 C          1.1698726460        1.8102116806       -0.2979683630
 C         -0.8102761077        1.6341447286        1.0817257841
 C         -0.8070233292        0.6373050775       -0.1081356851
 C          2.5513467729        1.5686029213        0.3070868428
 H          0.7904607163        3.0837693000        1.4480168916
 H          1.2672324831        2.2818910763       -1.2850554860
 H         -0.4594326808        1.1057676017        1.9743167232
 H         -1.4125302728        1.0434049754       -0.9320830038
 H          3.1550766952        2.4762573537        0.2883768811
 H          2.4336908640        1.1957833841        1.3290839705
 H          0.0924620085        4.4577866210       -0.1791741161
 H         -2.2117732693        2.9165878329        0.7587375357
 H          2.4959188799       -1.5069790310       -2.1794552375
 H          5.0423934370       -1.4806010954        0.2239048297
  34
        -71.10849736
 O         -1.3921640773       -1.9993608848        2.2686239411
 O         -0.9745211458        0.1536727382        1.8730811571
 N         -1.7263368280       -0.4187371118       -0.9591796143
 N         -2.5850135404       -2.2868046194       -0.1292975562
 C         -1.8624649159       -1.2194006896        0.1461416447
 C         -2.3927949804       -1.0474980621       -1.9653214240
 C         -2.9230573847       -2.1907851354       -1.4305317820
 C         -1.3398486394       -0.9443703589        1.4860655404
 H         -2.4427262134       -0.6386284729       -2.9524760948
 H         -3.5246042642       -2.9433920165       -1.8965489633
 H         -1.0726389557       -1.8095638404        3.1729259893
 P          2.3815682912       -1.0700039671        0.1578801380
 O          0.3607533431        0.5966544834       -0.7665149573
 O         -0.1123817242        3.9964958030       -0.1464898215
 O         -2.1927124578        2.8407496157       -1.2571072818
 O          2.7719170045        0.4196725804        0.5760042633
 O          2.4625827681       -1.0393758306       -1.4267022776
 O          3.6777111729       -1.8589237166        0.6048733633
 O          1.1734257297       -1.6517632854        0.7577594835
 C         -0.2701216648        2.6746598910        0.2620127947
 C          0.9028216552        1.7662404156       -0.1756146459
 C         -1.5334241731        2.0033947006       -0.3510539302
 C         -0.9796679019        0.7972533889       -1.1379353259
 C          1.7735117738        1.3303658747        0.9950687735
 H         -0.3405266077        2.6829173938        1.3512272457
 H          1.5214926532        2.2816863184       -0.9241669628
 H         -2.2001204436        1.6547752426        0.4421857324
 H         -1.0380397061        1.0463116718       -2.2108764390
 H          2.2998961823        2.1834454669        1.4240897510
 H          1.1315657643        0.8504162649        1.7378110157
 H         -0.3930861830        4.0785182960       -1.0754580089
 H         -2.7229218271        3.4961064241       -0.7785487661
 H          2.1042004154       -1.8183577019       -1.8631105892
 H          4.5191427939       -1.4990496550        0.2971548713
  34
        -71.10847695
 O         -4.7030652438       -1.1759582339       -1.0256348482
 O         -3.6041724942        0.7590461828       -0.9144406825
 N         -1.3405718963       -0.7078606899        0.2034966729
 N         -2.7365512633       -2.4188092287        0.4380806403
 C         -2.6026505463       -1.1948205378       -0.0405880690
 C         -0.6735627365       -1.6822168590        0.8656374659
 C         -1.5561781744       -2.7301557888        0.9972541476
 C         -3.6643883110       -0.4466980313       -0.6944744116
 H          0.3517095222       -1.5760519919        1.1531696679
 H         -1.4015699481       -3.6792118599        1.4671561070
 H         -5.4200166317       -0.6484969144       -1.4358361805
 P          3.0321462534       -0.9363331371       -0.1038216080
 O          0.5751925696        0.4614477508       -0.3917425053
 O         -0.2237178021        3.7104285842       -0.1853359507
 O         -2.1883403052        2.3381941235        0.9098349181
 O          3.2944795485        0.6335398945       -0.3655021396
 O          2.2122411983       -1.5251701076       -1.2997665365
 O          4.4711502719       -1.5301011456       -0.3869669740
 O          2.4774399202       -1.2183922585        1.2287493320
 C          0.2030616598        2.6193365792        0.5750435727
 C          1.1632372767        1.7520899604       -0.2599570356
 C         -0.9699436564        1.6569293142        0.9079954192
 C         -0.8094987208        0.5709294491       -0.1777074585
 C          2.5363283698        1.5660096003        0.3749842687
 H          0.6888918184        2.9704523528        1.4948914232
 H          1.2651977093        2.2024356159       -1.2566275721
 H         -0.8067591799        1.1997486320        1.8934032196
 H         -1.3161155865        0.9005513034       -1.1002960343
 H          3.0940338370        2.5024688260        0.3683067695
 H          2.4090813915        1.1899788375        1.3945378785
 H         -1.1102004560        3.9639761969        0.1319007049
 H         -2.7900915548        1.9701021323        0.2343417495
 H          2.6526573213       -1.4693261643       -2.1573453635
 H          5.1251035752       -1.4016569380        0.3077730222
  34
        -71.10846049
 O         -2.1207010148       -2.2566561399       -2.0764199890
 O         -2.0925750395       -0.0316550048       -1.9892263716
 N         -1.3539804041       -0.2771484977        0.8371188636
 N         -1.9451989642       -2.4090501623        0.6514758876
 C         -1.7362879794       -1.2862245070       -0.0074123836
 C         -1.3110488028       -0.8185572436        2.0790484270
 C         -1.6894376887       -2.1301844800        1.9428170528
 C         -1.9783263676       -1.1125293052       -1.4357015762
 H         -1.0591638758       -0.2580329091        2.9528985143
 H         -1.7914025398       -2.8818757421        2.6980585760
 H         -2.3461509793       -2.1241357327       -3.0199294932
 P          1.9257192786       -1.1107415163       -0.4848543883
 O          0.1160367965        0.9463251059       -0.4987933455
 O         -0.2693051338        4.0086470629        0.1907997180
 O         -1.5573002623        2.6547436366        2.1696027554
 O          2.7201377439        0.2879475554       -0.6385773447
 O          0.9808200492       -1.2870519992       -1.7250968752
 O          3.0794962661       -2.1334626424       -0.8597387394
 O          1.3332670117       -1.3047307921        0.8452203965
 C          0.4356769796        2.9398284078        0.7549587480
 C          1.0638061968        1.9908372299       -0.2695540713
 C         -0.5164183327        1.9962548108        1.5285266086
 C         -0.9730296033        1.0402699026        0.4046124368
 C          2.3693520336        1.3541171483        0.2178742442
 H          1.1810226607        3.3896005733        1.4129489916
 H          1.2403445675        2.4804626291       -1.2338149058
 H          0.0526705590        1.4329379032        2.2731126421
 H         -1.8387600741        1.4632029723       -0.1327379597
 H          3.1948121641        2.0651291235        0.1814088531
 H          2.2308865728        0.9638219533        1.2302311855
 H         -0.7697623113        3.7194895860       -0.5866225869
 H         -1.6945769696        3.5173174915        1.7350007405
 H          1.4757442352       -1.3492007728       -2.5532874071
 H          3.6982034775       -2.3436780934       -0.1530302883
  34
        -71.10828257
 O         -4.7873502562       -1.2484672530       -0.9936501129
 O         -3.5759426094        0.5956870240       -1.2859890437
 N         -1.3896957504       -0.7842773728        0.1699592982
 N         -2.7831161347       -2.5066656377        0.2934088127
 C         -2.6369048953       -1.2683079446       -0.1427659950
 C         -0.7454913744       -1.7786789623        0.8279459048
 C         -1.6233529151       -2.8337892396        0.8887976500
 C         -3.6835284333       -0.5419828731       -0.8529220736
 H          0.2588993971       -1.6628852710        1.1755236525
 H         -1.4842120720       -3.7999962151        1.3277488027
 H         -5.4846170942       -0.7536388263       -1.4707713673
 P          2.7696725939       -0.6140293204        0.1246619848
 O          0.3222853235        0.4046478120       -0.8926454429
 O          0.4663326959        3.5513265888        0.5944818672
 O         -1.4958144180        2.1199013581        1.6238198835
 O          3.1665474572        0.7347291403       -0.6492421830
 O          2.1412284691       -1.6472775798       -0.8715384577
 O          4.2268952499       -1.1889490551        0.3402577563
 O          2.0173417357       -0.4269860146        1.3763423606
 C          0.7486951526        2.1809209222        0.6055864169
 C          0.9072359765        1.6917214559       -0.8469444240
 C         -0.4543792116        1.3407001556        1.1326601153
 C         -0.8578711911        0.5095039488       -0.1188588024
 C          2.3269429791        1.6101284341       -1.3756361445
 H          1.6477191607        1.9500646937        1.1805571463
 H          0.3363048639        2.3826905605       -1.4881759835
 H         -0.1358036713        0.6670954681        1.9309414880
 H         -1.6208643197        1.0675157190       -0.6830616681
 H          2.2857151878        1.2745331598       -2.4155006229
 H          2.7955872881        2.5952843873       -1.3175410662
 H          0.6608684546        3.9372643802        1.4614855225
 H         -1.5244162055        2.9538229523        1.1188219143
 H          2.7506359589       -1.9958962264       -1.5342857556
 H          4.7185751187       -0.8082257034        1.0744332837
  34
        -71.10816065
 O         -5.5977064404       -0.1992557042       -0.0546878794
 O         -3.7958565734        0.7734691507       -0.9394840108
 N         -2.1843774652       -1.3363265903        0.2363850973
 N         -4.0238440372       -2.0202732102        1.2735055904
 C         -3.5324604285       -1.1476606320        0.4113812294
 C         -1.8356187715       -2.3744443583        1.0305619636
 C         -2.9884512633       -2.7822497774        1.6617512057
 C         -4.3024016938       -0.1078786875       -0.2574173161
 H         -0.8325253228       -2.7416988954        1.0642979617
 H         -3.1229097098       -3.5739881466        2.3692206589
 H         -6.1009355637        0.5116002551       -0.5020789847
 P          3.8952968489        0.8846411492       -0.1488616160
 O         -0.0920570978       -1.2546535369       -0.7669336109
 O          1.1625722988        1.9412760548        0.2692427252
 O         -1.1245112928        1.8400577621       -1.0060407033
 O          3.0698667507       -0.2440666358        0.6640161579
 O          3.9016068197        2.1095828384        0.8382512551
 O          5.3900811424        0.3974748046       -0.0794130369
 O          3.4532536634        1.0923620052       -1.5337810682
 C          0.4749625286        0.7348823857        0.3672440177
 C          0.9926463213       -0.3571030114       -0.5883873850
 C         -1.0098893060        0.8370271616       -0.0423087367
 C         -1.3122953981       -0.5715048362       -0.6226999224
 C          2.1937549877       -1.1132536124       -0.0225493970
 H          0.5669398197        0.3914674630        1.4022854385
 H          1.2633236100        0.1113367506       -1.5432271761
 H         -1.6588120389        1.0432471902        0.8177289074
 H         -1.8033741677       -0.4618614560       -1.6014014977
 H          1.8531670815       -1.8368828629        0.7219926285
 H          2.7179376118       -1.6298093305       -0.8292485261
 H          0.7827626731        2.4355307790       -0.4791586846
 H         -2.0582213107        1.9287189484       -1.2585004915
 H          3.0301560949        2.5141661568        0.9423450829
 H          5.7504934343        0.2944606059        0.8107722007
  34
        -71.10815703
 O         -2.0123914431       -2.8957715078       -1.4050079666
 O         -1.2029299415       -0.9138471708       -2.0104708457
 N         -1.5437638285       -0.0542340928        0.7715290976
 N         -2.1482534162       -2.1499058233        1.1979887540
 C         -1.8081806263       -1.2967388189        0.2537575222
 C         -1.7068077002       -0.1700457934        2.1166503232
 C         -2.0871802973       -1.4660555909        2.3551484034
 C         -1.6392628493       -1.6629036879       -1.1471801789
 H         -1.5647500430        0.6407657434        2.7977063173
 H         -2.3164214334       -1.9411128145        3.2866296282
 H         -1.8666760634       -3.1439346541       -2.3409984751
 P          1.9337446089       -1.0852105912       -0.8227167291
 O          0.1620777988        1.0202147287       -0.4584021565
 O          0.5123029302        3.9149223860        1.4512391664
 O         -1.5273584961        3.4564344884       -0.1178688928
 O          2.7024497299        0.0542634078        0.0139634023
 O          1.5409342816       -0.5046799262       -2.2258896798
 O          3.1599739381       -1.9707725999       -1.2731449088
 O          0.9053999302       -1.7945494288       -0.0356429055
 C          0.1849906933        2.5603747603        1.3772823120
 C          1.0500475059        1.7555983071        0.3790203102
 C         -1.2391924407        2.4300032847        0.7858185489
 C         -1.1628117114        1.1125885138        0.0001202220
 C          2.0074726080        0.7567360745        1.0259459210
 H          0.2234881245        2.0857403286        2.3648135544
 H          1.6148234810        2.4281759944       -0.2778333290
 H         -2.0125957058        2.4028327651        1.5631748500
 H         -1.8020205159        1.1568783848       -0.8891072789
 H          2.7718957699        1.2485245426        1.6280438795
 H          1.4345736804        0.0393692574        1.6238127627
 H          1.3190054285        4.0522658399        1.9661289614
 H         -1.0720041594        4.2626827993        0.1833822782
 H          0.5817267762       -0.4309435662       -2.3527480448
 H          3.5348831293       -2.5340360153       -0.5875134062
  34
        -71.10812738
 O         -4.6703647830       -1.2446539773       -1.0321392288
 O         -3.4202206295        0.5580197519       -1.4166682345
 N         -1.3373425991       -0.6806084247        0.2543032492
 N         -2.7485603402       -2.3718547483        0.5150740414
 C         -2.5760638171       -1.1883444024       -0.0476288871
 C         -0.7250647849       -1.5954797302        1.0437658681
 C         -1.6139075413       -2.6353191724        1.1846807250
 C         -3.5712299837       -0.5320902317       -0.8858137887
 H          0.2778617110       -1.4632776248        1.3933017505
 H         -1.4964051670       -3.5479192403        1.7315156270
 H         -5.3307168002       -0.7941137133       -1.5971385144
 P          2.9600070848       -0.9365782162       -0.1692116205
 O          0.5744871262        0.4924908914       -0.3609384985
 O         -0.1752222651        3.7568010248        0.0276229713
 O         -2.1695864695        2.2804845193        1.0828269765
 O          3.2471211799        0.6210982833       -0.4804372149
 O          2.0782888890       -1.5368674759       -1.3141890528
 O          4.3729863542       -1.5685266500       -0.5069208115
 O          2.4715425482       -1.1776108547        1.1966989331
 C          0.2512777444        2.6108791500        0.7097962070
 C          1.1531882394        1.7833003654       -0.2265246551
 C         -0.9339935798        1.6519162574        1.0231297200
 C         -0.8059190974        0.5978520911       -0.1095750411
 C          2.5715959154        1.5850425073        0.2989243741
 H          0.7873362912        2.8754410584        1.6262245963
 H          1.1737032843        2.2710569552       -1.2114190465
 H         -0.7846594937        1.1580721326        1.9874859801
 H         -1.3420491078        0.9527433620       -1.0035488662
 H          3.1481140657        2.5073373573        0.2280408979
 H          2.5205527279        1.2285571626        1.3321604314
 H         -0.5355824511        4.4001811575        0.6564102686
 H         -2.3071946545        2.7943046308        0.2689550611
 H          2.4767297501       -1.4924634770       -2.1925900851
 H          5.0562156941       -1.4565373869        0.1619080501
  34
        -71.10795427
 O         -4.7088785250       -1.0271092566        0.6780302670
 O         -3.7513205686        0.7561119286       -0.2496952037
 N         -1.2757107428       -0.8417669781       -0.4611142728
 N         -2.5061607087       -2.5371293552        0.2797574053
 C         -2.5012572468       -1.2398838129        0.0208439049
 C         -0.5072088710       -1.9538650806       -0.5154560072
 C         -1.2855791193       -2.9872580322       -0.0451450339
 C         -3.6852083771       -0.4044996685        0.1354004599
 H          0.4983833250       -1.9294915410       -0.8764172444
 H         -1.0291225899       -4.0203305623        0.0656806263
 H         -5.5091559879       -0.4645539738        0.7225808002
 P          2.7976225413       -0.7853706479        0.3140200674
 O          0.5074054019        0.4298551830       -1.2055136916
 O          0.4831344977        3.4919908359        0.6499804011
 O         -1.8019693860        2.6458912900       -0.2161017721
 O          3.0285330479        0.8043373232        0.2522765411
 O          3.9993706500       -1.2333712357        1.2374814703
 O          1.5702471186       -1.0224110861        1.2727343444
 O          2.7221569558       -1.4394179592       -0.9996508671
 C          0.4242835574        2.1269762519        0.4041409440
 C          1.0852659970        1.6930734326       -0.9209755386
 C         -1.0137627437        1.5828484830        0.2285072686
 C         -0.8571832816        0.4786856890       -0.8617491968
 C          2.5986743512        1.5442144330       -0.8705033809
 H          0.9289690265        1.6197698612        1.2300953671
 H          0.8254000363        2.4105958598       -1.7129180412
 H         -1.4073330205        1.1526656908        1.1567619836
 H         -1.4559478115        0.7840060984       -1.7389058978
 H          2.9200569462        1.0365260403       -1.7837600318
 H          3.0635250724        2.5261120876       -0.7761865034
 H         -0.2951394846        3.9098741723        0.2395821686
 H         -2.7231899954        2.3419360528       -0.2988723771
 H          4.8523032340       -1.3206876212        0.7993132400
 H          1.8178680184       -1.0335551672        2.2064162582
  34
        -71.10792520
 O         -4.8566606546       -1.2072887891       -0.9532045517
 O         -3.5897693427        0.5870854811       -1.3166452836
 N         -1.4508259576       -0.7992022264        0.2047416782
 N         -2.9021984134       -2.4659460512        0.3999806997
 C         -2.7136996879       -1.2543302547       -0.0890895461
 C         -0.8428656453       -1.7850849782        0.9126581065
 C         -1.7563875024       -2.8056622841        1.0158094235
 C         -3.7348871196       -0.5268911975       -0.8366228452
 H          0.1630589448       -1.6886502667        1.2659259125
 H         -1.6516037885       -3.7555260619        1.4978019122
 H         -5.5377739550       -0.7157384303       -1.4557743517
 P          2.8894665870       -0.5986864138        0.0879585441
 O          0.2972688139        0.3350114750       -0.8783802920
 O          0.4623719049        3.5104745374        0.5550502172
 O         -1.5083057608        2.1147575761        1.6046959683
 O          3.1935896486        0.8726555582       -0.4812257288
 O          2.4777063607       -1.4883512603       -1.1594480741
 O          4.3367678248       -1.0798468008        0.4273252428
 O          2.0134051017       -0.6559978982        1.2669623888
 C          0.7346017056        2.1387288079        0.5832202875
 C          0.8896751904        1.6244137888       -0.8607995574
 C         -0.4746707868        1.3184482727        1.1261308315
 C         -0.8883969360        0.4746172631       -0.1125237833
 C          2.3205775235        1.5497332761       -1.3651278772
 H          1.6344784589        1.9051284588        1.1569792520
 H          0.3183148598        2.2969898391       -1.5190714496
 H         -0.1611486921        0.6520111285        1.9331823333
 H         -1.6363095383        1.0369654254       -0.6914584778
 H          2.3230055478        1.0466877979       -2.3356648224
 H          2.7255379948        2.5588835605       -1.4594661780
 H          0.7040099415        3.9169050765        1.4001190553
 H         -1.5006807315        2.9576288761        1.1127843417
 H          1.5318313887       -1.5359920896       -1.3245455101
 H          4.9720591423       -1.0877823478       -0.3001800947
  34
        -71.10791276
 O         -4.9508708601       -1.1067457695       -0.4463248003
 O         -3.6221960100        0.5310424645       -1.1732322040
 N         -1.4136902241       -0.7626331700        0.2105110667
 N         -2.8965905542       -2.2225421851        0.9861965889
 C         -2.7298106072       -1.1595349775        0.2188611700
 C         -0.7453657427       -1.6238370275        1.0115468429
 C         -1.6831274334       -2.5184882789        1.4779526882
 C         -3.7884521336       -0.4965825690       -0.5285870720
 H          0.3147409051       -1.5728266164        1.1533104521
 H         -1.5422363382       -3.3491095447        2.1380013342
 H         -5.6526750653       -0.6471311631       -0.9512036921
 P          3.2065899628       -0.8525048748       -0.2997328203
 O          0.5238905345        0.3574541813       -0.4987705586
 O         -0.0009355070        3.5366699272        1.0930023282
 O         -1.6354792850        2.6784465448       -0.8263732903
 O          3.2987735413        0.7048774696        0.0327154372
 O          2.7357436686       -1.0088182806       -1.8028900252
 O          4.7446948614       -1.1464341710       -0.4018307454
 O          2.4500628409       -1.6438816083        0.6892800942
 C         -0.0910061087        2.1654954623        0.9121215479
 C          1.0420952227        1.5650843757        0.0564096502
 C         -1.3439158853        1.7117800572        0.1365715024
 C         -0.8837944909        0.3767298420       -0.5035052124
 C          2.2952230805        1.2570814943        0.8618812137
 H         -0.0781247118        1.7051213804        1.9053941800
 H          1.2944406479        2.2489425849       -0.7653491697
 H         -2.1970564812        1.5470343413        0.8039368878
 H         -1.2475366781        0.3253480401       -1.5400497950
 H          2.7011033210        2.1781303052        1.2821093864
 H          2.0532851293        0.5440607136        1.6555668609
 H         -0.3599665745        3.9779859894        0.3031419961
 H         -2.4691640960        2.4451419297       -1.2644732061
 H          1.7816008003       -0.9928155510       -1.9195499257
 H          4.9837099634       -2.0293036160       -0.7049001125
  34
        -71.10789596
 O         -1.4330216881       -2.1987966515        2.1465537028
 O         -0.9706250567       -0.0287434895        2.0015439968
 N         -1.6645555664       -0.3265645651       -0.9403048036
 N         -2.5587862846       -2.2373779457       -0.2524727107
 C         -1.8322259432       -1.1988644960        0.1078209303
 C         -2.3229051822       -0.8855444378       -1.9957728183
 C         -2.8727854410       -2.0548420349       -1.5496549556
 C         -1.3411218774       -1.0698629240        1.4819925554
 H         -2.3577684884       -0.4159727291       -2.9563224562
 H         -3.4721497171       -2.7690536636       -2.0750576727
 H         -1.1380961182       -2.1077744832        3.0747601358
 P          2.3008480327       -1.1117035947        0.1750004850
 O          0.4477401103        0.7360243992       -0.9096853913
 O         -0.0392902791        3.9647729898       -0.7177074982
 O         -2.4138192982        2.8106417624       -0.6675706744
 O          2.6802001617        0.3325837808        0.7735283925
 O          2.5686164559       -1.0315268139       -1.3859579986
 O          3.5191638038       -1.9672817968        0.6613910194
 O          1.0067509612       -1.6597319447        0.6033808948
 C         -0.0845572678        2.8374806173        0.1085915118
 C          1.0258392873        1.8149107986       -0.1697618601
 C         -1.3942854616        2.0390925444       -0.1127408355
 C         -0.9466888997        0.9140706096       -1.0735463100
 C          1.6709152780        1.2666691997        1.1010771972
 H         -0.0296343243        3.2146349139        1.1304842105
 H          1.8144643846        2.2482103045       -0.7981128477
 H         -1.7361309681        1.6028955537        0.8294427602
 H         -1.1409837397        1.2474221879       -2.1062858236
 H          2.1697944893        2.0626852826        1.6548953818
 H          0.9054568396        0.7876398942        1.7152908395
 H          0.1367042909        3.7141874339       -1.6378865264
 H         -2.0576843849        3.7042768039       -0.8427848730
 H          1.8250631096       -0.7062084985       -1.9012588847
 H          4.3881165853       -1.6469099745        0.3876552763
  34
        -71.10781451
 O         -4.7904104395       -1.1315031226       -0.8168099722
 O         -3.4407828608        0.5054739028       -1.4946769674
 N         -1.3641117922       -0.6708254067        0.2467446996
 N         -2.8150770167       -2.3104786097        0.6051702078
 C         -2.6273932644       -1.1500993694        0.0027021849
 C         -0.7565348437       -1.5786415767        1.0512475479
 C         -1.6679045555       -2.5882753395        1.2480540111
 C         -3.6330162022       -0.5018964905       -0.8316894453
 H          0.2591926847       -1.4722860925        1.3719927865
 H         -1.5573780781       -3.4892472105        1.8151367443
 H         -5.4562182450       -0.6952366939       -1.3866088406
 P          3.0724514740       -0.9395799728       -0.2047032450
 O          0.5343772139        0.4943927959       -0.4737715262
 O         -0.4160013513        3.5981473861       -0.2220971650
 O         -2.1236884144        2.2005455586        1.2416136087
 O          3.3389980706        0.6501392439       -0.2443650233
 O          2.3875234791       -1.3199064550       -1.5805936617
 O          4.5090803331       -1.5277771530       -0.3893054758
 O          2.4115499915       -1.3862467460        1.0290922826
 C          0.2082527711        2.6318061513        0.5785702177
 C          1.1861727321        1.7449159012       -0.2223865140
 C         -0.8792690710        1.6326066641        1.0273539079
 C         -0.8332067634        0.6042497546       -0.1330458026
 C          2.4925934052        1.4789875137        0.5233497580
 H          0.7017145152        3.0854410486        1.4418505682
 H          1.4056481786        2.2046407706       -1.1942812803
 H         -0.5825741077        1.1260927050        1.9518444293
 H         -1.4192686684        0.9815038439       -0.9838089905
 H          3.0412863362        2.4072265020        0.6864663621
 H          2.2745735309        0.9834448841        1.4740729158
 H          0.1189047483        4.4026421297       -0.2740885292
 H         -2.2434882699        2.9253130106        0.6014203731
 H          1.4733755912       -1.0289967513       -1.6575498988
 H          4.9565674672       -1.2897516856       -1.2112943457
  34
        -71.10768014
 O         -2.1241933864       -2.0311632377        1.9150030442
 O         -2.5358810999        0.1276092069        1.5858779015
 N         -1.1825259311       -0.3273826014       -1.1116305594
 N         -1.9100545592       -2.3909883479       -0.7475831589
 C         -1.7011575313       -1.2108987892       -0.2011540425
 C         -1.0419490314       -1.0321908965       -2.2721670396
 C         -1.5023757919       -2.2946359409       -2.0298195757
 C         -2.1316390705       -0.9487046714        1.1745787793
 H         -0.6209364602       -0.5837338624       -3.1468229486
 H         -1.5759388335       -3.1320969054       -2.6919617933
 H         -2.4736673356       -1.8700220190        2.8160880125
 P          1.8121535814       -1.0329390708        0.5217419912
 O          0.8060892686        0.8534244618       -1.0836585901
 O         -0.0097570628        3.8525295893       -0.9483439197
 O         -2.0891693245        2.5133510210        0.2198776394
 O          2.8366064734        0.2059237650        0.3634303172
 O          1.5636342323       -1.6833175249       -0.8791979798
 O          2.7663999998       -2.1220972113        1.1744726228
 O          0.6210387615       -0.7131178376        1.3272245472
 C          0.2948690917        2.8892072810        0.0198554631
 C          1.4279225296        1.9897936314       -0.4904580256
 C         -0.8520299542        1.8749169398        0.2041295066
 C         -0.6062549632        0.9872548740       -1.0287113115
 C          2.3527013919        1.5020910970        0.6392634254
 H          0.5575778955        3.3722656121        0.9692080275
 H          1.9983930820        2.5019073865       -1.2727742108
 H         -0.6682683518        1.2921567508        1.1096015042
 H         -0.9491863558        1.5438870040       -1.9190534317
 H          3.2286327766        2.1427253641        0.7349473242
 H          1.7913944921        1.4768909732        1.5778039199
 H         -0.8960716887        4.2030497843       -0.7604498248
 H         -2.7126795352        1.9503963146        0.7092962517
 H          2.3659419591       -2.0270273473       -1.2933728517
 H          2.9230139655       -2.0430845734        2.1207328221
  34
        -71.10767338
 O         -0.3572193224       -2.7080927790       -0.0483639078
 O          0.0488089211       -0.8195729357        1.0668103216
 N         -2.5521345081        0.0780445711       -0.0956184160
 N         -3.1071549476       -2.0437512485        0.2204368383
 C         -2.1085205866       -1.1891268105        0.1704557811
 C         -3.9046599648       -0.0137285047       -0.2330203949
 C         -4.2277231373       -1.3247474869       -0.0178514235
 C         -0.7009684948       -1.5422959157        0.4298481289
 H         -4.5084270181        0.8382034889       -0.4638826630
 H         -5.1879846178       -1.7971321882       -0.0187996706
 H          0.6194155656       -2.8643197219        0.1007798864
 P          2.5956465983       -1.0321830900       -0.0884314129
 O         -0.7814072116        0.9555800782       -1.3012889868
 O          0.8271679598        3.3843282607        0.6946568319
 O         -1.7426119722        3.0684889803        1.1979243646
 O          1.5564888672       -0.3993710408       -1.0953485362
 O          4.0159297490       -0.8684196218       -0.7923367015
 O          2.7395427528       -0.0299769480        1.1113905959
 O          2.2726779053       -2.4411783970        0.2122470634
 C          0.3794930764        2.0866499228        0.4518288343
 C          0.3820395728        1.7302536677       -1.0522180378
 C         -1.0946535853        1.8643307462        0.8933490702
 C         -1.7753110753        1.2601028023       -0.3539645529
 C          1.6106737412        0.9542128207       -1.5336360824
 H          1.0364799792        1.4116551425        0.9983556341
 H          0.3273036857        2.6655712345       -1.6316231791
 H         -1.1428707839        1.1551403555        1.7239881137
 H         -2.4666212586        2.0192322179       -0.7566228202
 H          1.6048147773        0.9148137692       -2.6250139719
 H          2.5147183491        1.4456303848       -1.1713654732
 H          0.1158369075        4.0093409183        0.4672890491
 H         -1.4868140533        3.3630188124        2.0850372841
 H          4.3000403386       -1.6177443385       -1.3256813702
 H          3.2864419573       -0.3460341294        1.8399111811
  34
        -71.10751139
 O         -4.6627655096       -1.3988226415       -0.9387773823
 O         -3.3092053553        0.3350764456       -1.3029063179
 N         -1.4531792722       -0.8309942209        0.6097149850
 N         -3.0566124185       -2.2825552469        1.1078005286
 C         -2.7157919508       -1.2810141564        0.3163046777
 C         -1.0005516846       -1.5967764993        1.6295306598
 C         -2.0076087877       -2.4873529459        1.9210401241
 C         -3.5709245737       -0.7040418233       -0.7107368314
 H         -0.0218352839       -1.4629157629        2.0363491232
 H         -2.0327833131       -3.2532106629        2.6681591627
 H         -5.2355273501       -0.9880066085       -1.6186967536
 P          2.9836720985       -0.5592930271       -0.8193486301
 O          0.6234601533        0.1316779167        0.3061195708
 O          0.1629545493        3.6362038761        0.9044660378
 O         -1.5472214037        2.4565004669       -0.6970980747
 O          3.3833647481        0.5152283589        0.3139261180
 O          4.4476479764       -1.0289361817       -1.1965470700
 O          2.4119220203       -1.8436401583       -0.1181980261
 O          2.1971258883       -0.0576308579       -1.9566622517
 C          0.0523166355        2.2626443983        1.0504739093
 C          1.1518266065        1.4456560913        0.3421066431
 C         -1.2115784547        1.6530170151        0.3932352220
 C         -0.7344423890        0.2305850225       -0.0410546607
 C          2.4971546442        1.3621801914        1.0264849560
 H          0.0715284955        2.0452941995        2.1230142568
 H          1.2844543147        1.8159175233       -0.6844024701
 H         -2.0500675531        1.5747744860        1.0971927301
 H         -0.8573102792        0.1310859339       -1.1313399474
 H          2.9594499785        2.3506029042        1.0731191671
 H          2.3732101426        0.9557983554        2.0350649531
 H         -0.2293244314        3.8880720011        0.0504434930
 H         -2.3002676388        2.0577931260       -1.1654746319
 H          4.9320751179       -0.4354467312       -1.7790726580
 H          3.0842771391       -2.3531735636        0.3528626500
  34
        -71.10724743
 O         -2.0386450810        0.0079452692       -1.9366427205
 O         -1.9495309999       -2.1921293819       -2.2399491387
 N         -1.3789572914       -0.3257296220        0.8056240597
 N         -1.9398006366       -2.4642443536        0.6104432464
 C         -1.7151827877       -1.3437632346       -0.0483946056
 C         -1.3926821096       -0.8580619025        2.0533415847
 C         -1.7504223104       -2.1734890142        1.9112862947
 C         -1.8876826887       -1.2352192953       -1.4941639870
 H         -1.1927653531       -0.2823425958        2.9311125572
 H         -1.8824870525       -2.9218056593        2.6652324739
 H         -2.1772323829        0.0253760937       -2.9053415364
 P          1.9141312124       -1.0352785960       -0.5097368600
 O          0.0920077428        0.9430219023       -0.4962083275
 O         -0.4930517820        3.8780622624        0.3568010381
 O         -1.4255786679        2.4066837300        2.4174189486
 O          2.6758385802        0.3682993163       -0.7578497294
 O          0.9394016565       -1.2741225209       -1.7166364564
 O          3.0743119191       -2.0544508968       -0.8817116076
 O          1.3808587121       -1.1894387617        0.8509353117
 C          0.3926217469        2.8996504502        0.8276641377
 C          0.9922721965        2.0322393301       -0.2916901680
 C         -0.4471830232        1.8624207598        1.6018884852
 C         -0.9751245086        1.0022573657        0.4328394807
 C          2.3645040945        1.4584293015        0.0831789742
 H          1.1726246947        3.3351960752        1.4590658873
 H          1.0578356748        2.5676442157       -1.2448027937
 H          0.2104579633        1.2489529905        2.2238005626
 H         -1.8316067639        1.5074692422       -0.0440775901
 H          3.1568433679        2.1928292346       -0.0633423262
 H          2.3423190842        1.1095043802        1.1195946310
 H         -0.0110314841        4.6504755542        0.0286723672
 H         -1.8223448681        3.1681849229        1.9592436274
 H          1.4227057252       -1.3887864687       -2.5456146877
 H          3.7042854599       -2.2449558098       -0.1794569498
  34
        -71.10707029
 O         -4.6074100314       -1.2976406046       -1.0806970483
 O         -3.3148211508        0.4383206293       -1.6028841985
 N         -1.3268743371       -0.6462484406        0.2971807826
 N         -2.7051554981       -2.3687103285        0.5180626527
 C         -2.5337637416       -1.1931256656       -0.0595003969
 C         -0.7322392181       -1.5314578504        1.1346958405
 C         -1.5994157903       -2.5912358299        1.2499719706
 C         -3.4981008861       -0.5935310027       -0.9761343432
 H          0.2498682492       -1.3695127593        1.5280792367
 H         -1.4869946671       -3.4914079962        1.8179698833
 H         -5.2409194619       -0.8959931881       -1.7098004586
 P          2.8924817287       -0.9436982425       -0.1944098406
 O          0.5594591823        0.5333441370       -0.3771378950
 O         -0.1533396130        3.8353732995        0.2290482176
 O         -2.1246356255        2.2952211807        1.0771428100
 O          3.2054836238        0.5964622233       -0.5619049219
 O          1.9568271458       -1.5621454582       -1.2859905875
 O          4.2764168303       -1.6224888009       -0.5627806529
 O          2.4505204649       -1.1322109830        1.1956552258
 C          0.2912616040        2.6268239987        0.7670194960
 C          1.1526246933        1.8178738597       -0.2372230376
 C         -0.8824375985        1.6631954250        1.0981385795
 C         -0.8061950583        0.6391795364       -0.0583706268
 C          2.5900384968        1.5953139563        0.2245903024
 H          0.8764674363        2.8663936255        1.6598496054
 H          1.1407567689        2.3263355568       -1.2113082348
 H         -0.6951535566        1.1402373871        2.0428756336
 H         -1.3883077228        1.0179569115       -0.9119559891
 H          3.1827378463        2.5022259786        0.1073240526
 H          2.5820599017        1.2634531730        1.2671502312
 H         -1.0765137904        3.7320562983       -0.0647049078
 H         -2.2731438963        2.7742186602        1.9070093472
 H          2.3117802276       -1.5365879455       -2.1833221980
 H          4.9852775190       -1.5089864247        0.0782217122
  34
        -71.10703503
 O         -4.9169856602       -1.2234952275       -0.7309247324
 O         -3.4397784124        0.3512724346       -1.2910991005
 N         -1.5640996037       -0.8696398719        0.5587665422
 N         -3.2234624543       -2.1950647534        1.2033983704
 C         -2.8713697902       -1.2379612405        0.3631553400
 C         -1.0961280400       -1.6364139954        1.5707579088
 C         -2.1380634859       -2.4501980332        1.9520945204
 C         -3.7497302971       -0.6281035313       -0.6255939232
 H         -0.0858452249       -1.5583262183        1.9111333772
 H         -2.1628654406       -3.1947979904        2.7204308163
 H         -5.5013036121       -0.7919854206       -1.3873244348
 P          3.2471202727       -0.4782683354       -0.8148777796
 O          0.5337675327        0.0114119234        0.1233171211
 O          0.1430899201        3.4794407182        0.9707456910
 O         -1.4851650269        2.4169747084       -0.8314647503
 O          3.4372678942        0.6537795585        0.2933102105
 O          4.7544352060       -0.7230377966       -1.1969536041
 O          2.7859361412       -1.7514506250        0.0186376404
 O          2.4383545087       -0.1732122534       -2.0024463623
 C         -0.0185782600        2.1039056389        1.0140409954
 C          1.0928608682        1.3020427384        0.3063203139
 C         -1.2655934883        1.5830110615        0.2657522210
 C         -0.8377708683        0.1470040922       -0.1588624751
 C          2.3818955466        1.1662766415        1.0884817802
 H         -0.0584076044        1.8152730613        2.0691116765
 H          1.3107154665        1.7515599776       -0.6730995504
 H         -2.1510194166        1.5429876079        0.9122420565
 H         -1.0205746250        0.0186242105       -1.2366150622
 H          2.7104820203        2.1498193238        1.4313228559
 H          2.2211781812        0.4968474413        1.9382119345
 H         -0.1552131969        3.7991878699        0.1020915826
 H         -2.2669604617        2.1038334430       -1.3149988756
 H          5.3641924567       -0.8615655446       -0.4608925834
 H          2.3821855500       -2.4333367124       -0.5259559528
  34
        -71.10702419
 O         -2.9230374582       -2.8991378902        1.4446957892
 O         -1.3964237677       -1.2906143120        1.6380615759
 N         -2.7697593426       -0.0242144300       -0.7190841782
 N         -4.4587557174       -1.3398312855       -0.1369776819
 C         -3.1910668688       -1.0478312258        0.0898813445
 C         -3.8402797329        0.3201088343       -1.4808359522
 C         -4.8742480349       -0.4953184692       -1.0984815438
 C         -2.4032236990       -1.7348541429        1.1126564203
 H         -3.7888485072        1.0987823431       -2.2122762970
 H         -5.8824804355       -0.5229802741       -1.4564093196
 H         -2.4269762028       -3.3398512071        2.1646071655
 P          3.7670755712        0.1861964187        0.0210390330
 O         -0.4882936149       -0.4240343075       -0.9734740457
 O          0.8780305398        2.5301442756       -0.5301088274
 O         -1.5831185853        2.7342409898        0.3152427561
 O          2.6496630061       -0.5075711112        0.9201281256
 O          5.0001515651        0.1628376692        0.9843574604
 O          4.0140833787       -0.8828250856       -1.1247194855
 O          3.4829733501        1.5447305675       -0.4735731491
 C          0.4901341665        1.4117633273        0.2223706905
 C          0.7590889077        0.0824283422       -0.5122592754
 C         -1.0460077392        1.4552519169        0.3545511383
 C         -1.4735771156        0.5745264000       -0.8476582378
 C          1.4271467103       -0.9656509213        0.3731467142
 H          0.9784964388        1.4162134981        1.2028319599
 H          1.3988467599        0.2798060819       -1.3836355915
 H         -1.3664853669        0.9730870922        1.2817454313
 H         -1.4969089931        1.2050692070       -1.7513533383
 H          0.7751612543       -1.1933031699        1.2193102667
 H          1.5998616091       -1.8685393445       -0.2171250648
 H          1.8506574202        2.5312393059       -0.5941432663
 H         -0.9622187512        3.3048350555       -0.1740301222
 H          5.2021420300       -0.6799273814        1.4120681326
 H          4.5203408341       -0.5713159290       -1.8833791210
  34
        -71.10701082
 O         -2.1185389615       -2.2021161816       -2.2003776141
 O         -2.2962359772        0.0067463598       -1.9759785016
 N         -1.4925765955       -0.3629629887        0.8209878588
 N         -2.1852013051       -2.4540659128        0.5633604286
 C         -1.8945863260       -1.3288632722       -0.0604180604
 C         -1.5292017607       -0.9281555746        2.0524981748
 C         -1.9691447665       -2.2148416653        1.8716912408
 C         -2.1031932077       -1.0928105557       -1.4874600063
 H         -1.2755321930       -0.3875517755        2.9388609215
 H         -2.1442339827       -2.9752812421        2.6044113862
 H         -2.3240544083       -2.0310416584       -3.1426064852
 P          1.9283498509       -0.8757302123       -0.3092906444
 O         -0.0907728577        0.7924499483       -0.6142054175
 O          0.3329907002        3.8604482366        0.8345397070
 O         -0.9419419745        2.3201133313        2.4968225202
 O          2.6123743841        0.5368524658       -0.6823728556
 O          1.0769240508       -1.3740927601       -1.5347755938
 O          3.2160548708       -1.7996587536       -0.4259122011
 O          1.3226178128       -0.9430914192        1.0297167767
 C          0.7887378833        2.5365026743        0.7525854897
 C          0.6699390173        1.9853893402       -0.6901137381
 C         -0.1695260507        1.6300798339        1.5727948171
 C         -0.9907760590        0.9298239026        0.4622380211
 C          1.9795167345        1.6005215026       -1.3646001960
 H          1.8104394347        2.4290854779        1.1215640225
 H          0.1311024090        2.7249034321       -1.3009905076
 H          0.4083505293        0.8640862553        2.0959800815
 H         -1.8347834725        1.5713236697        0.1504894762
 H          1.7565493225        1.2980574732       -2.3908663578
 H          2.6941646454        2.4245080974       -1.3570444584
 H          1.0693194145        4.4865179731        0.8569932221
 H         -1.0212449463        3.2448671082        2.1941104803
 H          1.6065509111       -1.8827511221       -2.1639989523
 H          3.7331979287       -1.8702937434        0.3819368255
  34
        -71.10698386
 O         -1.4641912718       -1.9166085786        2.3009470285
 O         -1.0444890182        0.2272199634        1.8681997963
 N         -1.6175113733       -0.4392276358       -0.9946638681
 N         -2.4457302766       -2.3195264620       -0.1591268534
 C         -1.7918506187       -1.2125353075        0.1263717559
 C         -2.1863177541       -1.1334905741       -2.0199220396
 C         -2.6984620247       -2.2825288052       -1.4825903076
 C         -1.3678754703       -0.8871718950        1.4897250768
 H         -2.1918522230       -0.7602754999       -3.0223788638
 H         -3.2309347697       -3.0776260025       -1.9618596497
 H         -1.2134938921       -1.6908638182        3.2188890617
 P          2.2966358279       -1.0886638932        0.1987387762
 O          0.4364054429        0.6819971696       -0.8734213899
 O         -0.1522123983        4.0157289129       -0.1145662401
 O         -2.1661666425        2.8367965472       -1.3056537592
 O          2.7322686404        0.4085547562        0.5869337184
 O          2.4054627815       -1.2313711694       -1.3643794144
 O          3.5913382370       -1.9023997304        0.5654882333
 O          1.0615480563       -1.5519788241        0.8604995238
 C         -0.2856858230        2.6820792648        0.2631073218
 C          0.9214078439        1.8179158276       -0.1641125100
 C         -1.5188936537        1.9954933039       -0.3934526565
 C         -0.9322957804        0.8122184905       -1.1871777055
 C          1.7407084316        1.3180972156        1.0211936843
 H         -0.3836805075        2.6670058641        1.3498192624
 H          1.5705258671        2.3895472334       -0.8413126539
 H         -2.2029418597        1.6291542326        0.3759415140
 H         -1.0359046753        1.0558354355       -2.2572093948
 H          2.2634683673        2.1432196686        1.5044387268
 H          1.0675412268        0.8165830205        1.7205341896
 H         -0.4021149687        4.1095480680       -1.0512180218
 H         -2.7104516253        3.4836587218       -0.8315931292
 H          1.7579261066       -0.7171435736       -1.8561717043
 H          3.6356471190       -2.2061453928        1.4787219853
  34
        -71.10691376
 O         -2.1658422745       -2.2490016863       -2.0750439264
 O         -2.1081866849       -0.0248640515       -1.9893777734
 N         -1.3495920786       -0.2861960748        0.8372482577
 N         -1.9498704066       -2.4151906028        0.6411173742
 C         -1.7495409159       -1.2864499517       -0.0100435996
 C         -1.2836990138       -0.8421580929        2.0718880410
 C         -1.6686543214       -2.1509743808        1.9300263415
 C         -2.0044181133       -1.1064129013       -1.4356539315
 H         -1.0043934109       -0.2994523473        2.9482831059
 H         -1.7583216788       -2.9102016152        2.6792136272
 H         -2.3938303306       -2.1135631385       -3.0175401872
 P          1.9358338730       -1.1103172676       -0.4865756089
 O          0.1359666534        0.9328927181       -0.4750609381
 O         -0.1411347555        4.0715651751        0.2513039056
 O         -1.7069532752        2.6551141018        1.9917766830
 O          2.7290408098        0.2890459946       -0.6352178161
 O          0.9828624681       -1.2849457961       -1.7208902763
 O          3.0896107380       -2.1288702558       -0.8756122335
 O          1.3536587339       -1.3173559290        0.8463805076
 C          0.4478493231        2.9326786445        0.7989738500
 C          1.0697678927        1.9859068933       -0.2433984637
 C         -0.5677880243        2.0068195354        1.5189268539
 C         -0.9693110561        1.0315348590        0.4023318152
 C          2.3809719782        1.3502668632        0.2289524313
 H          1.2093511152        3.3076847172        1.4862778439
 H          1.2320301724        2.4947382448       -1.2001892544
 H         -0.0409426760        1.4646271487        2.3148037107
 H         -1.8280476086        1.4471236431       -0.1517268419
 H          3.2046412661        2.0631398807        0.1922656294
 H          2.2484511087        0.9519631554        1.2393803489
 H         -0.8934580844        3.8366380603       -0.3112756359
 H         -1.4547283774        3.3912318085        2.5703396648
 H          1.4705514903       -1.3385335052       -2.5539023058
 H          3.7152431074       -2.3395865955       -0.1751393645
  34
        -71.10684479
 O         -2.6171547759       -0.2755649410       -1.8769618418
 O         -1.0761944595       -1.8486455480       -2.1863854800
 N         -1.6299562863       -0.3627288139        0.8853541891
 N         -2.1288767366       -2.5060284242        0.6401916641
 C         -1.8438998754       -1.3864615259        0.0153491245
 C         -1.7717498716       -0.8843430749        2.1347474027
 C         -2.0973002806       -2.2003148796        1.9604915467
 C         -1.7929303885       -1.2021612729       -1.4448862080
 H         -1.6386919792       -0.2887557874        3.0129024609
 H         -2.3123958776       -2.9477982288        2.6955399301
 H         -2.5899921109       -0.1665622612       -2.8515994769
 P          2.0154656748       -0.8842593953       -0.4536530237
 O         -0.3989530567        0.8782503423       -0.6449419403
 O          0.0781188233        3.8006601584        0.9240554357
 O         -0.8098740664        2.1021046809        2.6955800349
 O          2.4827552229        0.6497762544       -0.5903226415
 O          1.5615846228       -1.2788937013       -1.9159883959
 O          3.4124207348       -1.5741089577       -0.2427109977
 O          1.1072157617       -1.1980963594        0.6560127180
 C          0.6412923374        2.5259478389        0.7547929904
 C          0.4671628174        2.0123496056       -0.6939409331
 C         -0.1830864578        1.5266427305        1.6002637713
 C         -1.1540368635        0.9459910858        0.5448002205
 C          1.7663606143        1.5904329109       -1.3694058085
 H          1.6915577808        2.4994147092        1.0514325201
 H         -0.0184206516        2.7974122584       -1.2912445416
 H          0.4543608927        0.7073312012        1.9470087617
 H         -2.0135379456        1.6267256701        0.4051600972
 H          1.5309308844        1.1525350156       -2.3420185622
 H          2.4347918359        2.4447807961       -1.4865276959
 H          0.7479977131        4.4919829479        0.8362535726
 H         -0.9782412504        3.0412548782        2.4885390983
 H          0.6847025894       -1.6932664575       -2.0046393284
 H          4.0588033389       -1.4468059089       -0.9487690450
  34
        -71.10677124
 O         -1.4294208006       -2.9339991330       -1.3854348424
 O         -1.0031004311       -0.8410312959       -2.0075032240
 N         -1.7237713438       -0.0545078020        0.7719538216
 N         -2.4967954974       -2.1281797954        0.9427288793
 C         -1.8297750187       -1.2848699438        0.1778050998
 C         -2.3766916592       -0.1538067695        1.9614496000
 C         -2.8443701237       -1.4400301802        2.0449490695
 C         -1.3531364815       -1.6433370832       -1.1516766228
 H         -2.5008562441        0.6782574037        2.6216586965
 H         -3.4096194894       -1.9031150102        2.8270250612
 H         -1.1683554924       -3.1660517485       -2.2992435960
 P          2.0519917783       -1.0654355479       -0.7781062307
 O          0.1128598044        0.8993820075       -0.3851844002
 O         -0.0557921868        3.9280228853        0.0429235436
 O         -1.8382947196        2.9641405990        1.7914570975
 O          2.8461756448        0.0900815451        0.0096547569
 O          1.6503398924       -0.4775706878       -2.1764155632
 O          3.2696953250       -1.9646808379       -1.2187858628
 O          1.0259934822       -1.7632256278        0.0226088189
 C          0.4372896534        2.8976984535        0.8544479155
 C          1.1385247918        1.7891157948        0.0582193123
 C         -0.7815439830        2.1481635653        1.4221698045
 C         -1.1060209875        1.1554548731        0.2737272026
 C          2.1629613137        0.9873073933        0.8615484545
 H          1.0741036782        3.2878545902        1.6539738598
 H          1.6258129103        2.1724815873       -0.8447601906
 H         -0.4745459788        1.5797915268        2.3053536532
 H         -1.7988065171        1.6182868526       -0.4496638586
 H          2.9343889230        1.6297462521        1.2889234019
 H          1.6502020682        0.4174228679        1.6424988240
 H          0.6573313029        4.5207333849       -0.2327020649
 H         -1.8936248957        3.7058947470        1.1639115956
 H          0.6853457440       -0.4496062345       -2.3109052976
 H          3.6199231944       -2.5447424902       -0.5342670255
  34
        -71.10666335
 O         -4.9275242996       -1.1281871285        0.2989448782
 O         -3.9109969282        0.7124575122       -0.4426346247
 N         -1.3785691811       -0.7108730918       -0.2344334453
 N         -2.5244062452       -2.3969359170        0.6461687463
 C         -2.6153469663       -1.1809724407        0.1341230084
 C         -0.4912636967       -1.6863889508        0.0617461097
 C         -1.2220357523       -2.7186651431        0.6070586840
 C         -3.8566928820       -0.4403098493       -0.0336926450
 H          0.5516675074       -1.5941793472       -0.1565410101
 H         -0.8736592854       -3.6638981865        0.9681870898
 H         -5.7533783378       -0.6146376294        0.1841632875
 P          3.1554658026       -0.9685950728        0.0720510935
 O          0.2304464030        0.6263042720       -1.2677804857
 O          0.2954835974        3.4799857889        0.9062266179
 O         -1.9409453136        2.8294194741       -0.3404393761
 O          2.5101816011        0.4376662187        0.4727137139
 O          4.7162284240       -0.6875637379        0.1949237948
 O          2.7658453983       -1.8565389252        1.3036317473
 O          2.7573063620       -1.5242292607       -1.2279226701
 C          0.1602361458        2.1457241060        0.5471646989
 C          0.9065225956        1.7655425605       -0.7490191905
 C         -1.2873724360        1.7289859925        0.2175098315
 C         -1.0950252690        0.5835429163       -0.8120864364
 C          2.3785146971        1.4339899309       -0.5296482721
 H          0.5514029690        1.5407020784        1.3707507021
 H          0.8343339429        2.5912948886       -1.4708670271
 H         -1.8187049587        1.3629305841        1.1037354711
 H         -1.7819649437        0.7329570524       -1.6593870284
 H          2.8031990578        1.0718239695       -1.4677765578
 H          2.9013087509        2.3278792844       -0.1842390347
 H         -0.3628280952        3.9989110316        0.4116707597
 H         -2.8696039575        2.5946037789       -0.4979768746
 H          5.2654250475       -1.1591828245       -0.4402817946
 H          3.0750556327       -1.5409584012        2.1626710989
  34
        -71.10655411
 O         -2.0652205033       -0.6445284897       -2.0403166435
 O         -1.7125876829       -2.8093583434       -1.6910279224
 N         -1.4773201395       -0.1524620265        0.7447988483
 N         -1.8950701876       -2.3057349646        1.0980755238
 C         -1.7448260399       -1.3749870610        0.1788644766
 C         -1.4179601925       -0.3706722015        2.0869790586
 C         -1.6981345406       -1.6962816004        2.2828702724
 C         -1.8243330963       -1.6846049332       -1.2492763281
 H         -1.1971778678        0.3987225365        2.7949875787
 H         -1.7703978122       -2.2438647876        3.1998105773
 H         -2.1222138908       -0.9179160652       -2.9785154062
 P          1.9126189145       -1.0821656331       -0.7060394503
 O          0.1541228797        1.0328337640       -0.4763355009
 O          0.5402589709        3.8508690908        1.6493305330
 O         -1.5603444533        3.4619907999        0.1139809179
 O          2.7134579911        0.2659629714       -0.3183849932
 O          1.1615841507       -0.8630579646       -2.0634685655
 O          3.1130576270       -2.0052658415       -1.1797047327
 O          1.1060474247       -1.6155074240        0.3996750769
 C          0.2052971890        2.5291913368        1.3922651737
 C          1.0296988414        1.8823429725        0.2560965960
 C         -1.2505708033        2.3432537584        0.8976727091
 C         -1.1601210407        1.0696902265        0.0333179619
 C          2.2045974751        1.0419043361        0.7490730082
 H          0.3712984645        1.9784586011        2.3225477951
 H          1.3931564694        2.6516248080       -0.4368592025
 H         -1.9587409075        2.2289084865        1.7222797173
 H         -1.8296318211        1.1304603449       -0.8312904915
 H          3.0203004813        1.6727552159        1.1018985812
 H          1.8623009757        0.3666828435        1.5398610155
 H          0.1035053857        4.4145388543        0.9859092770
 H         -2.5124503224        3.5249602724       -0.0444936646
 H          1.7425725936       -0.6254425944       -2.7984033817
 H          3.6197931959       -2.4272218390       -0.4788764710
  34
        -71.10653821
 O         -4.8536831038       -1.2017788846       -0.9038023754
 O         -3.6290857647        0.6301363032       -1.2163700106
 N         -1.4094882872       -0.8009506161        0.1385498737
 N         -2.8244653871       -2.5028572356        0.2954236250
 C         -2.6756872576       -1.2609185290       -0.1301707008
 C         -0.7558272378       -1.8135448840        0.7582680624
 C         -1.6475562710       -2.8557472575        0.8401129337
 C         -3.7364150731       -0.5111868464       -0.7931001853
 H          0.2627584145       -1.7169588173        1.0696319076
 H         -1.5061634170       -3.8295750810        1.2611869725
 H         -5.5592860270       -0.6918679622       -1.3515008221
 P          2.8247634139       -0.5931511024        0.1409488122
 O          0.3064673252        0.3805429490       -0.9238767295
 O          0.4765882998        3.5189863456        0.5773162753
 O         -1.4926141149        2.0953088333        1.6065157349
 O          3.1877699906        0.7572403031       -0.6454872523
 O          2.2364565207       -1.6529530493       -0.8664811634
 O          4.2912728931       -1.0726760719        0.4743509393
 O          2.0052635394       -0.4667618077        1.3516832546
 C          0.7498452993        2.1466244475        0.5832021959
 C          0.9032949628        1.6624290372       -0.8711043407
 C         -0.4580052218        1.3120004552        1.1077252277
 C         -0.8703582934        0.4905135682       -0.1478053504
 C          2.3208866228        1.5799439012       -1.4034183390
 H          1.6471302770        1.9074675642        1.1578290842
 H          0.3353526724        2.3604831251       -1.5077920226
 H         -0.1414346600        0.6305699902        1.9004217897
 H         -1.6324046546        1.0563205434       -0.7058629903
 H          2.2760995010        1.1984884070       -2.4269615191
 H          2.7707913537        2.5753401931       -1.3914966667
 H          0.6694766296        3.8995222880        1.4469452876
 H         -1.5173178949        2.9318812299        1.1055797155
 H          2.7941756174       -1.9271533198       -1.6048243603
 H          5.0186270726       -0.6249973303        0.0248922444
  34
        -71.10653672
 O         -2.3179685979       -2.1701130107       -2.1119754832
 O         -2.1848031763        0.0483434245       -1.9715551699
 N         -1.3369395385       -0.3146219490        0.8196981751
 N         -2.0057715002       -2.4193079100        0.5862072326
 C         -1.7989916173       -1.2775534373       -0.0394899575
 C         -1.2370555354       -0.9103161697        2.0337651923
 C         -1.6651117237       -2.2027853133        1.8700245181
 C         -2.0992489713       -1.0499885971       -1.4497020657
 H         -0.8967121703       -0.4072155520        2.9116250337
 H         -1.7477344056       -2.9816449379        2.5995952141
 H         -2.5716990950       -2.0033176330       -3.0428718755
 P          1.9582683015       -1.0677663932       -0.4498607066
 O          0.1635255885        0.8956546964       -0.4766778813
 O         -0.2725535397        3.9578854255        0.2207714942
 O         -1.5469684623        2.5568466471        2.1446656489
 O          2.7183125626        0.3232240240       -0.7636666811
 O          0.9495795283       -1.3679550535       -1.6141028927
 O          3.1099701631       -2.1009612068       -0.8139739500
 O          1.4604930535       -1.1784181853        0.9288944875
 C          0.4593140325        2.9033403852        0.7773476724
 C          1.0479774523        2.0030606547       -0.3188811349
 C         -0.4552684240        1.9238441839        1.5518237942
 C         -0.9271291566        1.0020907991        0.4167268922
 C          2.4266158976        1.4411124002        0.0461871579
 H          1.2560367889        3.3120808040        1.4122995853
 H          1.0882758960        2.5353211078       -1.2754676431
 H          0.1477169190        1.3479862762        2.2601770301
 H         -1.7747394683        1.4742921287       -0.1078337009
 H          3.2143647824        2.1714546511       -0.1368897687
 H          2.4217527633        1.1234194983        1.0933422911
 H         -1.1280668197        4.0205707984        0.6838751350
 H         -1.2958109682        2.9368667126        3.0007522252
 H          1.4024602337       -1.4696778627       -2.4618792835
 H          3.7788894684       -2.2383835080       -0.1357757819
  34
        -71.10653260
 O         -2.8126261729       -3.1797659668       -0.2617044554
 O         -1.1281135846       -1.9552730891        0.5230881351
 N         -2.8534365444        0.4189541522       -0.1384251353
 N         -4.4968036307       -1.0713688642       -0.1097592745
 C         -3.1871324584       -0.9087109954       -0.0635584077
 C         -4.0251374361        1.0977498078       -0.2406939956
 C         -5.0265664736        0.1615000040       -0.2097164069
 C         -2.2655260090       -2.0340402117        0.0905826571
 H         -4.0576461707        2.1637721476       -0.3214793323
 H         -6.0865266527        0.3028856938       -0.2532099243
 H         -2.2156829206       -3.9411095280       -0.1103868388
 P          3.6783413240        0.0536583243       -0.1923420094
 O         -0.7567886996        0.4055998874       -1.1470098477
 O          1.0340245692        2.4402434928        0.6792796717
 O         -1.1348747148        1.9766502742        2.0469261696
 O          2.6834415742       -0.7606273721       -1.1561258534
 O          3.5950820599       -0.6006684714        1.2323050096
 O          5.0640037170       -0.4204979313       -0.7534492214
 O          3.4624496367        1.5111139416       -0.1710484277
 C          0.6787930314        1.0850266734        0.6465583265
 C          0.6188968603        0.5278771258       -0.7912676184
 C         -0.7742844481        0.9796560120        1.1512883223
 C         -1.5610246563        1.0398659347       -0.1822876824
 C          1.2843184865       -0.8356362328       -0.9699626677
 H          1.3582241693        0.4924747753        1.2685369828
 H          1.0936296527        1.2455253690       -1.4746688022
 H         -0.9479842170        0.0105849058        1.6255777771
 H         -1.7188264672        2.0975582503       -0.4484415617
 H          1.0378487910       -1.4736669563       -0.1176845418
 H          0.8905336931       -1.2878028311       -1.8833771674
 H          1.9835335514        2.5006712908        0.4659388664
 H         -0.5627947834        2.7487019677        1.8804636311
 H          4.0324671655       -1.4574730573        1.3236139802
 H          5.3578872226        0.0068345046       -1.5649676926
  34
        -71.10636236
 O         -0.4531139365       -2.5309718379        1.3159859330
 O         -0.2398128899       -0.3154349339        1.4432153215
 N         -2.1309183785       -0.1515414947       -0.8042933615
 N         -2.7382607646       -2.1996386468       -0.2082718920
 C         -1.8625199896       -1.2359418024       -0.0083160065
 C         -3.2265743471       -0.4838588230       -1.5389283492
 C         -3.5927162141       -1.7440247794       -1.1471454643
 C         -0.7718518390       -1.3040916809        0.9687424252
 H         -3.6499504458        0.1846038589       -2.2586372568
 H         -4.4118638689       -2.3469181463       -1.4800351296
 H          0.3506320822       -2.5249512499        1.8856621739
 P          2.3351034316       -1.1154086479        0.3873235988
 O         -0.0427404820        0.7596648538       -1.2609535589
 O          0.2240302127        3.8472027475        0.4574298466
 O         -2.2528297658        3.0976644413       -0.0792399053
 O          2.2047881387        0.4518137787        0.5698815503
 O          1.3530915619       -1.5442119990       -0.7670395401
 O          3.7522753972       -1.3414426073       -0.3102082532
 O          2.1962462401       -1.8207875356        1.6717187425
 C          0.0715832861        2.4642341126        0.3934801421
 C          0.7738631662        1.8359556980       -0.8332555427
 C         -1.4120666925        2.0225564717        0.2376666919
 C         -1.3850567745        1.0644958701       -0.9745723111
 C          2.1872627907        1.3399545181       -0.5411244964
 H          0.4946519994        2.0400597187        1.3056994167
 H          0.8348291689        2.5865623337       -1.6372818126
 H         -1.7503802678        1.4897691249        1.1295312711
 H         -1.8404554923        1.6026156835       -1.8237844150
 H          2.5903403782        0.8429531500       -1.4249233694
 H          2.8069618460        2.1943767183       -0.2615003461
 H         -0.3842489093        4.2592893435       -0.1823968282
 H         -2.4827183456        3.5840898298        0.7265734717
 H          1.6942573330       -2.2365162968       -1.3474089015
 H          4.4811570421       -1.4856212070        0.3021353211
  34
        -71.10635431
 O         -3.5600288128       -1.6874253680        1.1903128907
 O         -3.3285781933        0.4277823454        0.5323096053
 N         -1.1014952457       -0.4715824355       -1.1681574210
 N         -1.7282476535       -2.5325278341       -0.6241085910
 C         -1.9276651880       -1.2451922573       -0.3915398873
 C         -0.3734510011       -1.3293426322       -1.9175811592
 C         -0.7715498574       -2.5969019507       -1.5619816041
 C         -2.9810907561       -0.7453283709        0.4768123792
 H          0.3391539500       -0.9837268005       -2.6347891877
 H         -0.4261312880       -3.5388597199       -1.9345158186
 H         -4.2937651853       -1.3427939461        1.7394312587
 P          2.2191191130       -0.7705323612        1.0652566176
 O          0.0852150859        1.3667840017       -2.0023214551
 O          0.6863251698        3.5815936747        0.2881916208
 O         -1.6507985093        2.5912982647        0.5291309074
 O          1.7868517113       -0.4820372424       -0.4393575351
 O          0.8448889338       -0.6947599138        1.8356532988
 O          2.5264821435       -2.3162725236        1.0868743174
 O          3.2990330328        0.1041433238        1.5566872743
 C          0.6808878751        2.1914638646        0.1539256536
 C          1.2126823390        1.7626860532       -1.2265077742
 C         -0.7400012269        1.5807500594        0.2231696562
 C         -0.9791210473        0.9789691398       -1.1902652259
 C          2.2721170270        0.6625138163       -1.1258204142
 H          1.3172133709        1.7693344687        0.9428884411
 H          1.6563492582        2.6222072784       -1.7381711646
 H         -0.7658815957        0.7818328758        0.9708998556
 H         -1.9039044392        1.3913726553       -1.6190823592
 H          2.5532985731        0.3293189430       -2.1268363220
 H          3.1428424679        1.0603847249       -0.5979431120
 H         -0.2324892438        3.8801007242        0.4159881252
 H         -2.5235545097        2.1871321821        0.6776054868
 H          0.8801289592       -1.0644564839        2.7259225817
 H          3.4276516916       -2.5687173710        0.8566880358
  34
        -71.10629801
 O         -5.2674262942       -0.5791937011        0.8602286026
 O         -3.9483558666        1.0558790168        0.1100002729
 N         -1.9486004943       -0.9548404687       -0.5103969598
 N         -3.2857759066       -2.4387481383        0.4584319290
 C         -3.1535442099       -1.1707244705        0.1093517422
 C         -1.3129429279       -2.1475447422       -0.5401310754
 C         -2.1583220599       -3.0511815567        0.0629181739
 C         -4.1418006221       -0.1282151871        0.3507301885
 H         -0.3488023867       -2.2618620347       -0.9873312140
 H         -2.0113906538       -4.0978138124        0.2314529161
 H         -5.9160690539        0.1351988616        1.0262290533
 P          3.6078849514       -0.0716295392        0.5974585741
 O         -0.3535010940        0.1199583876       -1.8455338764
 O          1.1588529629        2.2275315935        0.6103531348
 O         -1.3476888580        2.5851861117       -0.1342528784
 O          3.1642491867        0.3664935001       -0.8932229076
 O          5.1438936236       -0.4089795162        0.4136475145
 O          3.6543188744        1.2210604810        1.4653429205
 O          2.7757719859       -1.1539974419        1.1458661304
 C          0.4936993158        1.0980407413        0.1539942612
 C          0.8086656300        0.7478931220       -1.3143885448
 C         -1.0416228756        1.2509337415        0.1389548995
 C         -1.4654204060        0.3130430167       -1.0153509728
 C          2.0005048643       -0.1983582524       -1.4570260559
 H          0.7867954397        0.2648715893        0.8017089444
 H          1.0047318860        1.6742532590       -1.8712228780
 H         -1.4877726125        0.9280409015        1.0859983322
 H         -2.2747199502        0.7718985091       -1.6002312473
 H          1.7696577844       -1.1391897077       -0.9482736937
 H          2.2057893301       -0.3832163773       -2.5133682845
 H          0.6448268672        3.0117322543        0.3446628431
 H         -2.3062310649        2.7117574985       -0.0597215520
 H          5.3510824087       -1.2829197042        0.0658389401
 H          4.2133119667        1.9297685560        1.1240134427
  34
        -71.10624725
 O         -1.8021126682       -0.7147736988       -2.0367864669
 O         -1.9020331047       -2.8787103136       -1.5512800719
 N         -1.4773828649       -0.1120269547        0.7547419039
 N         -1.9716875902       -2.2331759754        1.1918144397
 C         -1.7732645553       -1.3494853371        0.2358385826
 C         -1.4633073423       -0.2700409374        2.1066542976
 C         -1.7836008683       -1.5784009515        2.3531234827
 C         -1.8225616394       -1.7268803904       -1.1760593140
 H         -1.2504124258        0.5265968257        2.7860770022
 H         -1.8902550563       -2.0835252187        3.2908927852
 H         -1.8431880499       -1.0369163275       -2.9600176040
 P          1.9588116028       -1.1009478779       -0.7694967535
 O          0.1410062083        1.0812179463       -0.5111443716
 O          0.5317424726        3.8959484239        1.5265955223
 O         -1.6156118418        3.4761503497        0.0259419956
 O          2.7130199226        0.1430952271       -0.0702052879
 O          1.4285618728       -0.6505663935       -2.1711810600
 O          3.1979395199       -1.9975828884       -1.1816134025
 O          0.9656782436       -1.7399870611        0.1040734562
 C          0.1706158663        2.5597129693        1.3809738078
 C          1.0304712110        1.8068577742        0.3367902930
 C         -1.2691640529        2.3839398620        0.8278775993
 C         -1.1714043524        1.0893958309        0.0048779440
 C          2.0329011396        0.8383429672        0.9559479303
 H          0.2816730694        2.0804394525        2.3586106955
 H          1.5757656473        2.5145193893       -0.2987791581
 H         -2.0256706718        2.3378966471        1.6113832359
 H         -1.8484916136        1.1137870473       -0.8554899692
 H          2.7898876409        1.3749338918        1.5288680270
 H          1.5048258835        0.1142278761        1.5847917127
 H         -0.0999301367        4.4438803074        1.0216935626
 H         -1.1475101038        3.4334119391       -0.8226727712
 H          2.1132730843       -0.3643818688       -2.7899863995
 H          3.5923070646       -2.5184924386       -0.4751082624
  34
        -71.10623134
 O         -2.9304599340       -2.8630966533        1.4843280644
 O         -1.4344615445       -1.2275629280        1.6863217359
 N         -2.7520490592       -0.0425792579       -0.7458505975
 N         -4.4479153013       -1.3489850970       -0.1628329569
 C         -3.1864159527       -1.0452759107        0.0820244999
 C         -3.8076668794        0.2757574328       -1.5391731831
 C         -4.8463970254       -0.5329996762       -1.1558307671
 C         -2.4186214397       -1.6984923654        1.1417487203
 H         -3.7435725055        1.0336992513       -2.2911141085
 H         -5.8469621380       -0.5744474750       -1.5333885503
 H         -2.4487491548       -3.2793809209        2.2282327323
 P          3.7603363283        0.1811106667        0.0290513037
 O         -0.4650984836       -0.4426443718       -0.9494537979
 O          0.8731701407        2.5174431525       -0.5827175285
 O         -1.5918755968        2.7419547571        0.2459629614
 O          2.6720266799       -0.5685507510        0.9475800224
 O          5.0597132392       -0.0368542627        0.8804728589
 O          3.9756346525       -0.6954851301       -1.2537163137
 O          3.4351012015        1.5841584004       -0.2829864923
 C          0.4867767010        1.4273746042        0.2100758901
 C          0.7720209441        0.0716550036       -0.4667781633
 C         -1.0505253642        1.4664281858        0.3221696904
 C         -1.4548115064        0.5561924640       -0.8654479173
 C          1.3985115085       -0.9565254413        0.4706150799
 H          0.9651653233        1.4750142710        1.1942114104
 H          1.4434218241        0.2293297101       -1.3236624926
 H         -1.3823352207        1.0048857471        1.2556602979
 H         -1.4628410241        1.1645100587       -1.7843814510
 H          0.7612667034       -1.0860574214        1.3486528253
 H          1.4723244086       -1.9059528816       -0.0667124283
 H          1.8476099831        2.5265769475       -0.6213474557
 H         -0.9710793268        3.3004756067       -0.2573328650
 H          5.1698462632        0.5458143798        1.6395534135
 H          4.5120997544       -1.4901835569       -1.1347320978
  34
        -71.10620236
 O         -4.8314807329       -1.2482710270       -1.0304864025
 O         -3.5999623931        0.5828931468       -1.3240757030
 N         -1.4719189729       -0.7742118418        0.2340512491
 N         -2.9037766403       -2.4598208673        0.4087361711
 C         -2.7197166983       -1.2499147756       -0.0878479296
 C         -0.8667850692       -1.7445605293        0.9625554007
 C         -1.7679747785       -2.7774241991        1.0540769819
 C         -3.7316377074       -0.5413741519       -0.8639879934
 H          0.1332498036       -1.6299757964        1.3261234017
 H         -1.6632809395       -3.7209244801        1.5486092980
 H         -5.5073817859       -0.7654532705       -1.5487835060
 P          2.9005116849       -0.6170695201        0.0773261334
 O          0.2716186761        0.3409062867       -0.8674805679
 O          0.4566223469        3.5301547290        0.5222785180
 O         -1.5003493354        2.1436210395        1.6293722815
 O          3.1600811756        0.8581927103       -0.4591633327
 O          2.5027321116       -1.4255079678       -1.2090959156
 O          4.3825637367       -1.0827690329        0.3707415956
 O          2.0329679147       -0.7286197460        1.2672904392
 C          0.7268906047        2.1587163817        0.5693563143
 C          0.8741299324        1.6220366241       -0.8680483362
 C         -0.4768809338        1.3446778132        1.1329716973
 C         -0.9067378892        0.4949871244       -0.0960553867
 C          2.3030197850        1.5153287168       -1.3724874588
 H          1.6322364240        1.9359742435        1.1397755962
 H          0.3120290447        2.2929892760       -1.5367287845
 H         -0.1543712910        0.6817532726        1.9389314314
 H         -1.6559815445        1.0573486809       -0.6738289047
 H          2.2948190663        0.9714909856       -2.3195919400
 H          2.7256176779        2.5130221357       -1.5019334288
 H          0.6674340434        3.9406179286        1.3741082743
 H         -1.5456067409        2.9596567576        1.0978003020
 H          2.3490153593       -2.3668645832       -1.0805922847
 H          4.6913688240       -0.9200597208        1.2677336153
  34
        -71.10618426
 O         -5.2350496872       -0.6350418475        0.8482468158
 O         -3.9370837291        1.0309459863        0.1300264566
 N         -1.9059541779       -0.9391087467       -0.5149015854
 N         -3.2147534708       -2.4546271842        0.4442806963
 C         -3.1074256263       -1.1824752367        0.1017408105
 C         -1.2462865289       -2.1185870344       -0.5490638690
 C         -2.0742919432       -3.0420512036        0.0479019797
 C         -4.1139689090       -0.1595290354        0.3515707617
 H         -0.2778316305       -2.2126171436       -0.9914594472
 H         -1.9055150199       -4.0861214314        0.2119298780
 H         -5.8950185434        0.0667629473        1.0234357800
 P          3.5540650956       -0.1345926251        0.6010600356
 O         -0.3459306436        0.1781318466       -1.8588363515
 O          1.1552075436        2.2982142389        0.5915988615
 O         -1.3672108423        2.6051175784       -0.1011989408
 O          3.1553217597        0.4346864826       -0.8578439553
 O          5.1215993971       -0.2972748963        0.4788793461
 O          3.4201294403        1.0306125241        1.6285086817
 O          2.7983217091       -1.3443031724        0.9627071137
 C          0.5098388319        1.1564875618        0.1373831947
 C          0.8098951441        0.8266714109       -1.3387753672
 C         -1.0286011180        1.2740380126        0.1478225833
 C         -1.4500176200        0.3418776016       -1.0120496996
 C          2.0194847114       -0.0935081652       -1.5070470395
 H          0.8307967898        0.3229374981        0.7725606390
 H          0.9751603657        1.7632593723       -1.8881799946
 H         -1.4530338415        0.9282021712        1.0968801900
 H         -2.2748191082        0.7926510524       -1.5811376936
 H          1.7828461901       -1.0724718372       -1.0790471452
 H          2.2667361559       -0.1997381279       -2.5650193153
 H          0.6106939049        3.0705436370        0.3532325767
 H         -2.3272272579        2.7108705868       -0.0134039490
 H          5.4355096986       -1.0599081123       -0.0185008580
 H          3.8983055950        1.8396032713        1.4094898319
  34
        -71.10607786
 O         -4.9424588261       -0.8013313608        0.1799200169
 O         -3.6845456363        0.8647177860       -0.5979805501
 N         -1.3531472516       -0.8762082862       -0.2451714820
 N         -2.7927649937       -2.4756647051        0.2921174514
 C         -2.6679915564       -1.1966602493       -0.0175190062
 C         -0.6396782947       -2.0125341412       -0.0670433343
 C         -1.5515261851       -2.9889299149        0.2612452888
 C         -3.7863777627       -0.2745775862       -0.1692247212
 H          0.4194220494       -2.0387338309       -0.2123909306
 H         -1.3783458192       -4.0238996025        0.4718271951
 H         -5.6862640673       -0.1770056226        0.0553366933
 P          2.9462787210       -0.6969466099        0.2253901024
 O          0.4414348224        0.3070354307       -1.1340203722
 O          0.0151913550        3.5320147127       -0.1081375012
 O         -1.6876289700        1.9333152876        1.2440179243
 O          3.0973111881        0.8811214189       -0.0548583403
 O          4.2869653519       -1.0035740441        1.0051780534
 O          1.8852528801       -0.8295507160        1.3824421868
 O          2.7018334179       -1.5100928656       -0.9725611891
 C          0.5332115518        2.2697273368        0.2057529222
 C          1.0225655953        1.6015190988       -1.0953775437
 C         -0.5691311166        1.2966157491        0.7242930402
 C         -0.8236628276        0.4217776736       -0.5332993830
 C          2.5322999679        1.4488510882       -1.2174930703
 H          1.3538284150        2.3478720428        0.9260579189
 H          0.6501863279        2.1987684970       -1.9410207719
 H         -0.1755178695        0.6568167368        1.5180222899
 H         -1.5273606465        0.9453643562       -1.2023527899
 H          2.7325111352        0.7997079870       -2.0735573726
 H          3.0054281689        2.4231903569       -1.3410204945
 H         -0.1988374857        4.0067796955        0.7096930138
 H         -2.1078557863        2.4719409268        0.5535835837
 H          5.0636840679       -1.1569244522        0.4570851720
 H          2.2820844778       -0.7513182808        2.2596016753
  34
        -71.10605727
 O         -5.3254982826       -1.3914464008       -0.6761183357
 O         -4.3918220304        0.6189718659       -0.8855293602
 N         -1.9157001514       -0.5789065166        0.2219706157
 N         -3.1488355472       -2.3989381031        0.5462052307
 C         -3.1427752627       -1.1751827160        0.0553487723
 C         -1.1315505945       -1.5023647978        0.8400461269
 C         -1.9136419862       -2.6138159909        1.0325503071
 C         -4.3214605265       -0.5519585538       -0.5459764456
 H         -0.1088988077       -1.3302485722        1.1012461497
 H         -1.6547976415       -3.5443800714        1.4936541965
 H         -6.1199692874       -0.9668558838       -1.0599919010
 P          3.5855861818       -0.2978156806        0.2191716028
 O         -0.6917813212        0.6490700254       -1.3841582284
 O          1.5607669478        2.3540992185        0.7093757109
 O         -1.0213483338        2.9221533260        0.7229843410
 O          2.9053256557       -0.0165005206       -1.2200490564
 O          4.9514208341       -0.9680105557       -0.1360754032
 O          4.0269958168        1.1156705538        0.7588436207
 O          2.7408382239       -1.1248423462        1.0972148331
 C          0.7247991638        1.2656100771        0.4449075002
 C          0.6719637786        0.9018291656       -1.0550591506
 C         -0.7562241473        1.5517505248        0.7975089424
 C         -1.5268943475        0.7348251005       -0.2512758303
 C          1.5385080831       -0.3093754391       -1.4141447524
 H          1.0953667654        0.4152051009        1.0222465976
 H          1.0158822921        1.7557578672       -1.6537725423
 H         -1.0016343907        1.2472281117        1.8165437637
 H         -2.4529762265        1.2353053996       -0.5577745262
 H          1.2532363216       -1.1725235821       -0.8065131058
 H          1.4107280631       -0.5489077295       -2.4715981954
 H          1.0008433803        3.1372165202        0.8833842999
 H         -1.1201874653        3.2036827642       -0.1997375915
 H          5.5549413865       -0.4275452411       -0.6621280348
 H          3.3061269799        1.7508275611        0.9174193693
  34
        -71.10603423
 O         -4.9605849743       -1.1259030538       -0.1847927678
 O         -3.8420733086        0.7134316796       -0.7664644503
 N         -1.3769151640       -0.6818024825       -0.1106605959
 N         -2.6452012721       -2.3269173675        0.6759080069
 C         -2.6541670641       -1.1557769440        0.0621391957
 C         -0.5483427602       -1.6030481669        0.4299258357
 C         -1.3540216345       -2.6131089841        0.9064501560
 C         -3.8529901393       -0.4338018682       -0.3392681713
 H          0.5150813420       -1.4879833173        0.4401273582
 H         -1.0647586736       -3.5164379828        1.4021163597
 H         -5.7581444922       -0.6183776735       -0.4400649277
 P          3.1440577091       -1.0407443251        0.1747329648
 O          0.3386410711        0.5774192310       -1.0859579477
 O          0.2830306396        3.4922002405        1.0113631985
 O         -1.8380619255        2.8599083324       -0.4643338227
 O          2.4792878744        0.3161273015        0.6541269570
 O          2.6215103566       -1.2407330344       -1.2959931412
 O          4.6861691918       -0.7153538156       -0.0547906009
 O          2.8852339960       -2.1251824118        1.1330593722
 C          0.1410930234        2.1576555270        0.6568533677
 C          0.9769459552        1.7398573240       -0.5714908887
 C         -1.2817972520        1.7705164844        0.2092751860
 C         -1.0202484526        0.5701165356       -0.7378012571
 C          2.4297210990        1.4339156779       -0.2265873789
 H          0.4477135227        1.5506095955        1.5151005752
 H          0.9463017383        2.5401292622       -1.3242387559
 H         -1.9111361299        1.4644315865        1.0532416662
 H         -1.6319183831        0.6752940454       -1.6463309405
 H          2.9961669755        1.2191660495       -1.1321328823
 H          2.8525285792        2.2917904435        0.3002780018
 H         -0.2995841687        4.0238070821        0.4412746639
 H         -2.7467707190        2.6395001535       -0.7238211435
 H          2.9349060933       -2.0383485363       -1.7362341316
 H          5.2465730910       -0.8730035980        0.7121053644
  34
        -71.10601578
 O         -5.0747625740       -1.0681245830       -0.5353602558
 O         -3.8526244838        0.7958160840       -0.5605323359
 N         -1.5137685117       -0.8651369350        0.0302610917
 N         -2.9665629020       -2.4739645432        0.5158859794
 C         -2.8321826071       -1.2570775206        0.0198448286
 C         -0.8131949451       -1.8892750384        0.5698425466
 C         -1.7310000938       -2.8735246843        0.8583361412
 C         -3.9450386161       -0.4143052348       -0.3892247015
 H          0.2452656510       -1.8339299439        0.7140980145
 H         -1.5645474414       -3.8355244245        1.2968427602
 H         -5.8230438599       -0.4803739498       -0.7671809976
 P          3.1684385541       -0.6770545827        0.1392572673
 O          0.3296607172        0.2453953613       -0.9170752913
 O          0.6165108538        3.3683751415        0.8213103451
 O         -1.8111078313        2.5809764965        0.2878694696
 O          3.1570968599        0.8994108034       -0.0727773043
 O          3.1924464321       -1.2376736404       -1.3455170621
 O          4.6045165576       -0.8924195836        0.7437761955
 O          2.1468723156       -1.2588974807        1.0200413884
 C          0.4761249768        2.0062780105        0.5982386877
 C          0.9001499087        1.5430250142       -0.8127291596
 C         -0.9874746658        1.5056091157        0.6329714369
 C         -0.9955934469        0.3832529502       -0.4494742924
 C          2.3934715073        1.5297295467       -1.0830705267
 H          1.0842727338        1.4725860125        1.3362192695
 H          0.4305306897        2.2048583786       -1.5578434635
 H         -1.2619346433        1.0944506048        1.6129671975
 H         -1.6378484912        0.7194347339       -1.2809019990
 H          2.5734190053        1.0331653649       -2.0387872307
 H          2.7492592367        2.5616179906       -1.1058982511
 H         -0.2011408397        3.8090511150        0.5282287269
 H         -2.7064167751        2.2562065866        0.0853787662
 H          2.9346865214       -2.1601343822       -1.4384351606
 H          5.3385240653       -0.4851214212        0.2666007019
  34
        -71.10598587
 O         -4.8946016171       -1.2153204417       -0.4712416256
 O         -3.5423984962        0.2116433607       -1.5251735007
 N         -1.3883565879       -0.6817892353        0.2335765854
 N         -2.8350261065       -2.1523295472        1.0555040094
 C         -2.6801164452       -1.1483802270        0.2107446345
 C         -0.7231049546       -1.4378842345        1.1376382210
 C         -1.6352442026       -2.3436615464        1.6281406146
 C         -3.7241137891       -0.6430576064       -0.6721440098
 H          0.3262817935       -1.3312588907        1.3127533252
 H         -1.4880710256       -3.1126871058        2.3577390300
 H         -5.5804141771       -0.8794760278       -1.0836720621
 P          3.1230261894       -0.8967921875       -0.3503198019
 O          0.5239674166        0.4581647012       -0.5249330224
 O          0.0070765031        3.5252064437        1.2583732954
 O         -1.6404386638        2.7997826352       -0.7414363792
 O          3.2656855746        0.6567374278        0.0638276203
 O          2.5253477920       -0.9776540897       -1.7940847961
 O          4.6354443807       -1.2798321735       -0.6041009270
 O          2.4150827030       -1.6947551448        0.6609124540
 C         -0.0912494119        2.1622657890        1.0089284917
 C          1.0530808234        1.6043878159        0.1407429802
 C         -1.3297275935        1.7820147834        0.1609774434
 C         -0.8815332510        0.4592782196       -0.5013254221
 C          2.2903942606        1.2024002170        0.9282627428
 H         -0.1114925978        1.6370818403        1.9700469678
 H          1.3507380065        2.3459325588       -0.6142792206
 H         -2.2221742266        1.6395920128        0.7741738875
 H         -1.2689668864        0.3845028191       -1.5265311440
 H          2.7348923785        2.0814259380        1.3971352804
 H          2.0222111762        0.4570035787        1.6823223215
 H         -0.5424493598        3.9994465094        0.6057465138
 H         -1.0453404698        2.7817941946       -1.5056869587
 H          3.0774525222       -0.5913132837       -2.4861281998
 H          5.1734503527       -1.4099210145        0.1835167433
  34
        -71.10592741
 O         -4.2282506566       -1.2475127058        1.6233924475
 O         -3.5178199791        0.7676658220        0.9981905423
 N         -1.7866127427       -0.5973465637       -0.9678017442
 N         -2.8266734886       -2.4568375509       -0.3346455822
 C         -2.6903181214       -1.1621640454       -0.1019617747
 C         -1.3645325190       -1.5997639912       -1.7758202041
 C         -2.0150842428       -2.7387928071       -1.3649820185
 C         -3.4934404155       -0.4503144641        0.8808574387
 H         -0.6757812372       -1.4240837782       -2.5735443572
 H         -1.9448406452       -3.7320297050       -1.7571452300
 H         -4.7896465462       -0.7575811090        2.2589529589
 P          3.1135248069       -0.4225039005        0.8589179608
 O         -0.3521105222        0.9011235984       -2.0421898934
 O          0.7984986067        3.1373763741       -0.3266865846
 O         -1.3836176882        2.4084570163        0.8107738672
 O          2.9011762550       -0.2181457260       -0.7294611408
 O          4.3883613323       -1.3481417875        0.9297388746
 O          3.6574006064        0.9385999133        1.4051342954
 O          1.9016708418       -0.9109371084        1.5345899813
 C          0.7069148596        1.7568130141       -0.1269192774
 C          0.9377074537        1.0299174570       -1.4543641917
 C         -0.7171943896        1.3088849187        0.2782742685
 C         -1.3341623241        0.7862935321       -1.0534743330
 C          1.6040555259       -0.3411462955       -1.2704977499
 H          1.4290960814        1.4457056750        0.6368935854
 H          1.5332576094        1.6522536264       -2.1270227072
 H         -0.6516420538        0.4847773803        1.0026825159
 H         -2.1916192491        1.4098568400       -1.3421053340
 H          0.9942049909       -0.9582087115       -0.6037349455
 H          1.7149547840       -0.8274391409       -2.2420012532
 H          0.1049534032        3.5666734916        0.2046210776
 H         -2.2872232310        2.1429070564        1.0617509228
 H          4.2554743793       -2.2894810402        0.7717675947
 H          4.5122626781        1.2221474911        1.0547081116
  34
        -71.10590395
 O         -2.2987397387       -1.7183406866        2.4286648348
 O         -1.5798683470        0.3144381895        1.8711029240
 N         -1.7281339277       -0.6196765363       -0.9568645970
 N         -2.9645221350       -2.2686999139       -0.1382338358
 C         -2.2150276810       -1.2276624817        0.1716325373
 C         -2.1956931058       -1.3391288483       -2.0083629710
 C         -2.9670498388       -2.3439954888       -1.4820931766
 C         -1.9867277353       -0.7880995472        1.5480137377
 H         -1.9538276888       -1.0859461584       -3.0190117123
 H         -3.5187196656       -3.1082706189       -1.9890188209
 H         -2.1855098133       -1.4112597981        3.3512835357
 P          2.7466171964       -0.7480423080       -0.0303796876
 O          0.2745243479        0.2580261638       -0.2090890330
 O          0.0082388850        3.8000416312       -0.1959740677
 O         -1.6874697027        2.5710711366       -1.8340506412
 O          2.6394576939        0.2965952598        1.1901702263
 O          4.1275526005       -1.4091557931        0.3762312861
 O          1.7526750952       -1.9392697871        0.2187384032
 O          2.7275504026       -0.1810543809       -1.3877368263
 C         -0.3193882556        2.5115590116        0.2122483831
 C          0.8511590747        1.5125287444        0.0985818866
 C         -1.4295188867        1.8528962714       -0.6628198208
 C         -0.8211535443        0.4848804429       -1.0581298209
 C          1.6600687928        1.3067442843        1.3613146776
 H         -0.6518763852        2.5815738573        1.2491434459
 H          1.5187391092        1.8101782800       -0.7237354375
 H         -2.3399913566        1.6979003083       -0.0754875942
 H         -0.4893060137        0.5537990692       -2.1072313490
 H          2.1839068943        2.2241131370        1.6378394297
 H          0.9825063875        0.9954758582        2.1627940264
 H          0.1530124526        3.8060269788       -1.1573683686
 H         -2.1998461258        3.3673083073       -1.6235113438
 H          4.9097728408       -0.8907061544        0.1618797994
 H          2.0211311233       -2.5118852683        0.9489728743
  34
        -71.10586213
 O         -2.0136240614       -0.6217144049       -2.0476555128
 O         -2.2659528431       -2.7838994128       -1.6132008604
 N         -1.4063840742       -0.1469529518        0.7277032203
 N         -1.9565729900       -2.2618588613        1.1282881428
 C         -1.8220246548       -1.3418563594        0.1935632801
 C         -1.2413570128       -0.3735925362        2.0585144041
 C         -1.5985885542       -1.6763805315        2.2851639271
 C         -2.0480840641       -1.6568926770       -1.2151150214
 H         -0.8985938003        0.3757720517        2.7392425835
 H         -1.6185224155       -2.2220402254        3.2059358155
 H         -2.1697146504       -0.9066967181       -2.9711231570
 P          1.9955952679       -1.1146208404       -0.7251818742
 O          0.1960077043        1.0863658745       -0.5049654682
 O          0.5834698951        3.9724458384        1.2125903199
 O         -1.7951112069        3.4141555394        0.2151157477
 O          2.7487412511        0.1267736606       -0.0193137526
 O          1.4817239519       -0.6713265335       -2.1351094613
 O          3.2382774767       -2.0153757069       -1.1188678940
 O          0.9927313720       -1.7494013251        0.1401656904
 C          0.2375124840        2.6250170277        1.3360956153
 C          1.0826223649        1.8130882709        0.3373722119
 C         -1.2325937692        2.3419944589        0.9050011527
 C         -1.1107912830        1.0812176589        0.0164099105
 C          2.0618880459        0.8394691193        0.9900221413
 H          0.4158545048        2.2664221610        2.3576714384
 H          1.6465898002        2.4978659377       -0.3071534901
 H         -1.8977611601        2.1620413542        1.7512693107
 H         -1.7961721376        1.1426234212       -0.8344252747
 H          2.8202140408        1.3705892563        1.5662739258
 H          1.5153949523        0.1271974473        1.6163857409
 H          0.0737181864        4.5098035783        1.8380218091
 H         -1.1578797469        3.7723109291       -0.4235702358
 H          2.1719109874       -0.3912063520       -2.7503361063
 H          3.6256787507       -2.5297548819       -0.4036599039
  34
        -71.10580772
 O         -4.8172337947       -1.2820378659       -0.6886430209
 O         -3.4178564584        0.1182209033       -1.7131040857
 N         -1.3810627589       -0.6796820908        0.2554338466
 N         -2.8222747658       -2.2415870944        0.8932419454
 C         -2.6429210069       -1.1962406877        0.1047310364
 C         -0.7606494062       -1.4427458016        1.1875610203
 C         -1.6666581472       -2.4076723535        1.5594121688
 C         -3.6382968969       -0.7104171276       -0.8452130059
 H          0.2620007210       -1.2886573439        1.4611486990
 H         -1.5475159407       -3.2026831232        2.2659805894
 H         -5.4679716588       -0.9712113725       -1.3507083504
 P          3.0210035779       -0.9103266631       -0.3312950560
 O          0.5429542838        0.4690923333       -0.3683329732
 O          0.1691481856        3.6590824548        1.1213829329
 O         -1.8376674204        2.7615859543       -0.3482951995
 O          3.2492025552        0.6858999946       -0.2413380102
 O          2.2367822822       -1.2447963682       -1.6427395687
 O          4.4796602961       -1.3973638852       -0.7077114329
 O          2.4555810340       -1.4784531577        0.9011249270
 C          0.0724895394        2.2685694885        1.0825544002
 C          1.0893239555        1.6962872745        0.0840864343
 C         -1.2719790148        1.7891595406        0.4736753480
 C         -0.8633518963        0.5264378700       -0.3407907676
 C          2.4605551240        1.4084300780        0.6805546095
 H          0.2252515103        1.8078544615        2.0635162719
 H          1.1907280797        2.3886478315       -0.7642058524
 H         -2.0030794684        1.5093288503        1.2435723481
 H         -1.2733067066        0.6106956247       -1.3570133026
 H          2.9897505300        2.3378613110        0.8924272958
 H          2.3407825089        0.8080900360        1.5874542597
 H         -0.1917800745        4.0074363456        1.9511145190
 H         -1.2855754237        3.5669321179       -0.2944724792
 H          2.6857175934       -0.9913177630       -2.4590795241
 H          5.1219268389       -1.4030420860        0.0095298353
  34
        -71.10579787
 O         -0.6139379234       -2.4544724184       -0.9931863657
 O          0.1868294856       -1.2238165114        0.6897271414
 N         -2.5018079397        0.0937786962        0.3521148821
 N         -3.1525501756       -2.0156331991        0.5117517461
 C         -2.1368660304       -1.2187425401        0.2790406735
 C         -3.8369076363        0.1053128086        0.6368386531
 C         -4.2135854351       -1.2023604822        0.7468300085
 C         -0.7390967779       -1.6295856647        0.0097056267
 H         -4.3846070776        1.0179946498        0.7377326567
 H         -5.1728298710       -1.6166225572        0.9774113637
 H          0.3533719065       -2.5840675594       -1.2080405395
 P          2.6638133714       -1.0626478789       -0.5035308091
 O         -0.8336624120        0.9556207321       -1.0146693144
 O         -0.0197763085        3.8452385745        0.3729296704
 O         -1.4668646320        2.4866582760        2.1204600284
 O          2.0602649168        0.3891819906       -0.2463335788
 O          4.1012041396       -0.6842673806       -1.0846718955
 O          2.9211690087       -1.6448482542        0.9200704606
 O          1.9414601361       -1.9632168336       -1.4236995973
 C          0.3081347125        2.4853640116        0.4372322098
 C          0.2747544236        1.8578523586       -0.9726943543
 C         -0.7655539391        1.6863038602        1.2156227428
 C         -1.6915199678        1.2395684664        0.0637458477
 C          1.5605438174        1.1262846308       -1.3545201803
 H          1.3011312153        2.3651569558        0.8830754502
 H          0.0972382769        2.6563713783       -1.7057190651
 H         -0.3198038729        0.7975622328        1.6683081544
 H         -2.3696182684        2.0739504804       -0.1823943629
 H          1.3454908558        0.4498442386       -2.1854082641
 H          2.3204209967        1.8534023639       -1.6498219042
 H         -0.6796117784        4.0281711523        1.0690337982
 H         -1.1202887137        2.3771616863        3.0173738040
 H          4.4952206284       -1.3406094768       -1.6681277125
 H          3.4100057075       -1.0777896742        1.5292796793
  34
        -71.10571835
 O         -4.8803976288       -0.7515951558        0.4110171633
 O         -3.7372000905        0.8458935782       -0.6393618698
 N         -1.3490643880       -0.8393324067       -0.3336245966
 N         -2.7451597751       -2.4524801713        0.2708047343
 C         -2.6444111694       -1.1693552335       -0.0302937972
 C         -0.6187758265       -1.9727147016       -0.2062354100
 C         -1.5043813158       -2.9584511760        0.1603237763
 C         -3.7773306384       -0.2543914098       -0.1132916795
 H          0.4319092133       -1.9900287742       -0.4049269933
 H         -1.3145927671       -3.9954646505        0.3449790310
 H         -5.6379543865       -0.1379230803        0.3228142302
 P          2.9442484676       -0.7320006902        0.2656000912
 O          0.4045443298        0.3776049415       -1.2477412075
 O         -0.2021336293        3.4977824897       -0.1235845617
 O         -1.6178643785        1.8322167807        1.3297292626
 O          3.0172285705        0.8612462520        0.0428708034
 O          4.2968039126       -1.0204561565        1.0310391033
 O          1.8874982997       -0.9485022523        1.4110124937
 O          2.7254657024       -1.4994937587       -0.9668834979
 C          0.4974693555        2.3137110904        0.1531592319
 C          1.0394309669        1.6463849321       -1.1370915428
 C         -0.5197269670        1.2778332586        0.6936145412
 C         -0.8372095564        0.4705154668       -0.5974643676
 C          2.5482463776        1.4253516999       -1.1649791328
 H          1.3022483910        2.4799317534        0.8726804439
 H          0.7481797829        2.2630822248       -2.0001512318
 H         -0.0391791000        0.5931400893        1.3986807839
 H         -1.5717941713        1.0216316631       -1.2061250131
 H          2.7668113247        0.7463763783       -1.9931040711
 H          3.0780681642        2.3707146880       -1.2845222734
 H          0.3903286569        4.2611495531       -0.0965896864
 H         -1.8297248380        2.6770706716        0.8930118507
 H          5.0730346193       -1.1476239247        0.4755788028
 H          2.2705079276       -0.8954990234        2.2963204284
  34
        -71.10571748
 O         -5.6356627711       -0.2618971793       -0.1555905465
 O         -3.8415468996        0.6398872470       -1.1275680200
 N         -2.1927390662       -1.1960291454        0.3992246174
 N         -4.0453452861       -1.8350922337        1.4412365863
 C         -3.5542625522       -1.0545198518        0.4945824315
 C         -1.8346093306       -2.1077742301        1.3319455112
 C         -2.9960010317       -2.4900002263        1.9638864322
 C         -4.3383777243       -0.1519820654       -0.3374740520
 H         -0.8185354144       -2.4181292570        1.4505128215
 H         -3.1273074684       -3.1931468484        2.7599906417
 H         -6.1484725466        0.3605360789       -0.7109058683
 P          4.0718769497        0.4958713444       -0.3543662015
 O         -0.0541904083       -1.1144884162       -0.5111716502
 O          0.9375716958        2.2433622687        0.2385632790
 O         -1.1854843706        1.8319673548       -1.2361849006
 O          3.1066043888        0.0648982077        0.8667521824
 O          3.5720603056        1.8770495921       -0.8959261421
 O          5.3955888408        0.8764813841        0.4130014992
 O          4.1781419561       -0.5381954720       -1.3938721936
 C          0.2963307512        1.0296655380        0.4496156491
 C          0.9718647619       -0.1698975665       -0.2497165162
 C         -1.1359950985        0.9863539976       -0.1269808342
 C         -1.3171273611       -0.5020439912       -0.5186243247
 C          2.0606906806       -0.8369502069        0.5856886541
 H          0.2765734310        0.8560329321        1.5308309816
 H          1.4253561443        0.1663943710       -1.1948122919
 H         -1.8824110375        1.2782467006        0.6214264185
 H         -1.7568388651       -0.5684281800       -1.5245942579
 H          1.6676972004       -1.1586809666        1.5523382591
 H          2.4453606163       -1.6949517351        0.0268336443
 H          0.5923193268        2.6246730393       -0.5880771067
 H         -2.0954383410        1.8567548123       -1.5731703761
 H          3.4761699206        2.5640792000       -0.2235266480
 H          5.9308566102        0.1381491368        0.7238106785
  34
        -71.10569243
 O         -2.4904307877       -3.1639362188        0.3294840044
 O         -0.9400400372       -1.6145528468        0.7402849679
 N         -2.9346185667        0.3739123437       -0.2065206860
 N         -4.4089568335       -1.2599991298        0.0680868608
 C         -3.1260080527       -0.9539217263        0.0800284419
 C         -4.1703035197        0.8986856087       -0.4153686193
 C         -5.0657938637       -0.1230064671       -0.2298343346
 C         -2.0726802796       -1.9162045105        0.4050830300
 H         -4.3144303598        1.9280250191       -0.6677888987
 H         -6.1340462602       -0.1070870981       -0.2924025249
 H         -1.7976985438       -3.8040492311        0.5895594080
 P          3.6118830367       -0.2404650598       -0.0722373317
 O         -0.8697385429        0.4069522155       -1.2582394235
 O          1.3886943299        2.1102885350        0.8251586395
 O         -1.0972360336        2.6396734015        1.3626896089
 O          2.7034547090       -0.1597587486       -1.4070572292
 O          4.9829337329       -0.7587733603       -0.6186020334
 O          3.9433016654        1.2551716709        0.3095639680
 O          3.0340652759       -1.0863827479        0.9815645482
 C          0.5527657302        1.0222848752        0.5582455363
 C          0.4838075083        0.6905856156       -0.9494385698
 C         -0.9226668171        1.3124606956        0.9545509880
 C         -1.7046696952        1.0975830384       -0.3621903943
 C          1.3389178954       -0.5082227144       -1.3530011393
 H          0.9328752495        0.1595365958        1.1094273657
 H          0.8161158426        1.5702521772       -1.5233783050
 H         -1.2608014997        0.5984897072        1.7072469630
 H         -1.9610181258        2.0927880939       -0.7624406586
 H          1.1798087841       -1.3209151905       -0.6391412542
 H          1.0545471908       -0.8311438839       -2.3565214202
 H          0.8391751059        2.9202186703        0.8233533006
 H         -1.0108457157        2.7154611166        2.3241698584
 H          5.4036478626       -0.1930221426       -1.2792453220
 H          3.1862149329        1.7529143152        0.6663984955
  34
        -71.10566459
 O         -3.1137669009       -2.4636614310       -1.4380372748
 O         -3.2141452411       -0.2447292421       -1.5644764919
 N         -1.1708164153       -0.1864342448        0.5780425954
 N         -1.6053099637       -2.3532390842        0.8072677029
 C         -1.8530416173       -1.2731336680        0.0935759146
 C         -0.4345719975       -0.6457198644        1.6237953524
 C         -0.7287109642       -1.9789122230        1.7554996051
 C         -2.7715771737       -1.2556841261       -1.0410232459
 H          0.2094134813       -0.0183505496        2.2010211768
 H         -0.3633915068       -2.6825328223        2.4743966859
 H         -3.7458683448       -2.4402278600       -2.1857734969
 P          1.9943792536       -1.2573858192       -0.4219408512
 O         -0.0846014131        1.2760967092       -0.9270802141
 O          0.9010444988        3.8319957861        1.3256692371
 O         -1.5987260625        3.4383039981        0.6597103954
 O          2.2191906796        0.1532531274        0.2982948487
 O          3.3175777003       -1.3808421013       -1.3044640651
 O          2.1689443186       -2.2305873074        0.7951672794
 O          0.7689002375       -1.4873124579       -1.1949873663
 C          0.5592042256        2.5213906229        1.0158936267
 C          0.9587597706        2.0987225039       -0.4178312116
 C         -0.9638801427        2.2516794847        1.0461126208
 C         -1.1409812613        1.1396568306       -0.0071992710
 C          2.2875923331        1.3464140589       -0.4696407749
 H          1.0818605289        1.8858756155        1.7359601170
 H          1.0332315193        2.9873479304       -1.0581288068
 H         -1.3062253012        1.9223447334        2.0327878288
 H         -2.0715928222        1.2549987308       -0.5750589688
 H          2.5291002062        1.1073190506       -1.5061054040
 H          3.0734905618        1.9622592470       -0.0270740084
 H          0.2121479101        4.4223580446        0.9736222183
 H         -2.5567576101        3.3717072241        0.7722819363
 H          3.2228100542       -1.9378662592       -2.0844786932
 H          3.0187808584       -2.1713953056        1.2526363064
  34
        -71.10566183
 O         -1.4614842602       -0.8476320481       -2.0065495741
 O         -2.1321334402       -2.8948800079       -1.4687680744
 N         -1.5111036800       -0.0973483629        0.7637940280
 N         -2.0782804069       -2.1899178285        1.2508211118
 C         -1.8170227510       -1.3452685747        0.2748669570
 C         -1.5597864092       -0.2091541366        2.1200458712
 C         -1.9190186429       -1.5016324744        2.3963905576
 C         -1.8167408049       -1.7758723253       -1.1206107137
 H         -1.3580840087        0.6028507220        2.7842859617
 H         -2.0714578149       -1.9728468473        3.3453587339
 H         -1.5014775591       -1.2145930026       -2.9133469647
 P          1.9965174782       -1.0797876517       -0.8135524490
 O          0.1412015736        1.0437103041       -0.5013978047
 O          0.5544846449        3.8693779158        1.5216612085
 O         -1.4811061452        3.4807661517       -0.0781859182
 O          2.7219657933        0.0733756367        0.0508081168
 O          1.6484704451       -0.4553565939       -2.2273186405
 O          3.2018904591       -2.0129974320       -1.1721088041
 O          0.9174269555       -1.7729047174       -0.0959796707
 C          0.1565798840        2.5486124766        1.3684481787
 C          1.0258779075        1.7492191639        0.3662828288
 C         -1.2734274732        2.3985871062        0.7859022601
 C         -1.1785179430        1.0813395750       -0.0120196452
 C          1.9690952132        0.7530819284        1.0357426583
 H          0.2261068471        2.0900967765        2.3584232855
 H          1.6137014046        2.4291108257       -0.2602994247
 H         -2.0380424594        2.3578624346        1.5647472892
 H         -1.8291099613        1.0964935283       -0.8925479481
 H          2.6867694873        1.2656508101        1.6771635885
 H          1.3893815627        0.0205093605        1.6070914618
 H          0.1917166837        4.3912787364        0.7834983590
 H         -2.4217879466        3.6075696089       -0.2625591108
 H          0.8886932629        0.1389418337       -2.2032660903
 H          3.9171750171       -1.5974448454       -1.6710531022
  34
        -71.10562210
 O         -4.9654457138       -1.1293581815       -0.3415419146
 O         -3.6017947870        0.1770293994       -1.5291773168
 N         -1.4175261236       -0.7091792410        0.2102175649
 N         -2.8774676351       -2.1298184995        1.0939539827
 C         -2.7218363428       -1.1377338049        0.2356599205
 C         -0.7444063133       -1.4780849835        1.1003640947
 C         -1.6649630098       -2.3527010471        1.6283869186
 C         -3.7810318909       -0.6232317995       -0.6257847130
 H          0.3127436808       -1.4003472276        1.2441169809
 H         -1.5156830391       -3.1212778666        2.3580433188
 H         -5.6620411094       -0.7998637820       -0.9448373550
 P          3.1863400298       -0.8557626927       -0.3692382985
 O          0.5066069967        0.4098494091       -0.5359127279
 O          0.0358178017        3.4729700839        1.1849391360
 O         -1.5310506234        2.7292667012       -0.8594132846
 O          3.2810735946        0.6668628229        0.1541812728
 O          2.7051930803       -0.7905684549       -1.8758600272
 O          4.6914932536       -1.2480404719       -0.5221385545
 O          2.4314010451       -1.7339389845        0.5351533114
 C         -0.1229507369        2.0990548265        1.0086903099
 C          1.0288812045        1.5417141316        0.1611567411
 C         -1.3406450096        1.7557746389        0.1195065400
 C         -0.9007656963        0.4240202684       -0.5292835246
 C          2.2438726684        1.1402037261        0.9864686673
 H         -0.1833247447        1.5540919372        1.9565668450
 H          1.3304342189        2.2979113388       -0.5763172902
 H         -2.2659059640        1.6126062690        0.6946436836
 H         -1.2852772756        0.3749187918       -1.5557938526
 H          2.6374770120        2.0132090040        1.5092934354
 H          1.9694569447        0.3543123127        1.6963239724
 H         -0.4434261613        3.7800639866        1.9687148817
 H         -1.1215777531        3.5582774811       -0.5431496155
 H          1.7620648620       -0.6269058353       -1.9760757569
 H          5.2064077301       -0.7029593937       -1.1310699479
  34
        -71.10560316
 O         -2.0295845505       -0.0253368809       -1.9337192594
 O         -1.8871952851       -2.2254668614       -2.2112097805
 N         -1.3737649599       -0.3205590796        0.8219269436
 N         -1.8848092275       -2.4728724892        0.6368913442
 C         -1.6839199744       -1.3515315856       -0.0275429478
 C         -1.3787147194       -0.8468408751        2.0722036756
 C         -1.7058265349       -2.1708531455        1.9362073255
 C         -1.8512683140       -1.2601735826       -1.4751185828
 H         -1.1968377635       -0.2652329933        2.9498715436
 H         -1.8226069552       -2.9175034548        2.6942906254
 H         -2.1653202912       -0.0260755432       -2.9031390899
 P          1.9201598297       -1.0700712805       -0.5298044339
 O          0.0612242144        0.9779804071       -0.4978247425
 O         -0.3561419955        3.9936153238        0.3170214600
 O         -1.5805164728        2.5424011293        2.2766094137
 O          2.6893072421        0.3457152135       -0.6523373219
 O          0.9841503108       -1.2188317836       -1.7800674142
 O          3.0878994089       -2.0690940666       -0.9203472385
 O          1.3232496296       -1.2938742484        0.7936381385
 C          0.3764095821        2.9194838567        0.8326588278
 C          1.0068023290        2.0161900466       -0.2307671034
 C         -0.5448095360        1.9294043944        1.5842815441
 C         -1.0126086173        1.0163136716        0.4279270369
 C          2.3210901971        1.3806497262        0.2349610368
 H          1.1227637534        3.3589593848        1.4962399098
 H          1.1778865125        2.5414588500       -1.1767260945
 H          0.0508734554        1.3418378235        2.2884413372
 H         -1.8934249106        1.4576920634       -0.0678838046
 H          3.1355546629        2.1050591469        0.2201566111
 H          2.1907340675        0.9582048815        1.2352171855
 H         -0.8647223686        3.7225529504       -0.4617954237
 H         -1.7361603358        3.4239819278        1.8889830287
 H          1.4869638425       -1.2961554745       -2.6018815445
 H          3.7015463425       -2.2938793897       -0.2136138645
  34
        -71.10559974
 O         -1.1768929272       -3.0114823146       -0.4476745282
 O         -0.2847961863       -1.3557112173        0.7521227398
 N         -2.7072174462        0.2004403939       -0.1667559293
 N         -3.6312357525       -1.8160872026       -0.1633204125
 C         -2.4941217205       -1.1504982737       -0.0985495493
 C         -4.0507448132        0.3651340097       -0.2912341718
 C         -4.6031360850       -0.8890601907       -0.2711083718
 C         -1.2087534406       -1.8225318466        0.0992385705
 H         -4.4953005129        1.3339248768       -0.3788537487
 H         -5.6323225441       -1.1769023852       -0.3271017004
 H         -0.3579834673       -3.5164022045       -0.2642556979
 P          2.9744856285       -0.5682889399        0.0030879037
 O         -0.7694015594        0.9217486010       -1.2141463717
 O          1.1841881225        2.6152449898        1.2371723543
 O         -1.4113273908        2.8741052036        1.5009397206
 O          1.8854793319       -0.3326822855       -1.1633494214
 O          2.3842921392       -1.7851243479        0.8037890255
 O          4.2373421034       -1.1796027996       -0.7014783570
 O          3.3177570810        0.6559094535        0.7463891505
 C          0.4791882775        1.5533229271        0.6681513042
 C          0.4249187197        1.6065984615       -0.8718099170
 C         -1.0131840966        1.6088880663        1.0655690166
 C         -1.7476043040        1.2631011737       -0.2571682291
 C          1.6149781420        0.9865586793       -1.5951123236
 H          0.8855963015        0.5913577907        0.9820930493
 H          0.3472125119        2.6610989511       -1.1797657017
 H         -1.2387391793        0.8589516031        1.8351111387
 H         -2.2897142008        2.1692498707       -0.5725670929
 H          1.3866923684        0.9173407008       -2.6600743402
 H          2.4893589042        1.6189122234       -1.4281286785
 H          2.1122746808        2.3488993292        1.3344326626
 H         -0.6166186438        3.3497766124        1.8033409341
 H          1.4260763506       -1.7086574178        0.9912721623
 H          4.1043023631       -2.0094848875       -1.1779694220
  34
        -71.10558503
 O         -4.6705432384       -1.2837927337        0.4203601481
 O         -3.7623819392        0.7017889829       -0.0321581119
 N         -1.3116765761       -0.6885752445       -0.7731776711
 N         -2.3232814133       -2.5684787869       -0.1613964910
 C         -2.4607425813       -1.2583102943       -0.2818259794
 C         -0.4340358774       -1.6969160890       -0.9675864116
 C         -1.0798201307       -2.8499313298       -0.5802002399
 C         -3.6701585118       -0.5174341009        0.0400265050
 H          0.5480729417       -1.5258609617       -1.3531731970
 H         -0.7135703161       -3.8555398655       -0.5835440344
 H         -5.4753674804       -0.7687846761        0.6329915200
 P          2.8751947046       -0.6382631994        0.7858127345
 O          0.0832526494        0.9136988707       -1.7506650057
 O          0.7337071018        3.1203323634        0.9580413593
 O         -1.7259874426        2.7466120908        0.1716897616
 O          2.4072522798       -0.2378029096       -0.6835710358
 O          1.5348702737       -1.1072904603        1.4755409752
 O          3.6299470205       -2.0054363304        0.5650050473
 O          3.6407615330        0.4126846632        1.4795434708
 C          0.4811671896        1.8698199199        0.4048959984
 C          1.0092180083        1.7272630816       -1.0365882757
 C         -1.0221357877        1.5453041887        0.2725238995
 C         -1.1020418609        0.7203206002       -1.0359143776
 C          2.4075626027        1.1150352854       -1.1069898016
 H          0.9717432672        1.1323129960        1.0463708327
 H          1.0448587070        2.7188778970       -1.5077317464
 H         -1.3769918823        0.9502951926        1.1219114303
 H         -1.9485581804        1.0748069762       -1.6431297705
 H          2.7525755187        1.1048164744       -2.1422982645
 H          3.0807129369        1.7012291233       -0.4753251596
 H         -0.0095864663        3.7087027773        0.7328785530
 H         -2.6766638791        2.5497760182        0.1613157342
 H          1.6607727323       -1.5490047579        2.3230898480
 H          4.5628948845       -1.9333978667        0.3350459871
  34
        -71.10555885
 O         -3.6891590995       -1.5690618906        1.2173395486
 O         -3.4765365610        0.5060319683        0.4410261941
 N         -0.9997305842       -0.3863657932       -0.8973820152
 N         -1.5809334510       -2.4276327093       -0.2335073138
 C         -1.8790509931       -1.1394248272       -0.1580225006
 C         -0.1350871223       -1.2619566873       -1.4570973207
 C         -0.5072900698       -2.5156458213       -1.0295164838
 C         -3.0650149461       -0.6450684656        0.5198476140
 H          0.6429341556       -0.9514490713       -2.1204904341
 H         -0.0533006553       -3.4571123444       -1.2582793634
 H         -4.5085716469       -1.2319915921        1.6347329573
 P          2.2974287255       -1.2950450202        0.6371929719
 O          0.1618294782        1.4060106423       -1.8428350226
 O          0.1725781663        4.0219163849       -0.1751513042
 O         -1.9406544742        2.7220841808        0.4528574118
 O          1.6578161206        0.1663644648        0.4625406763
 O          3.5184819660       -1.0531704675        1.6264139676
 O          1.2042122918       -2.0173095320        1.4918608933
 O          2.6749449193       -1.9533781072       -0.6200005288
 C          0.4215576756        2.6805101852        0.1289506612
 C          1.1670869348        2.0045907569       -1.0319847800
 C         -0.8758764681        1.8465229849        0.2570170878
 C         -0.9566229774        1.0594546836       -1.0838867551
 C          2.2194692024        1.0090690916       -0.5376852665
 H          1.0082442445        2.6204253479        1.0536594456
 H          1.6565677879        2.7542584102       -1.6590680047
 H         -0.7822124816        1.1318369392        1.0843786694
 H         -1.8579011178        1.3549307924       -1.6402691744
 H          2.5780891164        0.3937394731       -1.3674131682
 H          3.0566487305        1.5628543083       -0.1060901047
 H         -0.7539878008        4.2179870975        0.0510537338
 H         -2.7646473203        2.2072236794        0.5297332848
 H          4.3454219213       -1.4675750089        1.3561296590
 H          1.2218853441       -1.8256274628        2.4383953254
  34
        -71.10554316
 O         -5.1873182692       -1.0386810564        0.0712107891
 O         -4.0781860835        0.8645383822       -0.2582681518
 N         -1.6230874177       -0.7588147520       -0.4653884803
 N         -2.9345074938       -2.5184723826       -0.1499473524
 C         -2.9011779024       -1.2005070028       -0.2477203938
 C         -0.8351131800       -1.8616179267       -0.5018376731
 C         -1.6668951003       -2.9376034101       -0.3085075104
 C         -4.0831510180       -0.3513055718       -0.1468568359
 H          0.2198257566       -1.7935332399       -0.6686111879
 H         -1.4258419026       -3.9799507450       -0.2746579177
 H         -5.9750435307       -0.4613544102        0.1346129444
 P          3.3065325938       -0.2653809449        0.6705103770
 O         -0.2947054974        0.6789135734       -1.7108918877
 O          0.2862969951        3.2421182129        0.0256977725
 O         -1.0670486502        1.6504416063        1.6308956418
 O          2.2277385372       -0.5176715658       -0.5023585972
 O          2.4664189819       -0.3290121178        1.9925079131
 O          4.1359555810       -1.6053875234        0.7311860136
 O          4.0724723311        0.9737013522        0.4656249085
 C          0.7729752670        1.9258736113        0.0211044061
 C          0.9221320507        1.3575000406       -1.3994278979
 C         -0.3161313804        1.0288661726        0.6453283902
 C         -1.1435238191        0.5924051327       -0.5940927484
 C          2.1268623762        0.4245132417       -1.5577195315
 H          1.7112853134        1.8457751533        0.5782483855
 H          1.0238237245        2.1679540279       -2.1301658709
 H          0.1415560293        0.1440307722        1.0966545661
 H         -2.0143594922        1.2495154126       -0.7198560862
 H          2.0119403305       -0.1452177742       -2.4818999662
 H          3.0373526851        1.0277297507       -1.5867947726
 H          1.0128737412        3.8738868602       -0.0607542378
 H         -1.1567425593        2.5917746039        1.3977375026
 H          2.4872928092       -1.1773918622        2.4524225708
 H          4.8801792375       -1.6760664520        0.1231038734
  34
        -71.10553313
 O         -3.5686784901        0.3551811499       -1.3537172150
 O         -4.9587258553       -1.1349621026       -0.4651420593
 N         -1.4123444035       -0.7137826635        0.2086647929
 N         -2.8494886925       -2.1475301162        1.1110858395
 C         -2.7179392503       -1.1446102342        0.2575591424
 C         -0.7193989355       -1.4933737485        1.0700634643
 C         -1.6267915662       -2.3729309271        1.6145372283
 C         -3.8422423197       -0.6605025815       -0.5279999468
 H          0.3411525796       -1.4152145948        1.1867362169
 H         -1.4595994855       -3.1464301804        2.3350909336
 H         -4.3649461901        0.5640141777       -1.8850866142
 P          3.1515898222       -0.8789406148       -0.3275917234
 O          0.5251514068        0.3940018215       -0.5217142760
 O         -0.0554117261        3.4564323693        1.2766600144
 O         -1.4358125563        2.7566012317       -0.9142528421
 O          3.2607661024        0.6798700700        0.0724646738
 O          2.5690604409       -0.9896663091       -1.7753214325
 O          4.6743526929       -1.2338295332       -0.5634450983
 O          2.4520518912       -1.6845071655        0.6840828259
 C         -0.1464806414        2.1108054209        0.9587985249
 C          1.0223563079        1.5692206575        0.1138117754
 C         -1.3399099634        1.7511218919        0.0494861646
 C         -0.8792272878        0.3990851851       -0.5532612846
 C          2.2635234553        1.2184349598        0.9169037665
 H         -0.2078207852        1.5572100311        1.9010995463
 H          1.2864112118        2.3006965051       -0.6628320327
 H         -2.2716023991        1.6350732943        0.6125520279
 H         -1.2108808766        0.2926731025       -1.5943615142
 H          2.6826656032        2.1171565520        1.3711918148
 H          2.0080330217        0.4817143669        1.6839624989
 H         -0.2972410721        3.9787334560        0.4916431191
 H         -2.2429491605        2.6497197870       -1.4358221258
 H          3.1029692370       -0.5731946875       -2.4641143018
 H          5.2080636364       -1.3389729060        0.2306650902
  34
        -71.10553182
 O         -4.7993518004       -1.2353616398       -1.0586116632
 O         -3.5533227077        0.5867786389       -1.3465287817
 N         -1.4602040472       -0.7715464637        0.2627918742
 N         -2.8942844628       -2.4584853460        0.3961300856
 C         -2.7013470839       -1.2454019684       -0.0872688351
 C         -0.8669308776       -1.7498575103        0.9918479339
 C         -1.7698682137       -2.7824743380        1.0590544956
 C         -3.6982598615       -0.5333601786       -0.8815885796
 H          0.1282965111       -1.6412773909        1.3702469529
 H         -1.6747687390       -3.7302337694        1.5472746699
 H         -5.4644362542       -0.7541608788       -1.5921492438
 P          2.8807306431       -0.6082057824        0.0691517392
 O          0.2617067793        0.3449577357       -0.8694038500
 O          0.4460877479        3.5513030338        0.5746981449
 O         -1.4823386957        2.0977985690        1.6264464886
 O          3.1451516900        0.8574708597       -0.4878360648
 O          2.4732042314       -1.4348194381       -1.2028497078
 O          4.3612348153       -1.0796238034        0.3619152755
 O          2.0186986429       -0.7031465001        1.2649834786
 C          0.7262287382        2.1861472327        0.5490598146
 C          0.8620468310        1.6293224330       -0.8912731960
 C         -0.4181046568        1.3225400505        1.1583535082
 C         -0.8887721527        0.4971415082       -0.0599765772
 C          2.2878635770        1.5133500156       -1.4019075477
 H          1.6607145194        2.0306686246        1.0938588735
 H          0.2965213909        2.2830218782       -1.5734340927
 H         -0.0207330333        0.6502077038        1.9226662948
 H         -1.6510883994        1.0818062805       -0.5977293553
 H          2.2764856627        0.9638388778       -2.3460152296
 H          2.7134076938        2.5092037550       -1.5361084496
 H         -0.5211462386        3.6702457009        0.5735181864
 H         -1.2975636069        2.4088058546        2.5257263311
 H          2.3474876669       -2.3791234364       -1.0647516096
 H          4.6839073138       -0.8836123737        1.2472271056
  34
        -71.10552439
 O         -2.6469414890       -0.2969367206       -1.8758401051
 O         -1.0654349288       -1.8261726207       -2.2058155805
 N         -1.6496698238       -0.3956070620        0.8877766902
 N         -2.1280052008       -2.5394649791        0.6065725519
 C         -1.8443920976       -1.4092592033        0.0017606995
 C         -1.8089783074       -0.9360254006        2.1273474119
 C         -2.1192027942       -2.2521710827        1.9313855199
 C         -1.7961319821       -1.2046649936       -1.4574116509
 H         -1.7150909222       -0.3551990832        3.0190729286
 H         -2.3381824237       -3.0115938077        2.6527993812
 H         -2.6299990798       -0.1765772333       -2.8493999881
 P          2.0362713842       -0.8442063871       -0.4411854336
 O         -0.4264218129        0.8561712008       -0.6296201709
 O          0.4681402764        3.7869714753        0.9850639952
 O         -1.0326090788        2.2710378821        2.5291616634
 O          2.4972211947        0.6759253699       -0.6957049194
 O          1.5709750001       -1.3487759294       -1.8646029544
 O          3.4399365682       -1.5069870505       -0.2017254718
 O          1.1435569174       -1.0820501056        0.7010000123
 C          0.6974040525        2.4235033896        0.7928444493
 C          0.4407570769        1.9860555445       -0.6693654272
 C         -0.2642663647        1.5326132168        1.6266149167
 C         -1.1868938432        0.9215452154        0.5549271538
 C          1.7068212684        1.5983411353       -1.4217289669
 H          1.7391786498        2.2259002528        1.0592435173
 H         -0.0574634123        2.8074409446       -1.2040191477
 H          0.2962957306        0.7220232324        2.1033506735
 H         -2.0581815667        1.5864514813        0.4090399160
 H          1.4296983429        1.1610235637       -2.3838549609
 H          2.3372966392        2.4776062314       -1.5638043401
 H         -0.4426519932        3.9146127207        1.3066689934
 H         -0.4862602142        2.5472883039        3.2810099464
 H          0.6759774570       -1.7259818625       -1.9448274069
 H          4.0770740686       -1.4133404934       -0.9210722069
  34
        -71.10549618
 O         -1.9215749384       -2.3407592049       -2.0078208892
 O         -2.1831040363       -0.1272625927       -1.9323502739
 N         -1.5272379203       -0.3183496412        0.9330386554
 N         -2.1974777272       -2.4227053095        0.7458377051
 C         -1.8666757349       -1.3346623504        0.0818647477
 C         -1.6508882880       -0.8162883662        2.1914854448
 C         -2.0735202664       -2.1119698107        2.0527781792
 C         -1.9776209180       -1.1892457349       -1.3733260138
 H         -1.4768730047       -0.2274841010        3.0659049760
 H         -2.2994435310       -2.8341218889        2.8097074019
 H         -2.0460020064       -2.2367458626       -2.9725300650
 P          1.8977750382       -0.9415860724       -0.6631336726
 O         -0.0978053186        0.7826463462       -0.5040321474
 O          0.7294549596        3.8949026937        0.9238174709
 O         -1.1764578219        2.6174683062        2.2654962981
 O          2.5679678227        0.5270118149       -0.6468732619
 O          3.2038745159       -1.8363306201       -0.5303037579
 O          1.2745015945       -1.1765935159        0.7669547209
 O          1.0760597446       -1.2463951675       -1.8424685442
 C          0.8246443436        2.5102374898        0.8205194751
 C          0.6507662587        1.9755838901       -0.6225653790
 C         -0.2833623100        1.7575543944        1.6254010181
 C         -1.0327599663        0.9672904991        0.5323394249
 C          1.9416633972        1.5900735874       -1.3324277986
 H          1.8174006976        2.2475821291        1.1927884231
 H          0.0992215202        2.7086241770       -1.2287349707
 H          0.1832774477        1.0563984812        2.3258971546
 H         -1.8783883691        1.5770080897        0.1642490853
 H          1.6909005783        1.2677029303       -2.3464596098
 H          2.6512463740        2.4175711317       -1.3425660531
 H         -0.1790928859        4.1810914736        0.7356745343
 H         -0.7023100459        3.1471193664        2.9268194042
 H          3.6771969364       -2.0027892867       -1.3517895573
 H          1.9322166750       -1.5549398429        1.3664969783
  34
        -71.10546457
 O         -3.1819186384       -1.8962276970       -2.0392452852
 O         -2.7287128441        0.2667654123       -1.7556119710
 N         -1.4925160334       -0.4599706845        0.8039996602
 N         -2.5029132441       -2.4222786687        0.5681583367
 C         -2.2275182110       -1.2728211784       -0.0201199009
 C         -1.3014542974       -1.1499489440        1.9526320163
 C         -1.9415570479       -2.3546208866        1.7890814009
 C         -2.7164888279       -0.8785136781       -1.3377546522
 H         -0.7618573490       -0.7511159013        2.7835171803
 H         -2.0290591406       -3.1675179718        2.4799139618
 H         -3.5448258393       -1.6127504916       -2.9031809891
 P          2.3502221762       -0.8311935062       -0.2651399366
 O         -0.0964361845        0.6498663848       -0.6792439446
 O          0.0424835537        3.7426261693        0.6457442307
 O         -0.7789989862        2.1089607570        2.5236737008
 O          2.7368443299        0.6872402997       -0.5731328625
 O          1.8395955259       -1.3685767067       -1.6682737420
 O          3.7879957687       -1.4445008271       -0.0438583156
 O          1.5075129351       -1.1211630162        0.9014629682
 C          0.7054790880        2.5070845365        0.5946000368
 C          0.6295685679        1.8648830687       -0.8148669743
 C         -0.0793844063        1.5125317741        1.4846048550
 C         -0.9615872168        0.8133773379        0.4278976104
 C          1.9775635292        1.5215527079       -1.4304350937
 H          1.7414479764        2.5876385476        0.9322601676
 H          0.0721032747        2.5389279604       -1.4819143180
 H          0.6071151631        0.7712083975        1.9013393758
 H         -1.7985115008        1.4740113231        0.1403136664
 H          1.8029720778        1.0082635572       -2.3779233880
 H          2.5826426691        2.4163119875       -1.5804116290
 H          0.6476226198        4.4691778888        0.4437538996
 H         -1.0394346985        3.0043518386        2.2389012343
 H          1.3999415032       -2.2220961793       -1.6247910179
 H          4.4506781213       -1.2625960977       -0.7225382311
  34
        -71.10546152
 O         -1.5033749446       -0.7958437063       -2.0293928191
 O         -2.4772570787       -2.7321080729       -1.5441093428
 N         -1.4279337904       -0.1290319422        0.7551390430
 N         -2.0536036342       -2.2142117660        1.1986025374
 C         -1.8416851521       -1.3336318517        0.2420231057
 C         -1.3527267450       -0.3063956638        2.1023931777
 C         -1.7479852451       -1.5937800573        2.3529800816
 C         -1.9763089665       -1.6926579639       -1.1665772596
 H         -1.0437188861        0.4617966286        2.7778976463
 H         -1.8289880892       -2.1062688843        3.2892772972
 H         -1.6305907665       -1.1123275965       -2.9473248452
 P          2.0057140870       -1.1063310084       -0.7780808558
 O          0.1765963072        1.0784228925       -0.5065591264
 O          0.6102134023        3.9471608449        1.1701692138
 O         -1.7530487011        3.4291498982        0.1324386524
 O          2.7246723717        0.0302503260        0.1144288292
 O          1.6974791204       -0.4666537328       -2.1941294166
 O          3.2105808917       -2.0482405072       -1.1134500914
 O          0.9014526837       -1.7881031113       -0.0898916043
 C          0.2243661602        2.6146549920        1.3320734469
 C          1.0696243180        1.7482612494        0.3782319434
 C         -1.2432593612        2.3632068135        0.8712013000
 C         -1.1308964367        1.0795731561        0.0144627316
 C          1.9578940732        0.7216234881        1.0799780691
 H          0.3680083933        2.2838308754        2.3672309882
 H          1.7049454789        2.3934891298       -0.2393950925
 H         -1.9364989560        2.2213358075        1.7019321814
 H         -1.8145390681        1.1260991534       -0.8393660075
 H          2.6713305262        1.2094237372        1.7452983215
 H          1.3413275441        0.0010006763        1.6266560379
 H          0.1560012511        4.5129824544        1.8126139922
 H         -1.0509804464        3.8200599090       -0.4139464033
 H          0.9144176812        0.0964806287       -2.1966040207
 H          3.9371326288       -1.6379994399       -1.6001559742
  34
        -71.10531381
 O         -1.4309789389       -0.8472436504       -1.9955080582
 O         -2.0981791273       -2.8948360143       -1.4551284349
 N         -1.5081323672       -0.0842707157        0.7683346800
 N         -2.0637017565       -2.1771722676        1.2649949401
 C         -1.8004564515       -1.3379690602        0.2855652922
 C         -1.5745608447       -0.1843595047        2.1250152882
 C         -1.9241645185       -1.4780678041        2.4070437653
 C         -1.7878341979       -1.7745542762       -1.1081526687
 H         -1.3943214715        0.6369607119        2.7837292296
 H         -2.0833934978       -1.9434463839        3.3577445367
 H         -1.4721271178       -1.2175926097       -2.9009333619
 P          2.0002789988       -1.0930260881       -0.8215468074
 O          0.1244688090        1.0724057567       -0.5197448824
 O          0.5546822100        3.8776494683        1.4793624290
 O         -1.5621733906        3.4878319272       -0.0692835707
 O          2.6964711322        0.0342026515        0.0986328065
 O          1.6913333487       -0.4227902448       -2.2237720393
 O          3.2160107168       -2.0146446418       -1.1691183933
 O          0.8942644469       -1.7978749070       -0.1589835497
 C          0.1476847941        2.5509752182        1.3703155501
 C          1.0159764734        1.7305307639        0.3833848646
 C         -1.2793500394        2.4092174731        0.7733472536
 C         -1.1930118495        1.0919011263       -0.0147751585
 C          1.9074004076        0.6972395565        1.0663898999
 H          0.2087306472        2.1044195546        2.3674322256
 H          1.6510132924        2.3921411689       -0.2162401798
 H         -2.0635070921        2.4094915894        1.5300204159
 H         -1.8620341122        1.0986319062       -0.8821311676
 H          2.6020649368        1.1800229849        1.7548634298
 H          1.2910514385       -0.0408643634        1.5900287631
 H         -0.0499869285        4.4333790374        0.9506369927
 H         -1.0442054127        3.4226805746       -0.8873288799
 H          0.8961054703        0.1231249493       -2.2158026339
 H          3.9465906914       -1.5854441402       -1.6330616964
  34
        -71.10530882
 O         -5.6229588551       -0.3007792541       -0.4649576086
 O         -3.8097312131        0.6215407979       -1.3723733447
 N         -2.2057848365       -1.1765342548        0.3228468327
 N         -4.1360717384       -2.0501206407        0.9749198994
 C         -3.5709896714       -1.1193911726        0.2262276836
 C         -1.9228422029       -2.1888640748        1.1796631824
 C         -3.1298619739       -2.7195416466        1.5639218173
 C         -4.3178430300       -0.1824519875       -0.6073747037
 H         -0.9155505824       -2.4570165917        1.4176538412
 H         -3.3278900122       -3.5368629541        2.2259703929
 H         -6.1152037633        0.3247752581       -1.0346163439
 P          3.9802566929        0.7907150353       -0.1940051841
 O         -0.1215194193       -1.0724887848       -0.6698710322
 O          0.5716535464        2.1048921178       -0.7299858487
 O         -1.4607652104        1.8490032106        0.9272487329
 O          3.4630872573       -0.7323779049       -0.2401891475
 O          3.9261499682        1.2465227001        1.3081545529
 O          5.5066245823        0.5816052290       -0.4810050348
 O          3.2723491175        1.7097016340       -1.1017761525
 C          0.7172911108        1.0179536862        0.1404060547
 C          1.0694854952       -0.2917365640       -0.5955143250
 C         -0.6683620149        0.7269080342        0.7502090787
 C         -1.2310197958       -0.3050382954       -0.2651966915
 C          2.1482905907       -1.1260622864        0.0975628385
 H          1.4572523353        1.2475075114        0.9164228295
 H          1.4031864331       -0.0576008896       -1.6145746355
 H         -0.5704126254        0.2388613613        1.7261805976
 H         -1.6939742606        0.2204752486       -1.1118542383
 H          2.0116470352       -1.0815115643        1.1823792920
 H          2.0551770758       -2.1604426525       -0.2426746139
 H          1.4577332857        2.3385228715       -1.0613322067
 H         -1.2432565412        2.4868326488        0.2246597698
 H          4.6333677138        0.9061236488        1.8719115328
 H          5.7464774797        0.4490871268       -1.4042661362
  34
        -71.10526350
 O         -5.5716125198       -0.2924561201       -0.3812926687
 O         -3.6967523411        0.6242339831       -1.1704570116
 N         -2.1958633618       -1.3197559269        0.3771824696
 N         -4.1268492509       -1.9396356454        1.2785148049
 C         -3.5571493328       -1.1470650735        0.3879105567
 C         -1.9201821228       -2.2626110702        1.3076657961
 C         -3.1290727157       -2.6325458774        1.8512675687
 C         -4.2629677989       -0.1954806443       -0.4590759150
 H         -0.9208919161       -2.5963565034        1.4877921862
 H         -3.3288670147       -3.3516942022        2.6182710693
 H         -6.0323835605        0.3631821795       -0.9436697159
 P          3.8782509511        0.9129387740       -0.3565499308
 O         -0.0108049431       -1.2895832765       -0.4019828641
 O          1.0744140191        2.0040545848        0.5614717943
 O         -1.0177235524        1.7412401925       -1.0556853436
 O          3.4812562301       -0.6342280958       -0.1337045180
 O          3.7680326466        1.5955836389        1.0693766776
 O          5.4122784686        0.7680026449       -0.6113550700
 O          3.1738919503        1.5929693043       -1.4519285301
 C          0.4036322089        0.7867456484        0.6001177276
 C          1.0386263713       -0.3438782175       -0.2358638223
 C         -1.0207168566        0.8396042239        0.0093587245
 C         -1.2475933295       -0.6246963809       -0.4582698609
 C          2.2382485177       -1.0411510112        0.4032741120
 H          0.3575683172        0.4795149963        1.6506863747
 H          1.3433872399        0.0563139410       -1.2126021659
 H         -1.7670932768        1.1227508173        0.7616871123
 H         -1.6325602126       -0.6198782882       -1.4891182494
 H          2.2434297237       -0.8765493970        1.4854992052
 H          2.1653005767       -2.1112889148        0.1919649948
 H          0.8654475035        2.4427320019       -0.2809299521
 H         -1.9147878499        1.7994935078       -1.4222381310
 H          2.9435721291        2.0964641779        1.1692585114
 H          5.9176710253        0.3488098726        0.0971682640
  34
        -71.10522158
 O         -2.8197107263       -3.1853323548       -0.1779091564
 O         -1.1385903807       -1.9409221010        0.5816494845
 N         -2.8494150900        0.4155607637       -0.1780747582
 N         -4.4972599621       -1.0690619088       -0.1215066787
 C         -3.1879107812       -0.9079629733       -0.0620506910
 C         -4.0175666027        1.0930471586       -0.3210296652
 C         -5.0220051874        0.1607157567       -0.2721513139
 C         -2.2720496995       -2.0301185386        0.1410435070
 H         -4.0459494083        2.1556691556       -0.4394995594
 H         -6.0807695990        0.3030482822       -0.3366885720
 H         -2.2262680631       -3.9426355713        0.0041490656
 P          3.6880851064        0.0493080544       -0.1812680422
 O         -0.7381936871        0.3636878694       -1.1543569690
 O          1.0149330607        2.4687241931        0.6149329757
 O         -1.1626623623        2.0355627022        1.9832104388
 O          2.6932551307       -0.8101870672       -1.1033481641
 O          3.6111694812       -0.5510213927        1.2781564086
 O          5.0711236097       -0.3749689988       -0.7847715213
 O          3.4619234485        1.5011528284       -0.1591932731
 C          0.6715778143        1.1096592675        0.6323660635
 C          0.6325816242        0.4953692750       -0.7826810494
 C         -0.7871419837        1.0140652299        1.1221028897
 C         -1.5549585200        1.0318318588       -0.2236599574
 C          1.2959284117       -0.8755195747       -0.8969319261
 H          1.3487740055        0.5494015676        1.2853495697
 H          1.1213848112        1.1829437342       -1.4868023608
 H         -0.9642754829        0.0588534951        1.6225290798
 H         -1.7055156960        2.0804317126       -0.5272346984
 H          1.0597770444       -1.4687790443       -0.0104358282
 H          0.8919831790       -1.3733552641       -1.7816534495
 H          1.9670291114        2.5302343012        0.4174483583
 H         -0.5956106458        2.8066086383        1.7968291248
 H          4.0028578379       -1.4207039702        1.4313747358
 H          5.0621359333       -1.0667817097       -1.4590224772
  34
        -71.10519750
 O         -2.3843810876        0.0141191261       -1.8745528770
 O         -1.9477436404       -2.1065364091       -2.3808046119
 N         -1.5097540440       -0.4661548934        0.7954984702
 N         -2.0871332561       -2.5850722022        0.4772179833
 C         -1.8468061567       -1.4319984196       -0.1147764132
 C         -1.5457921351       -1.0639898611        2.0135215717
 C         -1.9130663582       -2.3660048341        1.7958569989
 C         -2.0349145762       -1.2255577254       -1.5511711380
 H         -1.3471251189       -0.5388131462        2.9224908368
 H         -2.0659007488       -3.1516853066        2.5065089230
 H         -2.5376824457        0.0995467423       -2.8376971090
 P          1.9363497559       -0.7799575378       -0.3176431183
 O         -0.1778039384        0.8116188609       -0.6083198108
 O          0.6525651280        3.7504306871        1.0297825943
 O         -1.1142717980        2.3836836754        2.4134297364
 O          2.5674110533        0.6051745234       -0.8470925308
 O          1.0302234451       -1.3959643230       -1.4461444933
 O          3.2422017101       -1.6729653695       -0.4307945812
 O          1.3912274709       -0.7485911332        1.0489380618
 C          0.8116530011        2.3686341351        0.8791981270
 C          0.5913853106        1.9980403054       -0.5976794328
 C         -0.2961196143        1.5736381696        1.6330214152
 C         -1.0663113541        0.8649629627        0.4875579798
 C          1.8603177127        1.7070099607       -1.3815880584
 H          1.7986695810        2.0285910528        1.2029263369
 H          0.0359863550        2.8176185485       -1.0772357389
 H          0.1661648462        0.8245223390        2.2764969998
 H         -1.9437918009        1.4769387718        0.2110924439
 H          1.5891505615        1.4923424615       -2.4183638653
 H          2.5449413142        2.5559768849       -1.3355571994
 H          1.0983017876        4.0537274301        1.8344017530
 H         -1.1474369606        3.2712108246        2.0083810878
 H          1.5427664487       -1.8676331110       -2.1153591961
 H          3.8275069569       -1.6346223986        0.3319171257
  34
        -71.10519155
 O         -3.6027708662        0.3221275860       -1.3481931851
 O         -5.0056852025       -1.0949101651       -0.3637892663
 N         -1.4371380606       -0.7182550182        0.2160532602
 N         -2.8761318939       -2.1036042056        1.1882734739
 C         -2.7481969603       -1.1269514400        0.3054670161
 C         -0.7377698593       -1.4860345233        1.0846621486
 C         -1.6464036565       -2.3356174053        1.6718419875
 C         -3.8813555667       -0.6495943420       -0.4734847531
 H          0.3261545523       -1.4254951262        1.1798120907
 H         -1.4751858045       -3.0927810448        2.4085779976
 H         -4.4049011300        0.5319065898       -1.8700472313
 P          3.2145447302       -0.8569342745       -0.3457543514
 O          0.4990840621        0.3638770906       -0.5778645335
 O         -0.0536439625        3.4176270661        1.2425919179
 O         -1.3851737483        2.7327652039       -0.9920399042
 O          3.2763804815        0.6575325410        0.2024798841
 O          2.7700677161       -0.7712757704       -1.8633899525
 O          4.7276624974       -1.2289949677       -0.4644371480
 O          2.4415063846       -1.7607198182        0.5173881542
 C         -0.1703979127        2.0741493861        0.9257993154
 C          1.0121034236        1.5037503736        0.1184052003
 C         -1.3487349782        1.7406437362       -0.0109156646
 C         -0.9080777242        0.3708272563       -0.5831986171
 C          2.1960552734        1.1151941553        0.9897444945
 H         -0.2706472777        1.5272895125        1.8687448271
 H          1.3419232027        2.2384344605       -0.6282491685
 H         -2.2972272062        1.6599301830        0.5284942179
 H         -1.2578957684        0.2416855867       -1.6148723744
 H          2.5514025098        1.9921780054        1.5331539856
 H          1.9027478532        0.3271889536        1.6891047267
 H         -0.2493267931        3.9446033764        0.4478825058
 H         -2.1963874571        2.6670258787       -1.5139172540
 H          1.8220543346       -0.6521474205       -1.9817276844
 H          5.2522066882       -0.6624721674       -1.0447963807
  34
        -71.10519046
 O         -4.9670975699       -1.5611240962       -1.0199567278
 O         -4.2929593998        0.5583027810       -0.9034707794
 N         -1.8049528655       -0.4614374839        0.3420661050
 N         -2.8531434022       -2.4192229801        0.4192533964
 C         -2.9307185044       -1.1699879413        0.0029057220
 C         -0.9917903478       -1.3369361857        0.9923376438
 C         -1.6612476281       -2.5347661961        1.0323129836
 C         -4.1043376956       -0.6258551046       -0.6800054714
 H         -0.0259337460       -1.0785186153        1.3741706452
 H         -1.3517932044       -3.4615328541        1.4693046169
 H         -5.7647918350       -1.1933357584       -1.4524407400
 P          3.3915839104       -0.5264271274        0.1497328733
 O         -0.8133438969        0.9728474119       -1.2474751946
 O          1.4325322632        2.7958657560        0.4097590717
 O         -1.0494670254        2.9489033104        1.2336423255
 O          2.6844869226       -0.1341999579       -1.2471337501
 O          4.6962690855       -1.2734278213       -0.3191321562
 O          3.9554351002        0.8040557838        0.7503029279
 O          2.4948431708       -1.2602106533        1.0576578192
 C          0.7965462970        1.5499887480        0.4268616325
 C          0.5876317419        1.0906860080       -1.0280042610
 C         -0.6405861983        1.6337767227        1.0234198289
 C         -1.5100949845        0.9100405399       -0.0274949231
 C          1.2822948456       -0.2337333046       -1.3693337974
 H          1.3936479801        0.8172834496        0.9790863792
 H          0.9615086210        1.8713865675       -1.7009231271
 H         -0.7167168319        1.1404455318        1.9944467029
 H         -2.4694939918        1.4178131314       -0.1758357934
 H          0.9105220520       -1.0285459332       -0.7173480329
 H          1.0703518979       -0.4855578201       -2.4105445713
 H          1.5951879108        3.0967156116        1.3163024869
 H         -0.7865295855        3.4971471657        0.4763595065
 H          4.5892969691       -2.1832103768       -0.6171694712
 H          4.6741972027        1.2103727802        0.2491363200
  34
        -71.10516262
 O         -3.6929789430       -1.5955391748        1.2236962753
 O         -3.4044637541        0.5342407856        0.6493821159
 N         -1.0521552146       -0.3476816439       -0.9157127804
 N         -1.6783837725       -2.4078810628       -0.3616266045
 C         -1.9249415463       -1.1193111489       -0.1890323883
 C         -0.2388189541       -1.2131097735       -1.5636551329
 C         -0.6393590305       -2.4784661322       -1.2042134474
 C         -3.0505871559       -0.6371971024        0.5921266025
 H          0.5158928619       -0.8775653029       -2.2425132491
 H         -0.2442134722       -3.4227634422       -1.5153648129
 H         -4.4655575327       -1.2598719142        1.7234059984
 P          2.2209856928       -1.3024263007        0.7546967083
 O          0.1037957324        1.4561935564       -1.8447121912
 O          0.2558695551        3.9983765785       -0.1367026096
 O         -1.8208748546        2.7137337942        0.6398448547
 O          1.5540414752        0.0645541318        0.3127354923
 O          2.6239720106       -1.9710665566       -0.6149231308
 O          3.6292430801       -0.9195979309        1.3903490353
 O          1.3294410492       -2.0500052290        1.6493719392
 C          0.5089689416        2.6523696815        0.1426180237
 C          1.1749996842        1.9837196974       -1.0684254127
 C         -0.7887249553        1.8302085348        0.3322591224
 C         -0.9760164281        1.1046244566       -1.0329703914
 C          2.1838298920        0.9128341888       -0.6479202929
 H          1.1435933384        2.5757937917        1.0341524186
 H          1.6703012812        2.7281086256       -1.6963617047
 H         -0.6472764513        1.0780484124        1.1195659612
 H         -1.9008440704        1.4511558896       -1.5165548418
 H          2.4921582622        0.3237638896       -1.5125851897
 H          3.0589899230        1.3842447482       -0.1963681038
 H         -0.6411693869        4.2097002488        0.1764494162
 H         -2.6434602404        2.2069921618        0.7668823507
 H          3.2215955327       -2.7243300736       -0.5438703655
 H          3.6518504084       -0.9429012189        2.3526052960
  34
        -71.10514538
 O         -5.1607329545       -1.0339256671        0.0454552978
 O         -4.0522019826        0.8699100097       -0.2831617791
 N         -1.5962987326       -0.7497121124       -0.4863310654
 N         -2.9057797834       -2.5125238463       -0.1834543928
 C         -2.8742801877       -1.1939873090       -0.2742881413
 C         -0.8063757063       -1.8505990078       -0.5246880228
 C         -1.6370247260       -2.9289404873       -0.3398171075
 C         -4.0567729503       -0.3460282659       -0.1724115243
 H          0.2481853193       -1.7752821890       -0.6881195337
 H         -1.3952728536       -3.9712462407       -0.3102841532
 H         -5.9485842652       -0.4568597341        0.1096404050
 P          3.2649478670       -0.3044696127        0.6777652240
 O         -0.2422482625        0.6928694678       -1.6967522138
 O          0.2405463247        3.2635338930        0.0777421773
 O         -1.0782761912        1.6116427271        1.6522546420
 O          2.2609913038       -0.4847268723       -0.5560780737
 O          2.2856382392       -0.5946961605        1.8876119218
 O          4.2421203639       -1.5370756015        0.5939276057
 O          3.9781522913        0.9788253016        0.7106163857
 C          0.7634970108        1.9607400585        0.0590443737
 C          0.9424279094        1.4189991005       -1.3687267538
 C         -0.3080027193        1.0269894662        0.6584906434
 C         -1.1148944384        0.6014040152       -0.5977000385
 C          2.1840422320        0.5385021956       -1.5374972737
 H          1.6996866064        1.8992995453        0.6205990402
 H          1.0175614796        2.2452939744       -2.0855125100
 H          0.1625298728        0.1402088761        1.0924327285
 H         -1.9823795463        1.2610426779       -0.7348924021
 H          2.1318557549        0.0375547051       -2.5060633661
 H          3.0776097808        1.1642484103       -1.4763034967
 H          0.9482232834        3.9164069863       -0.0096147335
 H         -1.1974931716        2.5527924276        1.4322232040
 H          2.6687676811       -0.4885739114        2.7657521543
 H          3.8394268032       -2.4099524650        0.4996466353
  34
        -71.10507492
 O         -2.9638009620       -2.0680588266        2.3986179276
 O         -1.4469608937       -0.5432684789        1.8142155183
 N         -2.7683018339       -0.5327616424       -0.8556985400
 N         -4.4497173022       -1.5257149440        0.1960387878
 C         -3.2068935499       -1.0993473645        0.3137938900
 C         -3.7992389690       -0.6314782911       -1.7346604517
 C         -4.8301714050       -1.2365776453       -1.0625605060
 C         -2.4407815523       -1.1996449955        1.5562477461
 H         -3.7245092814       -0.2702818847       -2.7386409822
 H         -5.8139133638       -1.4781079891       -1.4080657986
 H         -2.4765819252       -2.1080016082        3.2466756569
 P          3.7203600874        0.4833207256        0.0994499712
 O         -0.4847806146       -0.9394049748       -0.8202280052
 O          1.1728491743        2.1628651576       -0.3738791000
 O         -1.2509536633        2.3640261685       -1.4036035226
 O          2.5832080120       -0.2419067595        0.9903749626
 O          3.7617272589        1.9509563279        0.6700185321
 O          5.0671739859       -0.1190932418        0.6376602790
 O          3.5682954487        0.3144555683       -1.3521452805
 C          0.3197173714        1.1317879998        0.0244825619
 C          0.7180051450       -0.2380417730       -0.5628287756
 C         -1.1419305814        1.3320445183       -0.4652607790
 C         -1.4739292811       -0.0019502119       -1.1739733697
 C          1.5840760850       -1.0450715926        0.3990564241
 H          0.3506662732        1.0873732298        1.1143942142
 H          1.2668674304       -0.0771382732       -1.5006665980
 H         -1.8150813632        1.4798201332        0.3835813599
 H         -1.4544657934        0.1884196366       -2.2598991148
 H          0.9578040078       -1.3973742374        1.2224166139
 H          2.0303408430       -1.8921953536       -0.1261469707
 H          0.9573532810        2.4024850537       -1.2930441241
 H         -1.2956759305        3.2198887572       -0.9511775166
 H          2.9814367053        2.4714720159        0.4295635887
 H          5.2299485898        0.0109800614        1.5811016131
  34
        -71.10502940
 O         -5.1632701643       -1.0665482115       -0.0146025781
 O         -4.0678721472        0.8444091098       -0.3431073367
 N         -1.5871953477       -0.7528055658       -0.4487543049
 N         -2.8894821056       -2.5226135306       -0.1512010271
 C         -2.8671067654       -1.2057238118       -0.2659758747
 C         -0.7865395061       -1.8471113443       -0.4442203590
 C         -1.6131323325       -2.9295199798       -0.2637774802
 C         -4.0611887527       -0.3696431959       -0.2124012874
 H          0.2732224184       -1.7718099695       -0.5740250575
 H         -1.3616130642       -3.9684372397       -0.2080464669
 H         -5.9590079586       -0.4974589241        0.0174535227
 P          3.2632468442       -0.3120756548        0.6560434551
 O         -0.2546474108        0.6949173904       -1.6793986602
 O          0.2703000830        3.2795854558        0.0933671909
 O         -1.0937596372        1.6617597226        1.6492319990
 O          2.2537637901       -0.4755012621       -0.5724311280
 O          2.2881713926       -0.4321116666        1.8818741829
 O          4.0581183633       -1.6730920441        0.7082238087
 O          4.0925794712        0.9046533661        0.5732910481
 C          0.7660600824        1.9670189889        0.0683024761
 C          0.9286334801        1.4275379088       -1.3627831582
 C         -0.3178811834        1.0511092751        0.6752169981
 C         -1.1204038999        0.6027099281       -0.5755129455
 C          2.1707717543        0.5522747086       -1.5475091107
 H          1.7040198327        1.8841659050        0.6257920215
 H          0.9902861995        2.2565853685       -2.0779888747
 H          0.1440560682        0.1720639348        1.1332623872
 H         -1.9967919476        1.2494812602       -0.7172056118
 H          2.1115469969        0.0570685732       -2.5184981160
 H          3.0641568457        1.1789409574       -1.4856502002
 H          0.9913971863        3.9190710112        0.0171436135
 H         -1.1923860091        2.6021632060        1.4150842993
 H          2.6954819865       -0.6442869683        2.7296244218
 H          4.8646457748       -1.7137659021        0.1822134173
  34
        -71.10499606
 O         -4.7329870764       -1.0975495885        0.7130716637
 O         -3.7629841054        0.8236979916        0.1292812894
 N         -1.4195061447       -0.6929479751       -0.6681255962
 N         -2.4612415194       -2.5069008362        0.0756379624
 C         -2.5605273665       -1.1991787540       -0.0973587871
 C         -0.5846328168       -1.7377441057       -0.8542162588
 C         -1.2484670022       -2.8494173699       -0.3855559022
 C         -3.7208858712       -0.3941733995        0.2504392713
 H          0.3824803626       -1.6143684540       -1.2929843665
 H         -0.9158030847       -3.8662068372       -0.3580835432
 H         -5.5026332210       -0.5376186798        0.9437570695
 P          2.8164751865       -0.7181925298        0.6468301832
 O         -0.0174409446        0.8070869481       -1.7823640334
 O          0.9556298401        2.9270526773        0.9266593964
 O         -1.5701458526        2.8175512838        0.1371466692
 O          2.4427392610       -0.3194811417       -0.8469448161
 O          3.9134312644       -1.8348339833        0.4289000629
 O          3.6137764521        0.5326633123        1.1718647252
 O          1.6838032234       -1.1820738692        1.4734948691
 C          0.5496344327        1.7383721291        0.3319812445
 C          0.9698119660        1.6140840533       -1.1449282755
 C         -0.9796557024        1.5593004060        0.2679400802
 C         -1.1718219896        0.6939427069       -1.0008036777
 C          2.3560770906        1.0064804365       -1.3473356503
 H          0.9799304158        0.9171305214        0.9096861441
 H          0.9628678571        2.6113167179       -1.6073457402
 H         -1.3554028980        1.0336928946        1.1528225440
 H         -2.0350225245        1.0601981925       -1.5761598747
 H          2.5608969675        0.9194597211       -2.4161054350
 H          3.0943757906        1.6467441521       -0.8627218221
 H          0.2935584606        3.6114507150        0.7230229811
 H         -2.5336895599        2.7175266343        0.1880307009
 H          3.6008276000       -2.7347271377        0.5666001556
 H          3.9025511185        0.4818786838        2.0901633042
  34
        -71.10498512
 O         -2.0017960995       -1.8803127985        2.4028642705
 O         -1.4371960719        0.2210830686        1.9206037687
 N         -1.8722252575       -0.5452856425       -0.9334915477
 N         -3.0536165641       -2.2169224819       -0.0822204219
 C         -2.2425396617       -1.2162660002        0.2027009665
 C         -2.4831716682       -1.1798008537       -1.9671881940
 C         -3.2170820501       -2.2003320658       -1.4190325039
 C         -1.8423551670       -0.8727808913        1.5688634295
 H         -2.3540928182       -0.8632873134       -2.9806518051
 H         -3.8473616905       -2.9164566062       -1.9042142470
 H         -1.7876338498       -1.6410919945        3.3274937801
 P          2.8336636252       -0.7876957328       -0.0759561055
 O          0.2107046786        0.2582238281       -0.3289836611
 O          0.0121656146        3.7976245529       -0.1247696798
 O         -1.8337707242        2.6784267826       -1.6766997467
 O          2.8227207056        0.4393448595        0.9398656388
 O          4.2940380660       -1.3214422230        0.1859005586
 O          1.8529639433       -1.8485362061        0.5905535382
 O          2.6243576430       -0.5260274293       -1.5062053614
 C         -0.3131704619        2.4984068601        0.2494095395
 C          0.8287212619        1.4837334668        0.0136602256
 C         -1.4992617608        1.9013516222       -0.5636237355
 C         -0.9511788801        0.5449277235       -1.0671636775
 C          1.6929041118        1.2412416917        1.2338585456
 H         -0.5652550146        2.5271374602        1.3108126625
 H          1.4635229439        1.8136061516       -0.8230981905
 H         -2.3636789556        1.7328707744        0.0865627213
 H         -0.7130045449        0.6547935803       -2.1380290852
 H          2.0856751939        2.1868861226        1.6123481580
 H          1.0814197416        0.7442749861        1.9922510036
 H          0.0673701831        3.8491931552       -1.0940952607
 H         -2.3166433155        3.4689844207       -1.3897438592
 H          4.5485322255       -1.4412007294        1.1099630380
 H          1.6808668051       -2.6104495086        0.0289814161
  34
        -71.10496138
 O         -2.5579063204       -0.2483275869       -1.8883649071
 O         -1.1155855657       -1.9149700923       -2.1908913679
 N         -1.6038077191       -0.3510176487        0.8697924664
 N         -2.1108926063       -2.4953055593        0.6472929174
 C         -1.8286741783       -1.3817230408        0.0095603144
 C         -1.7375752803       -0.8618569103        2.1240697983
 C         -2.0688394377       -2.1786215813        1.9637592811
 C         -1.7856024909       -1.2175185973       -1.4512789167
 H         -1.5979304730       -0.2597553354        2.9967321248
 H         -2.2813728526       -2.9187163144        2.7070226277
 H         -2.5304312004       -0.1544912038       -2.8641558093
 P          1.9748103611       -0.8972541513       -0.4452415001
 O         -0.3344117509        0.8730381735       -0.6503220875
 O          0.0119937569        3.8214812016        0.8808288647
 O         -0.8263429245        2.1151028461        2.6764796486
 O          2.4794042523        0.6190039987       -0.4987038555
 O          1.4854491980       -1.1944840918       -1.9123453103
 O          3.3898293419       -1.5992126958       -0.3520235402
 O          1.0920454144       -1.2677983789        0.6753866270
 C          0.6296954831        2.5686942827        0.7456350163
 C          0.5145259140        2.0205664022       -0.6969303789
 C         -0.1792930812        1.5545656933        1.5857918355
 C         -1.1235620971        0.9529508174        0.5184471229
 C          1.8448978635        1.5935027307       -1.3072241736
 H          1.6719875533        2.5902635249        1.0711401393
 H          0.0418880130        2.7818538520       -1.3330918712
 H          0.4726488409        0.7487226612        1.9375068592
 H         -1.9807873801        1.6280892390        0.3437939127
 H          1.6664359027        1.1824891094       -2.3030901506
 H          2.5393198555        2.4330979490       -1.3596236569
 H          0.6407508874        4.5381161415        0.7198488235
 H         -1.0294504396        3.0455718870        2.4643737787
 H          0.6637598703       -1.7079550969       -2.0044504769
 H          3.4580464608       -2.2410696438        0.3616027586
  34
        -71.10493175
 O         -5.1225228618       -1.1920918307        0.2638838083
 O         -4.2037844058        0.7127833884       -0.4439797274
 N         -1.6403902351       -0.6939746971       -0.5690526747
 N         -2.7496206119       -2.5123908575        0.0509691001
 C         -2.8528340656       -1.2203299380       -0.2051680047
 C         -0.7506744352       -1.7154381325       -0.5290578370
 C         -1.4590008326       -2.8302241740       -0.1487084078
 C         -4.0997366617       -0.4653298663       -0.1438960184
 H          0.2787144409       -1.5771874739       -0.7859752792
 H         -1.1153826480       -3.8343956254       -0.0112974200
 H         -5.9550429629       -0.6775866048        0.2909508112
 P          3.2683456558       -0.3693839992        0.6470162546
 O         -0.1869678586        0.7290123781       -1.6941326530
 O          1.0570921687        2.4619860155        1.1836374902
 O         -1.4395223495        2.8045744603        0.2360489394
 O          2.4925144494       -0.4057048580       -0.7648612391
 O          2.4280427804       -1.3183606105        1.5658853402
 O          4.5878073313       -1.1989549530        0.4087921399
 O          3.4550192525        1.0014722027        1.1542903191
 C          0.5308885154        1.3983066688        0.4529122052
 C          0.8764707640        1.4265316466       -1.0469696897
 C         -1.0050610368        1.4892322376        0.3997786080
 C         -1.3264988171        0.6853005795       -0.8770994430
 C          2.2231784254        0.8174581289       -1.4304016772
 H          0.8152789559        0.4319945499        0.8885416526
 H          0.8652456698        2.4726917482       -1.3850303894
 H         -1.4778618713        1.0320311265        1.2806475377
 H         -2.1852340489        1.1345140677       -1.3908962301
 H          2.2129716683        0.5886968934       -2.4971220036
 H          3.0036684939        1.5439660768       -1.1979862082
 H          1.9895695268        2.2618449035        1.3839617948
 H         -0.9156358450        3.3703163722        0.8292342863
 H          2.6997046478       -2.2445605101        1.5557509372
 H          5.3589595936       -0.7155285448        0.0921678487
  34
        -71.10492494
 O         -3.4257961918        0.6035908239       -1.3699332796
 O         -4.8018290624       -1.0739459618       -0.8953460984
 N         -1.3488324672       -0.6758425398        0.1783752294
 N         -2.7448472663       -2.3695587319        0.5024556730
 C         -2.6074521180       -1.1769781863       -0.0529446917
 C         -0.6950726953       -1.6044505808        0.9183415784
 C         -1.5726462000       -2.6461145612        1.0968016488
 C         -3.7039685922       -0.5626451711       -0.7917301871
 H          0.3246337587       -1.4798294771        1.2176536836
 H         -1.4235511236       -3.5682339985        1.6194763567
 H         -4.2049776349        0.9456117482       -1.8548509208
 P          3.0101440591       -0.9564062145       -0.1350709814
 O          0.5603079906        0.5033215485       -0.4548721146
 O         -0.4047642209        3.6460751993       -0.1282174424
 O         -2.1333890580        2.1905205056        1.2092610569
 O          3.2807439278        0.6164321415       -0.3696110138
 O          2.1777196080       -1.5190517547       -1.3335489925
 O          4.4440575636       -1.5538149212       -0.4368136915
 O          2.4647442556       -1.2492417990        1.1990244417
 C          0.2132527518        2.6280579964        0.6107689565
 C          1.1719435454        1.7764239288       -0.2540487877
 C         -0.8866067671        1.6200668565        1.0164402314
 C         -0.8144973886        0.6091732460       -0.1618363852
 C          2.5324502915        1.5378647063        0.3958057426
 H          0.7230416240        3.0257381487        1.4919105835
 H          1.3039497760        2.2487879877       -1.2370066379
 H         -0.6101098578        1.0923214932        1.9355164876
 H         -1.3646928837        1.0070487581       -1.0250557764
 H          3.1197227425        2.4557373101        0.4330045759
 H          2.3827665983        1.1261715041        1.3985373436
 H          0.1335191590        4.4495378694       -0.1301154904
 H         -2.2002473638        2.9710382441        0.6277373805
 H          2.6077805848       -1.4478745403       -2.1951568984
 H          5.0969186096       -1.4578795725        0.2639766870
  34
        -71.10490525
 O         -1.5190471457       -0.7939450672       -2.0285599606
 O         -2.5155861702       -2.7177789315       -1.5383857538
 N         -1.4219386619       -0.1293682942        0.7563965438
 N         -2.0506804747       -2.2131930613        1.2006060167
 C         -1.8452142608       -1.3309736900        0.2442045489
 C         -1.3310040340       -0.3113372880        2.1022298714
 C         -1.7289873189       -1.5977298383        2.3533313204
 C         -1.9973757059       -1.6856622947       -1.1639217310
 H         -1.0078262733        0.4530627599        2.7757621806
 H         -1.8014284858       -2.1125113912        3.2890559144
 H         -1.6558706956       -1.1067421037       -2.9464276793
 P          2.0079755277       -1.1073573215       -0.7746671315
 O          0.1843530474        1.0712416937       -0.5052937936
 O          0.5638034149        3.9675478694        1.2980250383
 O         -1.6888594229        3.3865798160        0.0352128799
 O          2.7388089098        0.0400050218        0.0935600449
 O          1.6827525675       -0.4862891396       -2.1954278806
 O          3.2079085443       -2.0548191234       -1.1139015603
 O          0.9128614013       -1.7817629225       -0.0647941213
 C          0.2299964707        2.6178965655        1.3301144384
 C          1.0810041872        1.7572540475        0.3647313531
 C         -1.2363849166        2.3538146345        0.8687925038
 C         -1.1208845114        1.0782985936        0.0158467442
 C          1.9849637382        0.7418995150        1.0627463905
 H          0.3840186164        2.2942878126        2.3617918761
 H          1.7067749351        2.3946632503       -0.2700713669
 H         -1.9164844605        2.2032530562        1.7091768386
 H         -1.8009917325        1.1334723200       -0.8403300968
 H          2.7060804100        1.2407144975        1.7113675847
 H          1.3803889641        0.0259283544        1.6282784586
 H          0.2692057370        4.3435845647        0.4495467291
 H         -2.1026613974        4.0858395263        0.5624654457
 H          0.9067894129        0.0867464759       -2.1928884321
 H          3.9303312323       -1.6505718534       -1.6116509414
  34
        -71.10481089
 O         -4.8020491031       -1.3697851972       -0.6437375440
 O         -3.7659954444        0.5634734202       -1.0527101621
 N         -1.3320876539       -0.6190348339        0.0075126694
 N         -2.5955175888       -2.3013654484        0.7184477992
 C         -2.5837374403       -1.1837707122        0.0132037717
 C         -0.5443695561       -1.4223336433        0.7580951174
 C         -1.3441313106       -2.4600090250        1.1801037030
 C         -3.7511655270       -0.5787005718       -0.6128906862
 H          0.4932961003       -1.2213731832        0.9156372073
 H         -1.0848980762       -3.2990416143        1.7917974953
 H         -5.5843874965       -0.9370562412       -1.0424805951
 P          3.1680199259       -0.9658611880       -0.1171590108
 O          0.4043428193        0.6786123095       -0.9138111478
 O          0.1606592752        3.4551351295        1.3573997124
 O         -1.7469083743        2.9383674557       -0.4710713109
 O          2.4883253395        0.1962355215        0.7492968395
 O          3.5314455522       -2.0085392025        1.0053465258
 O          2.0141603013       -1.7026771023       -0.8898390527
 O          4.2741998017       -0.4904967886       -0.9700998085
 C          0.0395162943        2.1540766858        0.8914711766
 C          0.9897025114        1.8064932777       -0.2738450442
 C         -1.3281385602        1.8257422147        0.2622786528
 C         -0.9732005429        0.6207615234       -0.6435655084
 C          2.4148451531        1.4877580255        0.1706866726
 H          0.2401268657        1.4847919579        1.7341301700
 H          1.0160691909        2.6519212219       -0.9759985792
 H         -2.0759816980        1.5399825907        1.0109552319
 H         -1.5264742110        0.6745082128       -1.5905792149
 H          3.1041026853        1.5315142953       -0.6756354645
 H          2.7118390373        2.2093627867        0.9354963321
 H         -0.3031925205        4.0482233615        0.7418705878
 H         -2.6249604190        2.7669938131       -0.8432872181
 H          4.3427495098       -1.8319590898        1.4939318758
 H          2.2859268192       -2.0447030719       -1.7478432744
  34
        -71.10479827
 O         -0.2276354184       -1.2714483660        1.3167350673
 O         -0.0467080716       -2.1103359653       -0.7409903648
 N         -2.5012842782        0.1260773754       -0.1777001091
 N         -3.1456698817       -1.9860553945       -0.0711720190
 C         -2.1191636478       -1.1713556793       -0.0383456195
 C         -3.8611764827        0.1172654712       -0.3057024083
 C         -4.2382089715       -1.1911481847       -0.2266950422
 C         -0.6942355551       -1.5609494644        0.1271594793
 H         -4.4229523048        1.0180040337       -0.4293066758
 H         -5.2167359892       -1.6214275414       -0.2726159637
 H          0.7384528903       -1.5362516236        1.3858644438
 P          2.8482924627       -1.2528343622       -0.3668808188
 O         -0.3817766273        0.8712438301       -0.7233745768
 O         -0.4234363206        3.9643367333        0.3245124267
 O         -2.3719095731        2.7395308235        1.6030814343
 O          2.2916516830        0.1899191325       -0.8141721115
 O          2.5615694583       -2.1718801521       -1.5983303652
 O          4.4122866094       -1.1236695044       -0.3729287338
 O          2.3638503665       -1.6637955753        0.9678416603
 C         -0.0471077624        2.6979967001        0.7946548608
 C          0.5983444039        1.8274525651       -0.3118500997
 C         -1.3497180816        1.9347682218        1.1290893763
 C         -1.6428335845        1.2689374568       -0.2409491898
 C          1.8626266142        1.1137401112        0.1716300703
 H          0.6027723118        2.7712083737        1.6698097702
 H          0.8399194132        2.4428237498       -1.1879069154
 H         -1.1645743805        1.1462284418        1.8653972017
 H         -2.1067074343        2.0097150621       -0.9136948696
 H          2.6565798713        1.8486090297        0.3293921459
 H          1.6659420929        0.5820844480        1.1059660605
 H          0.3071379260        4.5938077565        0.3974644452
 H         -2.2779566489        3.6216280726        1.1977284150
 H          1.6270025661       -2.4146020987       -1.6753621152
 H          4.8189813429       -0.9889768754       -1.2386283911
  34
        -71.10479601
 O         -4.8958685840       -1.1853910308       -0.4717927272
 O         -3.5452285961        0.2297621483       -1.5426420910
 N         -1.3789795320       -0.6907487138        0.2077093844
 N         -2.8308421276       -2.1726807165        0.9988622181
 C         -2.6719595782       -1.1504999790        0.1762731547
 C         -0.7161319005       -1.4699070086        1.0951557797
 C         -1.6311671533       -2.3824300459        1.5660658843
 C         -3.7204531520       -0.6256352333       -0.6904806108
 H          0.3332590188       -1.3673706216        1.2752160414
 H         -1.4871252123       -3.1686554675        2.2777891264
 H         -5.5852019346       -0.8412061079       -1.0754310347
 P          3.0921165637       -0.8952403012       -0.3418435765
 O          0.5470460271        0.4533504869       -0.4632611849
 O         -0.0815712207        3.5086087000        1.3080110842
 O         -1.5417535710        2.7387292082       -0.7932636894
 O          3.2499417547        0.6873813088       -0.0691303209
 O          2.4078536899       -1.1124496543       -1.7306971839
 O          4.5908838225       -1.2909197770       -0.6591704713
 O          2.4662092014       -1.6066428616        0.7825016231
 C         -0.0837891119        2.1386203897        1.0549448952
 C          1.0512207415        1.6425675032        0.1394580395
 C         -1.3101332337        1.7789219905        0.1906116344
 C         -0.8579245533        0.4665475761       -0.4867911466
 C          2.3573324716        1.2969658312        0.8412224533
 H         -0.1032727994        1.5430801556        1.9762209284
 H          1.2329235408        2.3894970507       -0.6468570755
 H         -2.2125293181        1.6168049774        0.7967666013
 H         -1.2245998161        0.4475354536       -1.5215619385
 H          2.8578552604        2.1961741648        1.2015879590
 H          2.1586253474        0.6004253821        1.6617317466
 H          0.5443493149        3.7309537107        2.0105105278
 H         -1.4935514040        3.6173224521       -0.3781376808
 H          2.8899938078       -0.7476568840       -2.4834659568
 H          5.1751881766       -1.3668521288        0.1021655829
  34
        -71.10477481
 O         -4.9368945273       -1.1567871257       -0.3498887245
 O         -3.7580050061        0.6507785003       -0.9122509926
 N         -1.3755471050       -0.7163502665        0.0563497456
 N         -2.7394900701       -2.2771695900        0.8555541627
 C         -2.6723009704       -1.1624287745        0.1490057092
 C         -0.6157943738       -1.5963137863        0.7484749371
 C         -1.4802138134       -2.5544888923        1.2292265656
 C         -3.8185771162       -0.4693178184       -0.4216465457
 H          0.4467874103       -1.5056538356        0.8364025998
 H         -1.2540419602       -3.4159809138        1.8224659459
 H         -5.7031231630       -0.6674349907       -0.7135988874
 P          3.1175410233       -1.0054578203       -0.0137986441
 O          0.4341448283        0.4666886741       -0.8591290036
 O          0.2316063345        3.5233281960        1.0235084447
 O         -1.7878586328        2.7866075116       -0.5609342501
 O          2.5808328953        0.3060343700        0.7023810868
 O          2.8320561404       -0.8889654647       -1.5692478795
 O          4.6800689959       -0.7805439820        0.0332136801
 O          2.6253025829       -2.2286268593        0.6378899809
 C          0.1168386108        2.1740413410        0.7235491355
 C          1.0057360757        1.7053151886       -0.4466769157
 C         -1.2766758993        1.7497336999        0.2219789345
 C         -0.9534420332        0.4859751079       -0.6202874519
 C          2.4670810453        1.5049564759       -0.0507379577
 H          0.3880413457        1.6088387504        1.6213833112
 H          0.9405271830        2.4342922718       -1.2656886393
 H         -1.9573913201        1.5003999097        1.0443464830
 H         -1.4888061519        0.5390777348       -1.5801078518
 H          3.1037742254        1.4523209121       -0.9338255953
 H          2.7779407713        2.3295643840        0.5935023171
 H         -0.3114479502        4.0264491652        0.3920283147
 H         -2.6762877258        2.5432646020       -0.8671695202
 H          1.9709537424       -1.2064559171       -1.8552578029
 H          5.2151164983       -1.5547438135       -0.1721693739
  34
        -71.10476393
 O         -5.0843651279       -0.9485526641        0.5275817510
 O         -3.9878607672        0.8990397020       -0.0730000542
 N         -1.6184762626       -0.7304828134       -0.4592386094
 N         -2.7639621953       -2.4233553154        0.4080963110
 C         -2.8267178207       -1.1568877621        0.0326101218
 C         -0.7748892834       -1.7838070232       -0.3780807680
 C         -1.5052621952       -2.8197628156        0.1603841348
 C         -4.0010252179       -0.3048114688        0.1484950328
 H          0.2466485220       -1.7220122722       -0.6897267347
 H         -1.1858267042       -3.8169791066        0.3817608061
 H         -5.8587002767       -0.3563530880        0.6186909962
 P          3.3230936169       -0.7503712969        0.5336105308
 O         -0.1538009716        0.5913160520       -1.7215757357
 O          0.8544292020        2.9038901919        0.8235789447
 O         -1.6367840589        2.8669290932       -0.1103345645
 O          2.2329216465       -0.4653943402       -0.5817851496
 O          4.7369736586       -0.5743950159       -0.1720773747
 O          3.2342940570        0.5187828459        1.4625903388
 O          3.1035505401       -2.0588918304        1.1641072361
 C          0.3991039510        1.6988289615        0.3066014692
 C          0.8425847672        1.4350966655       -1.1469632974
 C         -1.1363119314        1.6011174710        0.2017431448
 C         -1.3265525495        0.5964446212       -0.9596896572
 C          2.2143750345        0.7792165112       -1.2772029100
 H          0.7785160000        0.9002531607        0.9524964240
 H          0.8615499721        2.3852775561       -1.6987287583
 H         -1.5849232171        1.2145242731        1.1238805688
 H         -2.1679955956        0.9052661127       -1.5957073786
 H          2.4088739687        0.5645712688       -2.3297755396
 H          2.9724029719        1.4515362053       -0.8754809716
 H          0.2634747788        3.6126433975        0.5138688201
 H         -2.6056718766        2.8356438655       -0.1086011555
 H          5.1529082888       -1.4001422063       -0.4407117098
 H          3.8245785519        0.5190683403        2.2236406635
  34
        -71.10475620
 O         -2.2116348596       -0.6053612456       -2.1254344363
 O         -0.3969526637       -1.8559112608       -1.8192093349
 N         -1.8669616313       -0.2796226826        0.8647662372
 N         -2.2327114600       -2.4464125346        0.6243332285
 C         -1.8006094033       -1.3543271797        0.0381156609
 C         -2.3566640152       -0.7386486314        2.0545736579
 C         -2.5853030014       -2.0718961733        1.8818325044
 C         -1.3721864022       -1.2850925546       -1.3775596968
 H         -2.5018687679       -0.0879039169        2.8903703272
 H         -2.9821946907       -2.7893881710        2.5694706132
 H         -1.9543660489       -0.5900975222       -3.0711000460
 P          1.9391858074       -0.8009813561       -0.5297175657
 O         -0.7516205952        1.1039653143       -0.6219791859
 O          1.2052579074        3.3448880226        1.2641533775
 O         -0.8772766298        2.3908471811        2.5620099321
 O          1.5424654828        0.1872381316       -1.7327952082
 O          2.2771515832       -2.1161262879       -1.3148926894
 O          3.3614847918       -0.3042709998       -0.0411592035
 O          1.0078451631       -0.9014018007        0.6035102318
 C          0.8600692361        2.0553071557        0.8639054119
 C          0.3384096310        2.0119141072       -0.5895923427
 C         -0.3030709323        1.4519217017        1.6985369573
 C         -1.3562564254        1.0464167485        0.6406359284
 C          1.3846279009        1.5896771570       -1.6227196138
 H          1.7556144284        1.4389580741        0.9660502986
 H         -0.0202968167        3.0192998381       -0.8529199296
 H          0.0385346243        0.5562021291        2.2245966954
 H         -2.1955397056        1.7635219176        0.6976505719
 H          1.0753208707        1.9022726643       -2.6219965169
 H          2.3345301622        2.0649745753       -1.3593710449
 H          0.3958689282        3.8180185371        1.5306237232
 H         -0.3138808673        2.5056200065        3.3424771531
 H          1.4836314761       -2.5469819850       -1.6588558367
 H          4.0985798425       -0.5392670150       -0.6195195015
  34
        -71.10471650
 O         -2.3073064437       -0.0127705437       -1.9027479669
 O         -1.8823051247       -2.1549901887       -2.3213921719
 N         -1.5139888140       -0.4054811445        0.8015506895
 N         -2.1170809577       -2.5250299092        0.5536773287
 C         -1.8432192648       -1.4003123032       -0.0781992269
 C         -1.5850190407       -0.9526831451        2.0412664623
 C         -1.9693658186       -2.2561982560        1.8665241368
 C         -1.9845103511       -1.2444464257       -1.5255318351
 H         -1.3897700413       -0.3872545754        2.9272491632
 H         -2.1505198679       -3.0112556557        2.6032649607
 H         -2.4268625395        0.0402582950       -2.8729003839
 P          1.9365813853       -0.8420717086       -0.3605796746
 O         -0.1445611298        0.8296436438       -0.6147434880
 O          0.2329818201        3.8313383368        0.9522793762
 O         -0.9749633816        2.1956981045        2.5779227307
 O          2.5906438031        0.6095162758       -0.6216129285
 O          1.1272530998       -1.2566577579       -1.6436689905
 O          3.2429307283       -1.7345250468       -0.4962835784
 O          1.2879499700       -0.9996331670        0.9500151820
 C          0.7267640613        2.5240993130        0.8255993048
 C          0.6229265781        2.0233883927       -0.6353116403
 C         -0.2054124674        1.5637083056        1.6110484820
 C         -1.0322692996        0.9061240782        0.4777341111
 C          1.9450444888        1.6680369685       -1.3020191048
 H          1.7506897701        2.4332714453        1.1919052510
 H          0.0956952493        2.7875864249       -1.2252117617
 H          0.3901871397        0.7806045304        2.0873512460
 H         -1.8876435094        1.5529182669        0.2120067523
 H          1.7401200636        1.3717383038       -2.3335369533
 H          2.6442042430        2.5047969339       -1.2775809218
 H          0.9515828354        4.4741661890        1.0184638669
 H         -1.0812924451        3.1304493688        2.3162580201
 H          1.6734480170       -1.7202798774       -2.2920511647
 H          3.7319888382       -1.8563015324        0.3230455155
  34
        -71.10470196
 O         -3.8886405356       -2.2711603361       -1.0230826357
 O         -3.2480874078       -0.2395966615       -1.6693537213
 N         -1.2099040580       -0.3520371659        0.4675208193
 N         -2.2096374333       -2.2339105512        1.0970582773
 C         -2.1970659871       -1.2679420199        0.1969233141
 C         -0.5784148830       -0.7982281211        1.5803633212
 C         -1.2123255339       -1.9580473104        1.9528461359
 C         -3.1391009765       -1.1945671725       -0.9123572307
 H          0.2741785325       -0.3095710600        1.9992353713
 H         -1.0057904009       -2.5988307251        2.7848847309
 H         -4.5251732013       -2.2053091915       -1.7644542514
 P          2.3201410025       -1.0924154193       -0.4565403447
 O          0.4506266221        0.8634806252       -0.7085066556
 O          0.5017550760        3.7562171313        1.4092761528
 O         -1.5100777155        3.2087705478       -0.2299966203
 O          2.5089089220        0.0442369110        0.6690006365
 O          2.7017779603       -0.3956562166       -1.8296674252
 O          3.5459289759       -2.0378307915       -0.1341886318
 O          1.0817350649       -1.8775505513       -0.4378114521
 C          0.2934902534        2.4236088444        1.0814839471
 C          1.1670986516        1.9266578662       -0.0902929284
 C         -1.1249536372        2.1172122227        0.5551188445
 C         -0.8959231532        0.8403905281       -0.2874078347
 C          2.5540503545        1.4174173559        0.3194316857
 H          0.5032728902        1.8425276404        1.9831891318
 H          1.2769919269        2.7450709459       -0.8142859251
 H         -1.8392341104        1.9284121719        1.3641985042
 H         -1.5330589786        0.8298565119       -1.1797816214
 H          3.2537685254        1.5613098077       -0.5049544940
 H          2.9013281292        1.9485539112        1.2074962501
 H          0.0245545018        4.3117063497        0.7686460263
 H         -2.4264516892        3.1193537397       -0.5251518854
 H          2.0257044381       -0.4891615912       -2.5071712718
 H          4.4275471194       -1.6443802673       -0.1404612193
  34
        -71.10467615
 O         -5.7153488896       -0.3391375772       -0.5658069956
 O         -3.9062369188        0.6773030020       -1.3766746487
 N         -2.2984281113       -1.1013640817        0.3372487896
 N         -4.2173855118       -2.0546605415        0.9024285179
 C         -3.6614068380       -1.0920389205        0.1903531104
 C         -2.0085416719       -2.1243029061        1.1808220819
 C         -3.2089252373       -2.7019239934        1.5136118045
 C         -4.4127128211       -0.1656228884       -0.6539309307
 H         -1.0007973669       -2.3631399287        1.4477946962
 H         -3.4008164055       -3.5380555808        2.1535845272
 H         -6.2123209129        0.2774361594       -1.1413195150
 P          4.0865234417        0.5822730607        0.0008099540
 O         -0.2536132750       -0.9723912894       -0.7246158204
 O          1.1450646430        2.1575297509        0.0515488130
 O         -1.3668528677        2.0027032195        0.7193307811
 O          3.2695395644       -0.2194143464       -1.1419357974
 O          5.5800922266        0.3538062303       -0.4006472792
 O          3.8771496469        2.1119687400       -0.3213214383
 O          3.7615599032        0.1327073620        1.3630292193
 C          0.7724066852        0.8554027818        0.3964122639
 C          0.8780161811       -0.1248611168       -0.7970122250
 C         -0.7248590115        0.7665654720        0.8177024479
 C         -1.3279616923       -0.2100463264       -0.2252085666
 C          2.1397704374       -0.9848386254       -0.7879997499
 H          1.4294655597        0.5319710363        1.2079167416
 H          0.8524329831        0.4570050387       -1.7314551299
 H         -0.8205843873        0.3327119275        1.8172165421
 H         -1.8128001277        0.3783931993       -1.0180725741
 H          2.2830685153       -1.4237780677        0.2032373127
 H          2.0436326566       -1.7749553827       -1.5351334550
 H          0.3393327775        2.6452814643       -0.2114684660
 H         -1.3047582019        2.4870931722        1.5561040375
 H          5.8264319274        0.6804075404       -1.2758813556
 H          2.9750199124        2.4353852938       -0.1543591708
  34
        -71.10466745
 O         -4.7764076281       -1.2287048229        0.4977111960
 O         -3.6307836753        0.6801545959        0.5810862498
 N         -1.4559274235       -0.6951235198       -0.8162913923
 N         -2.5903152890       -2.5692430154       -0.4437903968
 C         -2.6063148526       -1.2534198773       -0.3159565186
 C         -0.7060030154       -1.7221600693       -1.2773677439
 C         -1.4228943692       -2.8706168159       -1.0333305551
 C         -3.6992736942       -0.5080614434        0.2875124955
 H          0.2469315167       -1.5639780087       -1.7329626487
 H         -1.1610380830       -3.8853610240       -1.2508765219
 H         -5.4954847114       -0.7174673864        0.9232764699
 P          2.9817632444       -0.4226055176        0.8961060428
 O         -0.1612858998        0.8991221442       -1.9088331611
 O          0.4585843671        3.4098082769       -0.1410627187
 O         -1.3228221653        2.0760079807        1.1693761304
 O          2.0711970504       -0.5223526553       -0.4162063041
 O          1.8848714262       -0.3406497071        2.0411510068
 O          3.6373473748       -1.8478619907        1.0294869011
 O          3.9722302887        0.6599801312        0.8791663299
 C          0.7431275651        2.0452161212       -0.0354205269
 C          1.0499464792        1.4746602540       -1.4228106644
 C         -0.4874496035        1.2349033315        0.4336798407
 C         -1.1013996152        0.7102292104       -0.8906752765
 C          2.2071868634        0.4730346304       -1.4216875786
 H          1.5962594816        1.8947597461        0.6400913214
 H          1.3063038433        2.2906585537       -2.1062312932
 H         -0.1611252927        0.3786378426        1.0395722372
 H         -2.0151557761        1.2739479363       -1.1309031024
 H          2.2348105630       -0.0456577676       -2.3822384184
 H          3.1409917231        1.0173195318       -1.2614496739
 H         -0.2278558116        3.6219225162        0.5175008534
 H         -2.2343878733        1.7270700581        1.1645588629
 H          2.2356754680       -0.1582975755        2.9206914874
 H          3.0481322476       -2.6131967564        1.0315364050
  34
        -71.10464540
 O         -2.2175166177       -2.8450891139       -1.3408021044
 O         -2.3307610617       -0.7022280538       -1.9291887397
 N         -1.2538098821       -0.0687983624        0.7463163081
 N         -1.7460071404       -2.1727853812        1.2531199176
 C         -1.6919644372       -1.2828709430        0.2863679463
 C         -1.0050540444       -0.2407033281        2.0751428772
 C         -1.3237046508       -1.5385112501        2.3672148926
 C         -2.0837894076       -1.5602400451       -1.0983103482
 H         -0.6511310214        0.5447163457        2.7061052384
 H         -1.2811665183       -2.0508427209        3.3060348001
 H         -2.4979548838       -3.0154025204       -2.2630208286
 P          1.7374352257       -1.1269028489       -0.7978148970
 O          0.3275815754        1.1116432075       -0.5846165326
 O          0.7113864958        4.0084511418        1.1583588456
 O         -1.5158451974        3.4713238826       -0.1086834896
 O          1.6777299677       -0.6003124925        0.7070461347
 O          2.5418812659       -0.0316999915       -1.5907568367
 O          2.8075786322       -2.3045806294       -0.6811329194
 O          0.4730969672       -1.6193326111       -1.3726206464
 C          0.3437439933        2.6661515150        1.2320088944
 C          1.2145203026        1.7676527063        0.3138227090
 C         -1.1048756558        2.4193004015        0.7146544223
 C         -0.9829078773        1.0986330521       -0.0622654099
 C          2.0773869851        0.7142426015        1.0545987504
 H          0.4470152692        2.3568309988        2.2772190836
 H          1.8664925405        2.3985220447       -0.2980060618
 H         -1.8350181510        2.3643933510        1.5232901803
 H         -1.6594253282        1.0500710707       -0.9227699706
 H          3.1297990044        0.8523237250        0.8026142456
 H          1.9488919931        0.7708728526        2.1369348832
 H          0.0068315461        4.4961953409        0.6885056146
 H         -1.0990392545        3.3968017651       -0.9812843737
 H          2.4996162175       -0.1375780140       -2.5478329098
 H          2.4295082159       -3.1812509794       -0.5663066362
  34
        -71.10461774
 O         -0.3245137137       -2.1801299012        1.1823034871
 O         -0.3732105525       -2.0975631587       -1.0493746525
 N         -2.4267928989        0.0355048656       -0.1024819005
 N         -3.3554923829       -1.8974677882        0.4331446633
 C         -2.2303724085       -1.2845238459        0.1599994781
 C         -3.7705705343        0.2594293840        0.0259048102
 C         -4.3225837208       -0.9444397742        0.3506298939
 C         -0.8801619210       -1.8954353196        0.0390609747
 H         -4.1938736376        1.2299901342       -0.1237521533
 H         -5.3466672779       -1.1973657268        0.5294233932
 H          0.6284365891       -2.4434848813        1.0691163685
 P          2.7531256097       -1.0658789858       -0.5649686316
 O         -0.1482482436        0.5065313110       -0.1920429676
 O          0.2992506932        3.8101290732        0.9100694697
 O         -2.1203121578        3.3688093434        0.0205861143
 O          2.8680924611        0.4742517590       -0.1226107966
 O          1.9647445557       -1.0830613768       -1.9298927942
 O          4.2313009566       -1.3783488193       -0.9720857882
 O          2.2435570034       -1.9455507146        0.5024390618
 C         -0.0992500968        2.4864537222        1.1004127443
 C          0.7209872448        1.5686685360        0.1741248227
 C         -1.5646987307        2.2490291086        0.6297404147
 C         -1.4386093327        1.0478256820       -0.3581788845
 C          1.9768756136        1.0142446556        0.8314352333
 H          0.0233033270        2.1602112307        2.1367791352
 H          1.0079325012        2.1377866070       -0.7223354489
 H         -2.2111351149        1.9622759491        1.4657330686
 H         -1.5696986421        1.4244302213       -1.3878439002
 H          2.5183791024        1.8272754367        1.3189295987
 H          1.7005082850        0.2410445556        1.5539171651
 H          0.0869652406        4.3472359506        1.6882664457
 H         -1.3996850538        3.9934560871       -0.1925270997
 H          1.0911769542       -1.5052808843       -1.8569658874
 H          4.5847078155       -0.8538741914       -1.7015245966
  34
        -71.10454832
 O         -2.4686866504        0.0915575114       -1.8144792526
 O         -2.1310057077       -2.0238540873       -2.4086726863
 N         -1.4576184819       -0.5095780579        0.7920546850
 N         -2.0615459549       -2.6130251550        0.4151445250
 C         -1.8679439300       -1.4316994425       -0.1358326554
 C         -1.3920235232       -1.1705040809        1.9753378296
 C         -1.7783731256       -2.4608284045        1.7236331412
 C         -2.1424958585       -1.1678543414       -1.5485787244
 H         -1.1044966561       -0.7065116944        2.8926807502
 H         -1.8725685186       -3.2815260619        2.4042614456
 H         -2.6728038737        0.2112416567       -2.7644532103
 P          1.9486654052       -0.7602093126       -0.2767270157
 O         -0.1633448564        0.7915133695       -0.6116251053
 O          0.7979695985        3.7221514790        1.1078973739
 O         -1.2227209179        2.4585689778        2.2293590771
 O          2.5589392402        0.5853645670       -0.9142561206
 O          1.0098509655       -1.4639679978       -1.3253580948
 O          3.2559064857       -1.6525198768       -0.3809078977
 O          1.4471462254       -0.6534288048        1.1031206217
 C          0.8215198580        2.3497828441        0.8751052358
 C          0.5923034750        1.9869073279       -0.6092702872
 C         -0.3147031670        1.5853282742        1.6197870959
 C         -1.0462803092        0.8335251146        0.4892425447
 C          1.8569083365        1.7107761411       -1.4048944730
 H          1.7971985193        1.9806955622        1.1986617803
 H          0.0237356912        2.7947713656       -1.0930632849
 H          0.1262405484        0.8779428656        2.3221456357
 H         -1.9392124275        1.4247629904        0.2167183205
 H          1.5873689322        1.5302738240       -2.4491524514
 H          2.5438307117        2.5563925205       -1.3291295643
 H         -0.1292019088        4.0077441065        1.1989591288
 H         -0.8715840656        2.7608163666        3.0804719428
 H          1.5046878405       -1.9526501675       -1.9952864066
 H          3.8849577894       -1.5389811299        0.3382127556
  34
        -71.10453784
 O         -2.1041028266       -0.5751497624       -2.0407145060
 O         -1.8042285259       -2.7564207401       -1.7500377815
 N         -1.4488637074       -0.1641655649        0.7423593815
 N         -1.8777004353       -2.3222623868        1.0489673449
 C         -1.7454115058       -1.3669966344        0.1514313320
 C         -1.3538740938       -0.4198958397        2.0749260296
 C         -1.6412505041       -1.7478065094        2.2434162504
 C         -1.8731821212       -1.6389363010       -1.2803450547
 H         -1.1076310627        0.3286754045        2.7966397474
 H         -1.6907621376       -2.3202959606        3.1465569828
 H         -2.2015175205       -0.8253676160       -2.9821597326
 P          1.8995903393       -1.0944816076       -0.6916113119
 O          0.1732502235        1.0378975412       -0.4605000788
 O          0.4670305209        3.9091870171        1.5563104430
 O         -1.6810749474        3.3825860986        0.1588840888
 O          2.7114961566        0.2610485411       -0.3522828736
 O          1.1113379388       -0.9028413317       -2.0312092497
 O          3.0883595437       -2.0254066893       -1.1802433637
 O          1.1323106291       -1.6042838872        0.4523387012
 C          0.2443756534        2.5405249751        1.3998037732
 C          1.0562337213        1.8958776883        0.2546195694
 C         -1.2188390189        2.3247762392        0.9475593873
 C         -1.1365844483        1.0737726134        0.0599321073
 C          2.2432315683        1.0519049875        0.7222858881
 H          0.4272130746        1.9948723282        2.3330874761
 H          1.3972912533        2.6668546124       -0.4486176898
 H         -1.8969131085        2.1764921230        1.7973705533
 H         -1.8249812436        1.1790819342       -0.7854033775
 H          3.0841173718        1.6705780496        1.0360133625
 H          1.9192411758        0.3861342583        1.5292764036
 H          1.2992501326        4.0748853100        2.0190141012
 H         -1.2978099650        4.2091932436        0.5019132710
 H          1.6747892349       -0.6867803737       -2.7861752517
 H          3.6012192769       -2.4499080759       -0.4854275990
  34
        -71.10449370
 O         -2.6525375035       -3.0759261564        0.8438417064
 O         -1.1017249963       -1.4942166998        1.0841096703
 N         -2.9177591856        0.2618327540       -0.4911887389
 N         -4.4682524740       -1.2531611529       -0.0197669019
 C         -3.1826030922       -0.9651744811        0.0608573256
 C         -4.1072410325        0.7411684006       -0.9377230044
 C         -5.0518245897       -0.2036491226       -0.6277086489
 C         -2.2034518339       -1.8454126172        0.6978169086
 H         -4.1909860263        1.6908767738       -1.4225378149
 H         -6.1070966968       -0.1892140271       -0.8054721779
 H         -2.0124740784       -3.6530017964        1.3074581762
 P          3.6696888990       -0.0375661339        0.0765761875
 O         -0.7450487305        0.0438389627       -1.2719516176
 O          1.3464057906        2.0518662648        0.6770188381
 O         -1.1529763597        2.8086635205        0.8058230461
 O          2.7779683714       -0.6379703846       -1.1288777849
 O          5.0734347126       -0.6645549418       -0.2052912009
 O          3.8929382972        1.4863980825       -0.2870497583
 O          3.1379423980       -0.3218711237        1.4159053962
 C          0.4619444232        0.9669331651        0.5581847230
 C          0.5703236783        0.3552316018       -0.8496605332
 C         -1.0185155354        1.4305850191        0.6621942208
 C         -1.6562545567        0.9258169629       -0.6620692737
 C          1.4115711498       -0.9176926458       -0.9297283576
 H          0.6702854885        0.2016253109        1.3080114619
 H          1.0054647888        1.1063410494       -1.5281533813
 H         -1.5154248757        0.9574300061        1.5125421608
 H         -1.8394995557        1.7975988728       -1.3112921324
 H          1.2686063885       -1.5072424896       -0.0209227277
 H          1.0883020024       -1.4919466564       -1.8004039824
 H          1.4458853795        2.2665954490        1.6172179119
 H         -0.3543828095        3.2407236696        0.4493301844
 H          5.4497430391       -0.4664267440       -1.0726705230
 H          3.1516967158        2.0493457078       -0.0135098092
  34
        -71.10449241
 O         -4.9002683930       -0.7472686203        0.3648020459
 O         -3.7354345892        0.8273056346       -0.6960197854
 N         -1.3543156475       -0.8502071962       -0.3013934883
 N         -2.7635212076       -2.4539832847        0.2954605872
 C         -2.6568262107       -1.1761461571       -0.0239821903
 C         -0.6260337397       -1.9801078238       -0.1376683099
 C         -1.5200285752       -2.9604856093        0.2232008465
 C         -3.7874989967       -0.2621236257       -0.1476918130
 H          0.4289124077       -1.9994587198       -0.3126821732
 H         -1.3343738223       -3.9941936467        0.4292578633
 H         -5.6566790040       -0.1364305881        0.2498872026
 P          2.9593377970       -0.7226622492        0.2475831788
 O          0.3882482429        0.3719799518       -1.2424009915
 O         -0.1256185653        3.5437560543       -0.0543265814
 O         -1.6121153514        1.8353557899        1.3397052448
 O          3.0172549008        0.8709221764        0.0238155408
 O          4.3277156479       -1.0058454530        0.9855432328
 O          1.9273735703       -0.9446695126        1.4144678129
 O          2.7166708492       -1.4920234813       -0.9793348503
 C          0.4933305200        2.3077566165        0.1522906877
 C          1.0217275043        1.6428865765       -1.1394544496
 C         -0.5113767297        1.2673430317        0.7126517666
 C         -0.8447513701        0.4585306735       -0.5717095213
 C          2.5327404014        1.4339153469       -1.1772374669
 H          1.3037630002        2.4984483901        0.8575700677
 H          0.7387121028        2.2526923295       -2.0104390729
 H         -0.0152989787        0.5809808262        1.4084951780
 H         -1.5952729454        0.9964786359       -1.1728618077
 H          2.7545275260        0.7621829344       -2.0104836800
 H          3.0441908141        2.3900359258       -1.2935580375
 H         -0.7475825980        3.5012553543       -0.7972597806
 H         -1.5749838461        2.8024589822        1.2034934960
 H          5.0952476947       -1.1195019050        0.4155858993
 H          2.3243954798       -0.8683862145        2.2919127510
  34
        -71.10446543
 O         -1.4967468859       -2.8762356938       -1.2076718311
 O         -0.2235752221       -1.7019002607        0.1924856851
 N         -2.5804630881        0.2274026287        0.1757432226
 N         -3.7006464155       -1.6672035958       -0.0920314273
 C         -2.5074745785       -1.1060791938       -0.1218826929
 C         -3.8969056433        0.4956850387        0.3902469715
 C         -4.5678260061       -0.6879653539        0.2359088778
 C         -1.2910958772       -1.8895055447       -0.3662920959
 H         -4.2420797160        1.4785306996        0.6325047828
 H         -5.6129731062       -0.8932852219        0.3395473364
 H         -0.7173798297       -3.4589515513       -1.3177153951
 P          2.9283065178       -0.5762003166       -0.2126609225
 O         -0.7855469504        1.0661563406       -1.0325318146
 O          0.7347922429        3.1969709859        1.1055784705
 O         -0.9981924018        1.8150094206        2.4518628780
 O          1.7541150832       -0.2354303861       -1.2592623053
 O          2.2665439986       -1.0286201516        1.1321103996
 O          3.5054002217       -1.9288384703       -0.7852376603
 O          3.8874458108        0.5292875125       -0.0523362205
 C          0.7024232651        1.8614416500        0.6697432835
 C          0.4346695911        1.7765919130       -0.8526392163
 C         -0.5346770510        1.1790913128        1.3083447086
 C         -1.5511873449        1.2220171487        0.1366457781
 C          1.5348323616        1.1004278021       -1.6638670136
 H          1.6197819769        1.3342508398        0.9349958309
 H          0.3049073309        2.8024728494       -1.2307264855
 H         -0.3167938738        0.1368449957        1.5532924170
 H         -2.0477093351        2.2070806553        0.1450731207
 H          1.2259078039        1.0517458296       -2.7097406739
 H          2.4628854131        1.6691925493       -1.5589015852
 H          1.6444211762        3.5061138352        1.2037152116
 H         -0.6790188140        2.7379573491        2.4306695639
 H          1.5124336143       -1.6231548162        0.9978870135
 H          4.0783086212       -1.8530324889       -1.5564483576
  34
        -71.10446141
 O         -4.9323238897       -0.7352774875        0.2700939400
 O         -3.7358038834        0.7447409199       -0.8883653930
 N         -1.3625719496       -0.8791492468       -0.2271489111
 N         -2.8084213795       -2.4584805592        0.3452563551
 C         -2.6799228821       -1.1943439833       -0.0150189623
 C         -0.6484770521       -2.0048560349        0.0166711230
 C         -1.5640871188       -2.9699746767        0.3613378019
 C         -3.8053863645       -0.2926955511       -0.2508533440
 H          0.4138477447       -2.0304525824       -0.1018212362
 H         -1.3949535013       -3.9959887016        0.6144891240
 H         -5.6876199491       -0.1444535488        0.0730394629
 P          2.9577701747       -0.6871476698        0.1913536250
 O          0.4264734728        0.3091512979       -1.1267955861
 O          0.1434033525        3.5501971933        0.1542175281
 O         -1.7480629890        1.9585160013        1.0976126104
 O          3.1281534408        0.8829325706       -0.1157271490
 O          4.3091532879       -1.0006216309        0.9487168321
 O          1.9203342205       -0.7842791401        1.3747615032
 O          2.6748206557       -1.5177315738       -0.9858806254
 C          0.5611121898        2.2253876153        0.2788744752
 C          1.0083150313        1.6030612423       -1.0711729749
 C         -0.5820183567        1.2781075209        0.7503030920
 C         -0.8314743548        0.4186310868       -0.5137509476
 C          2.5138064255        1.4585543747       -1.2489407961
 H          1.3971840490        2.2252634599        0.9820443683
 H          0.6124750480        2.2182843207       -1.8929531607
 H         -0.2346876736        0.6164088317        1.5518146283
 H         -1.5487336385        0.9476181772       -1.1623127195
 H          2.6879204121        0.8213021944       -2.1198090044
 H          2.9755266184        2.4380548344       -1.3761327729
 H         -0.8022029043        3.5699396280       -0.0725682337
 H         -1.6346972425        2.3909259040        1.9584743488
 H          5.0733914671       -1.1670105529        0.3874029560
 H          2.3430362280       -0.7023127235        2.2395812319
  34
        -71.10445056
 O         -3.3629306960        0.5023063867       -1.4640496220
 O         -4.7564240158       -1.1623037547       -0.9916418761
 N         -1.3610997734       -0.6985528771        0.2242061319
 N         -2.7590290035       -2.3871149224        0.5623618937
 C         -2.6050475444       -1.2190674336       -0.0389117612
 C         -0.7323714691       -1.5890825067        1.0300321094
 C         -1.6112504837       -2.6282457023        1.2174021044
 C         -3.6668967213       -0.6412375574       -0.8548887912
 H          0.2754762153       -1.4430225998        1.3593183882
 H         -1.4795695632       -3.5254079928        1.7860869824
 H         -4.1201223655        0.8247234302       -1.9948807819
 P          2.9784470503       -0.9435958260       -0.1847298774
 O          0.5781495999        0.4627050266       -0.2975330565
 O         -0.0657083641        3.7889643083        0.2297470585
 O         -2.2166552661        2.3805957942        0.7730700981
 O          3.2509984327        0.6259997045       -0.4469532319
 O          2.0935831778       -1.5087347936       -1.3452466163
 O          4.3937124061       -1.5535006786       -0.5521557385
 O          2.4998144836       -1.2321258106        1.1753106135
 C          0.2363313951        2.5516087777        0.8104879509
 C          1.1450947380        1.7530450282       -0.1459473847
 C         -1.0405344420        1.6656386564        0.9397600090
 C         -0.8165761233        0.5739802259       -0.1505001451
 C          2.5684259076        1.5585067070        0.3650104361
 H          0.7199686885        2.6704589414        1.7827067603
 H          1.1556616236        2.2632162391       -1.1203380926
 H         -1.0850543075        1.1800707491        1.9191272279
 H         -1.2815381953        0.8954747077       -1.0926070688
 H          3.1333710387        2.4895180082        0.3175997710
 H          2.5288703523        1.1707827375        1.3874463859
 H         -0.2391794792        4.4527126238        0.9129675525
 H         -2.0465770120        3.0959062455        0.1304044363
 H          2.4891014406       -1.4341754957       -2.2229547805
 H          5.0773105545       -1.4668611538        0.1197028167
  34
        -71.10438871
 O         -5.2278234887       -0.9422209334        0.2756411036
 O         -4.1080700842        0.8983898161       -0.3040579601
 N         -1.6763003608       -0.6840838339       -0.3127101581
 N         -2.8713275059       -2.3398985054        0.5586025516
 C         -2.9220156883       -1.1109005955        0.0735497618
 C         -0.8209821487       -1.6971448785       -0.0472450746
 C         -1.5825592565       -2.7111607606        0.4895943346
 C         -4.1214931761       -0.2896130282       -0.0094076577
 H          0.2280584138       -1.6249519441       -0.2454030449
 H         -1.2660675364       -3.6758935339        0.8283100903
 H         -6.0218351306       -0.3712388135        0.2297085590
 P          3.5625953654       -0.8951105077        0.3710703122
 O         -0.1205425552        0.5728641223       -1.5316741392
 O          0.6084607287        3.0744077575        0.9356557185
 O         -1.7820152795        2.9286272687       -0.2444464312
 O          2.1739674944       -0.2685884981       -0.0669170743
 O          4.2994690208       -1.0887801337       -1.0119644818
 O          4.3729818514        0.2875334755        1.0559490841
 O          3.3879305732       -2.0905866730        1.2060325632
 C          0.2177697982        1.8340984491        0.4503624654
 C          0.7936449872        1.4931427523       -0.9405291444
 C         -1.2989509084        1.6996799827        0.2095421094
 C         -1.3613825483        0.6073303300       -0.8850760278
 C          2.1921610949        0.8918319541       -0.8976269365
 H          0.5487300897        1.0782791561        1.1696107236
 H          0.8267714999        2.4037285211       -1.5548457565
 H         -1.8308016916        1.3739785918        1.1107822768
 H         -2.1437850219        0.8473696726       -1.6183953648
 H          2.5013445649        0.6008172772       -1.9027215896
 H          2.8893929856        1.6256511648       -0.4885586072
 H          0.0479116976        3.7557398834        0.5251853540
 H         -2.7448118651        2.8751991839       -0.3422977000
 H          5.0977246603       -1.6272721341       -0.9773249002
 H          4.4706851781        0.2010943097        2.0097805089
  34
        -71.10434202
 O         -5.0039307978       -1.0944044673       -0.4115133346
 O         -3.6396148950        0.4691934003       -1.2337395072
 N         -1.4640301106       -0.7707031080        0.2273634262
 N         -2.9559357663       -2.1909220252        1.0548883505
 C         -2.7811729026       -1.1562645871        0.2516776260
 C         -0.8008398536       -1.6141368095        1.0519435216
 C         -1.7434327120       -2.4830418622        1.5529520343
 C         -3.8292995638       -0.5141803599       -0.5307731385
 H          0.2582434071       -1.5577292858        1.1913225027
 H         -1.6111174046       -3.2933226548        2.2395738574
 H         -5.6968147219       -0.6531875097       -0.9440630718
 P          3.3608471689       -0.5445860978       -0.4892002115
 O          0.4927868336        0.2903691333       -0.5190794349
 O          0.0634314187        3.4452881783        1.0466716750
 O         -1.4547010412        2.6608527288       -0.9680526953
 O          2.5650261131       -0.5165406722        0.9119658650
 O          4.6110772688       -1.4241025548       -0.1434912290
 O          2.5327259780       -1.5052749643       -1.4361673477
 O          3.6917420257        0.7800658071       -1.0288940638
 C         -0.1482734516        2.0776510696        0.9461472611
 C          1.0369998178        1.3051466745        0.3223553043
 C         -1.3373182602        1.6981946454        0.0350226803
 C         -0.9053973222        0.3280685789       -0.5363520534
 C          1.9620302567        0.6772543231        1.3737404797
 H         -0.3341312705        1.7159160104        1.9627839264
 H          1.6281118743        1.9703114612       -0.3165075631
 H         -2.2661205525        1.6088169689        0.6081726640
 H         -1.2475071334        0.2275452235       -1.5743567191
 H          2.7279257463        1.4064925482        1.6458002762
 H          1.4045982267        0.3793414620        2.2659440057
 H         -0.1338007931        3.8552205684        0.1865540392
 H         -2.2740798159        2.5104852409       -1.4627087364
 H          4.4225194897       -2.3141927767        0.1807520715
 H          1.8610710900       -1.0563422491       -1.9569567194
  34
        -71.10433237
 O         -1.4716070037       -0.8047931622       -2.0238131682
 O         -2.4318439436       -2.7478663552       -1.5399882507
 N         -1.4468401626       -0.1216132454        0.7617244902
 N         -2.0707431744       -2.2077472431        1.2037270102
 C         -1.8394606985       -1.3325242730        0.2466044642
 C         -1.4087458984       -0.2885000436        2.1116799711
 C         -1.8019805522       -1.5766351404        2.3613955014
 C         -1.9468108836       -1.7009141829       -1.1619837994
 H         -1.1309830027        0.4886742968        2.7902086506
 H         -1.9055633837       -2.0827684007        3.2989200995
 H         -1.5897247430       -1.1259569126       -2.9415328989
 P          1.9956681073       -1.1025413554       -0.7929899789
 O          0.1791075057        1.0611918983       -0.4910038362
 O          0.4930324636        3.9518947656        1.3394747822
 O         -1.6479467678        3.3992625962       -0.0026173882
 O          2.7347735459        0.0554553201        0.0557427716
 O          1.6418673788       -0.4915204982       -2.2100866273
 O          3.1968409965       -2.0429395703       -1.1486758490
 O          0.9223133610       -1.7808203691       -0.0541026475
 C          0.2120854081        2.5841705608        1.3623753536
 C          1.0723759431        1.7597031503        0.3738962659
 C         -1.2347312476        2.3709387991        0.8484710067
 C         -1.1322806350        1.0798750471        0.0175514101
 C          1.9983479417        0.7447393125        1.0459569564
 H          0.3148403003        2.1754691369        2.3731874880
 H          1.6669428322        2.4220964634       -0.2658222854
 H         -1.9544682788        2.2694662330        1.6701081275
 H         -1.8068495663        1.1375095826       -0.8425815422
 H          2.7354282721        1.2298797199        1.6866866156
 H          1.4039009591        0.0214294540        1.6139677955
 H          1.2729586401        4.1586653696        1.8716906298
 H         -1.1598030167        4.2079565029        0.2353873779
 H          0.8661610193        0.0818197279       -2.1948392672
 H          3.9000546330       -1.6404896316       -1.6747270892
  34
        -71.10430941
 O         -2.0643678991        0.0055410018       -1.9245654444
 O         -1.9547697607       -2.1929938429       -2.2301201539
 N         -1.3915525100       -0.3246616907        0.8145234247
 N         -1.9572093044       -2.4625755126        0.6232517856
 C         -1.7295406449       -1.3437152480       -0.0373361962
 C         -1.4067587729       -0.8548279868        2.0631516127
 C         -1.7676122909       -2.1696904506        1.9235107027
 C         -1.9021765656       -1.2366248663       -1.4830044466
 H         -1.2065683547       -0.2783398912        2.9404207526
 H         -1.9017845554       -2.9159548895        2.6791407112
 H         -2.2095042482        0.0223793297       -2.8924673912
 P          1.9530960823       -1.0436300647       -0.5292022217
 O          0.0700823739        0.9481654002       -0.4964920406
 O         -0.4950931547        3.8797734427        0.3634929928
 O         -1.4342396331        2.4114063473        2.4233873083
 O          2.6786499641        0.3797315229       -0.7721681153
 O          0.9693376577       -1.2879059182       -1.7392111142
 O          3.1545453682       -2.0424212413       -0.8036515790
 O          1.3691066342       -1.2257266831        0.8012059681
 C          0.3860304783        2.8972191209        0.8341225701
 C          0.9808553192        2.0274422299       -0.2858210433
 C         -0.4580485762        1.8631538440        1.6075931638
 C         -0.9901509057        1.0042575095        0.4395532761
 C          2.3493768033        1.4475302481        0.0914191194
 H          1.1676900411        3.3284364587        1.4663833479
 H          1.0522342371        2.5659652497       -1.2368448844
 H          0.1975245207        1.2476728217        2.2298028478
 H         -1.8510380296        1.5083262619       -0.0308291308
 H          3.1398767938        2.1893479153       -0.0261238823
 H          2.3168191280        1.0718052829        1.1178684817
 H         -0.0094310977        4.6510772827        0.0380699676
 H         -1.8278656488        3.1744688907        1.9649358342
 H          1.3994067247       -1.2740742474       -2.6039158560
 H          3.9240983184       -1.6984473802       -1.2745039472
  34
        -71.10429504
 O         -2.0084993914       -2.4131331751       -1.9406891444
 O         -2.3352835960       -0.2085718762       -1.9005314304
 N         -1.5082456619       -0.3073867035        0.9264980611
 N         -1.9963047297       -2.4699659431        0.8082302801
 C         -1.8466381278       -1.3608794574        0.1166508421
 C         -1.4110539151       -0.8165693663        2.1836720645
 C         -1.7348079112       -2.1445272385        2.0902288691
 C         -2.0678766306       -1.2497908574       -1.3279014672
 H         -1.1414376505       -0.2357181765        3.0384900396
 H         -1.7975915721       -2.8802014678        2.8650765350
 H         -2.1863196110       -2.3341730249       -2.8995276406
 P          1.8887330185       -0.9846706823       -0.6633414088
 O         -0.0884187440        0.8234619155       -0.4900239970
 O          1.1569467027        3.6603169035        1.3068792810
 O         -1.4433811305        3.2521170514        1.2952897628
 O          2.5910265490        0.4511888036       -0.4462041501
 O          3.1624624179       -1.9289946956       -0.5638564474
 O          1.1815690752       -1.3453085241        0.6980659911
 O          1.1174805253       -1.1416322567       -1.9036591481
 C          0.7493446259        2.3617897547        1.0417020901
 C          0.7230883257        1.9794892668       -0.4532626621
 C         -0.7157809878        2.0644112016        1.4535834198
 C         -1.1634143838        0.9951273308        0.4206334386
 C          2.0648302495        1.6053210927       -1.0641452794
 H          1.4372081063        1.6881043345        1.5610328938
 H          0.2640568932        2.7897702547       -1.0377047284
 H         -0.7725717752        1.7038121457        2.4808292291
 H         -2.0282949956        1.3842979744       -0.1431300680
 H          1.9156601012        1.4084190315       -2.1289208059
 H          2.7937006365        2.4009616785       -0.9046609610
 H          0.4048656356        4.2583690463        1.1502618970
 H         -2.2676071027        3.2272739947        1.8003524765
 H          3.6707846078       -2.0248784699       -1.3755775452
 H          1.8220354342       -1.7021789555        1.3277885717
  34
        -71.10429168
 O         -5.2011906327       -1.1493995714        0.2188855826
 O         -4.2594555119        0.7472530741       -0.4803487274
 N         -1.6977164972       -0.6688618926       -0.5311145991
 N         -2.8228914877       -2.4699017002        0.1109913638
 C         -2.9186808349       -1.1848695779       -0.1812083340
 C         -0.8107383489       -1.6899053983       -0.4445243493
 C         -1.5284259646       -2.7938830506       -0.0509399374
 C         -4.1656550698       -0.4277538334       -0.1647997071
 H          0.2242128119       -1.5591576395       -0.6813238822
 H         -1.1880672553       -3.7936032741        0.1224563375
 H         -6.0338042289       -0.6343905811        0.2128819979
 P          3.3666498717       -0.4105059070        0.6186820825
 O         -0.2310299062        0.7300615741       -1.6757419282
 O          1.0328077233        2.4503889228        1.1982225590
 O         -1.4456558623        2.8415770689        0.2200983795
 O          2.3853163210       -0.4860055572       -0.6442180128
 O          2.9623342683       -1.6872097890        1.4273497180
 O          4.7909823251       -0.6939503915       -0.0117987585
 O          3.2964479433        0.8426112545        1.3888580012
 C          0.4874673105        1.3898286714        0.4768964027
 C          0.8530472529        1.3890144604       -1.0200695035
 C         -1.0453101960        1.5183803596        0.4062418177
 C         -1.3720864598        0.7034883417       -0.8608854718
 C          2.1731089349        0.7087723856       -1.3830896101
 H          0.7469429247        0.4230344318        0.9268506458
 H          0.8910682002        2.4299764176       -1.3702536444
 H         -1.5379293472        1.0857397748        1.2887748410
 H         -2.2258212865        1.1506851967       -1.3839206161
 H          2.1380402035        0.4253290111       -2.4365856445
 H          2.9930843035        1.4054349866       -1.2048001794
 H          1.9279798365        2.1932122758        1.4847306367
 H         -0.9092209899        3.4028470765        0.8064623049
 H          3.1708592315       -2.5362091054        1.0165963745
 H          5.5279515016       -0.2200158781        0.3895474370
  34
        -71.10428846
 O         -4.0675042751        1.0127086079       -0.0535424636
 O         -5.4267361076       -0.5981153305        0.6562333450
 N         -1.9758793238       -0.9023801244       -0.4277092340
 N         -3.2705190745       -2.4287744360        0.5343025686
 C         -3.2033679931       -1.1722862700        0.1276226527
 C         -1.2643809212       -2.0517294455       -0.3532943155
 C         -2.0821861432       -2.9812281332        0.2437300034
 C         -4.3275084702       -0.2568047126        0.2702578388
 H         -0.2694852340       -2.1285765747       -0.7360975466
 H         -1.8767653025       -4.0051526532        0.4776560009
 H         -4.8822376813        1.5482771133        0.0433514019
 P          3.6417953730       -0.0580315458        0.5608712897
 O         -0.3934924304        0.1396180808       -1.8101033270
 O          1.2177987793        2.0425876245        0.7622105770
 O         -1.1547825362        2.6535631476       -0.2145276857
 O          3.1557633017        0.2731213093       -0.9464780153
 O          5.1141592781       -0.5631103248        0.3829516955
 O          3.8446313335        1.3451813060        1.2442884158
 O          2.7717518118       -1.0300286323        1.2401849845
 C          0.4693816393        0.9970751973        0.2283482974
 C          0.7964249254        0.6829053158       -1.2449587325
 C         -1.0387750953        1.3103868856        0.1497382574
 C         -1.4993917010        0.3551012332       -0.9749580888
 C          1.9555538187       -0.2980010881       -1.4197258360
 H          0.6507048773        0.1145541809        0.8490721718
 H          1.0424236379        1.6185217855       -1.7667068460
 H         -1.5580123439        1.0948070047        1.0889872172
 H         -2.3074305524        0.7946679111       -1.5720369242
 H          1.7522942976       -1.2191922371       -0.8665042352
 H          2.0951673894       -0.5216363830       -2.4792268617
 H          0.8183262156        2.8790093599        0.4569424432
 H         -2.0747629031        2.9451011702       -0.1570263694
 H          5.7232187020        0.0723112604       -0.0154125951
 H          3.0123499728        1.8297323623        1.3700166363
  34
        -71.10428334
 O         -5.4622359190       -0.8177183680       -0.6526606379
 O         -3.6963613416        0.3486510210       -1.3570845499
 N         -2.0922657985       -1.0482348804        0.6220272710
 N         -3.9815928488       -1.9433064414        1.3677368962
 C         -3.4494580999       -1.1552756856        0.4497625699
 C         -1.7804125107       -1.8071016062        1.6975201573
 C         -2.9633867784       -2.3519331405        2.1419422119
 C         -4.1945955649       -0.4732384850       -0.5989101420
 H         -0.7716584524       -1.9114515506        2.0347627951
 H         -3.1317872395       -3.0068833283        2.9714667029
 H         -5.9532045361       -0.3400780494       -1.3523957193
 P          4.0065399865        0.1013345754       -0.7526031224
 O          0.1378986464       -0.6512169799        0.1309685517
 O          0.4493815535        2.8911638435        0.6386487154
 O         -1.3550806406        1.9988027687       -1.0898685803
 O          3.1458934282       -0.5377708164        0.4320009361
 O          4.8142145533        1.2533135216       -0.0102431544
 O          5.0145839534       -1.0597054629       -1.0498379868
 O          3.2880610549        0.5658985343       -1.9484248323
 C          0.0091161497        1.5887559910        0.8153588870
 C          0.9478351538        0.5127620782        0.2293271222
 C         -1.3118614818        1.2552963848        0.0905546066
 C         -1.1792568046       -0.2713616115       -0.1794807505
 C          2.1673336809        0.2433058830        1.0949284195
 H         -0.0985998414        1.4273843183        1.8927986977
 H          1.2807012849        0.8181868034       -0.7716202061
 H         -2.1898072409        1.4591125984        0.7158657580
 H         -1.3952300261       -0.4678765521       -1.2410634052
 H          2.5951097274        1.2042311219        1.3926114676
 H          1.8821944486       -0.3366185480        1.9752510487
 H          0.2380005541        3.1677726746       -0.2693596667
 H         -2.1860069132        1.8044478106       -1.5534436373
 H          5.0360554041        2.0088722846       -0.5647713969
 H          5.4697125970       -1.4275510358       -0.2810547105
  34
        -71.10420300
 O         -2.0677719020        0.0457346637       -1.9169448790
 O         -1.9924019407       -2.1495052482       -2.2580405271
 N         -1.3623709833       -0.3471123137        0.8147249110
 N         -1.9267829168       -2.4811848402        0.5767154336
 C         -1.7221992198       -1.3431383682       -0.0567739865
 C         -1.3352433491       -0.9170521408        2.0456788779
 C         -1.6970640650       -2.2278054909        1.8786957774
 C         -1.9179939966       -1.2050738338       -1.4980048597
 H         -1.0954771511       -0.3796568647        2.9364428373
 H         -1.8056353278       -2.9971683944        2.6149162185
 H         -2.2137612781        0.0830026731       -2.8839882572
 P          1.9250709468       -1.0330073793       -0.5067831010
 O          0.1023801969        0.9335313991       -0.4696056152
 O         -0.3746737406        3.9286814011        0.3196523048
 O         -1.5682119376        2.4596042774        2.2594289210
 O          2.6819836273        0.3737525395       -0.7491148715
 O          0.9378511424       -1.2710821601       -1.7036027324
 O          3.0839231033       -2.0471165923       -0.8956826771
 O          1.4038920256       -1.1983055262        0.8576957919
 C          0.3950733233        2.8898018253        0.8545218188
 C          0.9947800909        2.0271092303       -0.2632083353
 C         -0.4840271156        1.8672468361        1.6128005732
 C         -0.9713562762        0.9880189111        0.4496000493
 C          2.3691914555        1.4550762142        0.1021035437
 H          1.1849574956        3.3086504281        1.4912322450
 H          1.0499396396        2.5883106475       -1.2019477118
 H          0.1457898857        1.2703674906        2.2799450610
 H         -1.8333761170        1.4796110189       -0.0313098397
 H          3.1560309376        2.1961714671       -0.0369686270
 H          2.3499959378        1.0937212719        1.1346291624
 H         -1.2100748180        3.9848793748        0.8184471343
 H         -1.2941484463        2.8311203104        3.1121519960
 H          1.4102912863       -1.3686941879       -2.5407867621
 H          3.7333276007       -2.2255042103       -0.2079812124
  34
        -71.10418667
 O         -3.3600571877       -2.3565179321       -1.6304288197
 O         -3.0968374759       -0.1488673818       -1.7699697137
 N         -1.4572729002       -0.3438310287        0.6808757507
 N         -2.2924907271       -2.3908282284        0.8718105387
 C         -2.2201167067       -1.3254424552        0.0998827222
 C         -1.0129575102       -0.8579609051        1.8575578361
 C         -1.5518241854       -2.1146156232        1.9615719367
 C         -2.9156755989       -1.2023474243       -1.1802778976
 H         -0.3652785198       -0.3151186909        2.5120649917
 H         -1.4578545418       -2.8282734950        2.7535081505
 H         -3.8459581629       -2.2657980225       -2.4756054899
 P          2.3544299943       -0.9756261986       -0.5899954575
 O          0.1899442310        0.7541083929       -0.5492331014
 O          0.9476363040        3.6383660575        1.4523681024
 O         -1.5500203201        3.2364050689        0.6756756836
 O          2.7944989347        0.4315840875        0.0646095628
 O          3.6437493466       -1.8580680175       -0.3029138128
 O          1.3396667761       -1.6444193256        0.4080859187
 O          1.9618381482       -0.8947778794       -2.0028458493
 C          0.5998909629        2.3404651320        1.1110573888
 C          0.9457427126        1.9326012038       -0.3363772098
 C         -0.9223705659        2.0658071587        1.1209523726
 C         -1.0701626103        0.9087866921        0.0952728337
 C          2.4126601859        1.6210816779       -0.5922997741
 H          1.1243730069        1.6702242811        1.7989405956
 H          0.6164007397        2.7241762509       -1.0250874647
 H         -1.2895736229        1.7748644561        2.1091399088
 H         -1.8212982809        1.1733649142       -0.6622978037
 H          2.5626042182        1.5007807324       -1.6679392309
 H          3.0392517749        2.4187733903       -0.1906948575
 H          0.2862129350        4.2450163022        1.0766031827
 H         -2.5044660618        3.1987518977        0.8259636931
 H          4.3777939013       -1.7363476715       -0.9134816829
 H          1.8083065750       -2.0941970968        1.1232033143
  34
        -71.10418031
 O         -5.5264490681       -0.4247640105        0.4123570243
 O         -3.9972327644        0.9984050970       -0.3718801769
 N         -2.0643896797       -1.1578749421       -0.2919355260
 N         -3.6058858984       -2.3729047838        0.7443564952
 C         -3.3562176949       -1.2107360041        0.1670667283
 C         -1.4964748089       -2.3453428085        0.0191467550
 C         -2.4678959453       -3.0811183077        0.6591642019
 C         -4.3054217751       -0.1127050763        0.0386104996
 H         -0.4873744472       -2.5744326197       -0.2496728142
 H         -2.4048138290       -4.0712856615        1.0605216506
 H         -6.1493230749        0.3257966036        0.3284432424
 P          4.0064945333        0.3932687500        0.4367089246
 O         -0.2529338181       -0.4448588485       -1.5838054432
 O          1.0309815321        2.1765007480        0.4667908049
 O         -1.3478027275        2.3613458459       -0.5468128622
 O          3.2883862445       -0.2085483691       -0.8566785408
 O          3.7127671223        1.9363341288        0.4571070464
 O          3.1921900269       -0.2530070782        1.6449313061
 O          5.4462198310        0.1155136918        0.4335535619
 C          0.4077571276        0.9505442062        0.2335143317
 C          0.8802846734        0.2401934129       -1.0540579703
 C         -1.1131474486        1.1040868474        0.0126936974
 C         -1.4439460200       -0.0404046936       -0.9729622995
 C          1.9980955768       -0.7908805197       -0.8611144315
 H          0.6028340068        0.3144281368        1.1028985611
 H          1.2171579903        0.9883250707       -1.7852794611
 H         -1.6715787850        0.9800878653        0.9474818072
 H         -2.1434414916        0.3151075214       -1.7422067266
 H          1.8400936644       -1.3569726055        0.0593161841
 H          1.9835143550       -1.4675193251       -1.7195399581
 H          0.5226567019        2.8664046013        0.0004347088
 H         -2.3041669917        2.5023127725       -0.6205207010
 H          2.7617395657        2.1782507936        0.5341894904
 H          3.7241440337       -0.3460357875        2.4428042195
  34
        -71.10418019
 O         -3.4394696813        0.5702246545       -1.3862809533
 O         -4.8416103461       -1.0694053597       -0.8560394545
 N         -1.3876896157       -0.6781685307        0.2195558173
 N         -2.8143863055       -2.3315291623        0.6120135997
 C         -2.6552606991       -1.1670947518        0.0070705473
 C         -0.7532003321       -1.5856239963        1.0043927523
 C         -1.6493478167       -2.6028512007        1.2234644319
 C         -3.7388240004       -0.5678898458       -0.7648147698
 H          0.2693551965       -1.4731383221        1.3005701952
 H         -1.5177251887       -3.5041691017        1.7854955986
 H         -4.2097399446        0.9071467951       -1.8884235874
 P          3.0959485375       -0.9481522439       -0.1906358733
 O          0.5340484896        0.4706261996       -0.4608628900
 O         -0.3989298269        3.5849671685       -0.2500952886
 O         -2.1560564468        2.2152255489        1.1588044502
 O          3.3492670290        0.6439329580       -0.1958596253
 O          2.4241717415       -1.3044414901       -1.5793746246
 O          4.5392714794       -1.5190511411       -0.3749626913
 O          2.4257079544       -1.4241402250        1.0271268118
 C          0.1975103900        2.6170051020        0.5697385851
 C          1.1870433206        1.7194894423       -0.2046838129
 C         -0.9121982791        1.6308917348        0.9933859707
 C         -0.8417190375        0.5926019925       -0.1582678317
 C          2.4783918086        1.4532736623        0.5661284241
 H          0.6737869669        3.0686559749        1.4433611261
 H          1.4291669659        2.1720584499       -1.1746611637
 H         -0.6484717327        1.1272062544        1.9293748640
 H         -1.3922569071        0.9714502181       -1.0290682140
 H          3.0160891802        2.3830343920        0.7552197246
 H          2.2444459207        0.9418265818        1.5045695233
 H          0.1368917076        4.3894492960       -0.2855537155
 H         -2.2185549116        2.9689668911        0.5428998282
 H          1.4996058667       -1.0452244896       -1.6461105843
 H          4.9896360780       -1.2617373647       -1.1895186418
  34
        -71.10415592
 O         -5.6674272043       -0.2578151868       -0.2162686889
 O         -3.8577361718        0.6428487615       -1.1597706112
 N         -2.2322456506       -1.1694796829        0.4168166798
 N         -4.0996866183       -1.7985748754        1.4381694523
 C         -3.5955847677       -1.0314529787        0.4872835013
 C         -1.8860488831       -2.0637989600        1.3704898771
 C         -3.0565529161       -2.4402266947        1.9891323583
 C         -4.3668385084       -0.1427861538       -0.3714071558
 H         -0.8708048911       -2.3674333519        1.5117900208
 H         -3.1979978736       -3.1303065782        2.7948661458
 H         -6.1705851630        0.3531932748       -0.7927083508
 P          4.1746726514        0.4235219769       -0.3458074451
 O         -0.0814824300       -1.0962278778       -0.4696721382
 O          0.8885056927        2.2601080318        0.3761810648
 O         -1.1710066880        1.8366475878       -1.2380031549
 O          3.1010319861        0.1469523896        0.8029285515
 O          3.4965197087        1.5415648272       -1.2480700888
 O          5.3265768827        1.1282947827        0.4523070813
 O          4.6002574698       -0.7685222501       -1.0938116101
 C          0.2494822330        1.0360920588        0.5011480434
 C          0.9354704140       -0.1326532420       -0.2392288576
 C         -1.1664694265        1.0068824816       -0.1155908597
 C         -1.3467633943       -0.4849534793       -0.4963564179
 C          2.0703203524       -0.7821220742        0.5466812723
 H          0.2006244801        0.8083989789        1.5710974023
 H          1.3298565601        0.2318231460       -1.1977820985
 H         -1.9314535814        1.3160124473        0.6061256061
 H         -1.7751236930       -0.5591356095       -1.5066557284
 H          1.7140699508       -1.1211533089        1.5220889965
 H          2.4643541475       -1.6292987604       -0.0231287460
 H          0.6487092711        2.6467705522       -0.4833143134
 H         -2.0721268040        1.8774275731       -1.5955955256
 H          3.9259066586        1.6811575209       -2.0994435041
 H          5.0507002031        1.8673535315        1.0102851389
  34
        -71.10414275
 O         -2.0366059948       -0.0127564343       -1.9316377060
 O         -1.9145191078       -2.2128833314       -2.2178752837
 N         -1.3672603409       -0.3302250120        0.8239760981
 N         -1.8858918139       -2.4796876268        0.6219416326
 C         -1.6906921518       -1.3515972072       -0.0324465031
 C         -1.3555248524       -0.8718680627        2.0675565677
 C         -1.6883198176       -2.1931572207        1.9218845771
 C         -1.8671681656       -1.2503327354       -1.4787415174
 H         -1.1528478754       -0.3078653644        2.9515540545
 H         -1.7965319646       -2.9480014186        2.6730661219
 H         -2.1763280084       -0.0074650407       -2.9004923956
 P          1.9225735904       -1.0685951501       -0.5301125555
 O          0.0777066485        0.9644588779       -0.4773639393
 O         -0.2410639425        4.0530344701        0.3707597431
 O         -1.7168007826        2.5357044299        2.1255196806
 O          2.6922634061        0.3460523376       -0.6559783566
 O          0.9770386221       -1.2203234464       -1.7730350399
 O          3.0883672595       -2.0668490123       -0.9314536196
 O          1.3386595037       -1.2985005838        0.7983584218
 C          0.3879786930        2.9135495395        0.8698483370
 C          1.0093703934        2.0123760236       -0.2123107796
 C         -0.5839521338        1.9354983148        1.5801763221
 C         -1.0068641804        1.0076523971        0.4302286087
 C          2.3312518763        1.3802217002        0.2355346734
 H          1.1552846012        3.2861107822        1.5518244623
 H          1.1623322679        2.5549316392       -1.1515610815
 H         -0.0150605905        1.3647305683        2.3258159622
 H         -1.8837857733        1.4457306224       -0.0753381748
 H          3.1440387133        2.1061003846        0.2131204023
 H          2.2116652261        0.9549293317        1.2363583792
 H         -1.0062474714        3.8185233515       -0.1745490425
 H         -1.4589301286        3.2432270816        2.7358907577
 H          1.4739679052       -1.2910578108       -2.5989452052
 H          3.7079050771       -2.2915123655       -0.2298077171
  34
        -71.10410496
 O         -3.6192408121        0.6904127601       -1.0654418817
 O         -4.9018644553       -1.1171768756       -0.9272179337
 N         -1.4113464883       -0.8119390201        0.0663287470
 N         -2.7922846722       -2.5408719968        0.2322098725
 C         -2.6811863890       -1.2861874345       -0.1694840899
 C         -0.7234913505       -1.8288594940        0.6410798113
 C         -1.5930953634       -2.8874440679        0.7292126376
 C         -3.8242752426       -0.5859945342       -0.7456578246
 H          0.3010962166       -1.7201175379        0.9255107464
 H         -1.4237837778       -3.8682152100        1.1229121043
 H         -4.4332365031        1.0979528710       -1.4268704375
 P          2.8194583355       -0.6070423871        0.1748343183
 O          0.3440546357        0.3753734905       -0.9279655671
 O          0.4313486843        3.5125363490        0.5859769060
 O         -1.5576114633        2.0798683457        1.5293736260
 O          3.2032556250        0.7721363946       -0.5509947767
 O          2.2641755064       -1.6254257610       -0.8786819349
 O          4.2805024472       -1.1449060486        0.4475901432
 O          2.0007830684       -0.4680356751        1.3904238106
 C          0.7199027366        2.1430723645        0.5949662972
 C          0.9270789659        1.6632637086       -0.8548900903
 C         -0.5010785205        1.2999171276        1.0748912257
 C         -0.8636912466        0.4811135178       -0.1991455118
 C          2.3636878385        1.5941374684       -1.3380613041
 H          1.5988079021        1.9083756328        1.1976000553
 H          0.3762558073        2.3569149501       -1.5106863948
 H         -0.2098057132        0.6148993228        1.8746181098
 H         -1.5941857815        1.0553363204       -0.7848774443
 H          2.3594494283        1.2187372190       -2.3648975556
 H          2.8088591205        2.5910802087       -1.3042269914
 H          0.6510288566        3.9060149739        1.4429725200
 H         -1.5112696438        2.9455086353        1.0789071442
 H          2.9138258108       -1.9491112033       -1.5152122967
 H          4.7157992262       -0.7848740209        1.2264314953
  34
        -71.10409016
 O         -3.4638054682       -2.4515690445       -1.4012258335
 O         -3.0373209448       -0.3117693209       -1.8404939397
 N         -1.3492434976       -0.2973894176        0.5880292556
 N         -2.2183011157       -2.2994024276        1.0002174432
 C         -2.1598820427       -1.3076883692        0.1321122945
 C         -0.8666285023       -0.7152292985        1.7850899124
 C         -1.4220585066       -1.9467686139        2.0237938190
 C         -2.9095071286       -1.2904252604       -1.1192794599
 H         -0.1720878501       -0.1412775565        2.3596348423
 H         -1.2939185016       -2.5904356691        2.8692049408
 H         -3.9812029861       -2.4228547061       -2.2323108496
 P          2.2430827183       -1.0730348671       -0.4176868484
 O          0.2960308613        0.8423984314       -0.6544864316
 O          0.7817240245        3.7209059888        1.4412340058
 O         -1.5389428631        3.2921731896        0.2291590071
 O          2.6310038252        0.2331377908        0.4144408367
 O          2.2507884664       -0.6121799893       -1.9228236150
 O          3.5946231953       -1.9136088613       -0.3118899703
 O          1.0919758885       -1.8500436164        0.0712872329
 C          0.4797950423        2.4125127159        1.0938124201
 C          1.0780414635        1.9565885679       -0.2519511420
 C         -1.0228004633        2.1503986168        0.8533713283
 C         -1.0067743971        0.9252330863       -0.0936466323
 C          2.5398265641        1.5242756653       -0.1608415710
 H          0.8672597544        1.7705363228        1.8905246993
 H          0.9744722351        2.7664758999       -0.9875378720
 H         -1.5600694858        1.9237462747        1.7798736186
 H         -1.7237387593        1.0523506809       -0.9153773641
 H          2.9921288347        1.5163102501       -1.1529209001
 H          3.0832617443        2.1976263529        0.5046254735
 H          0.2042006452        4.3161321440        0.9322352651
 H         -2.5046374286        3.2608271395        0.1881150484
 H          1.8505400811       -1.2486572064       -2.5242408516
 H          3.5792014416       -2.6072603198        0.3541814615
  34
        -71.10407310
 O         -4.8484939251       -1.1752848842       -0.6752531797
 O         -3.5242455029        0.4090219205       -1.5127981047
 N         -1.3955198231       -0.6293934824        0.2391426425
 N         -2.7969171955       -2.2813851947        0.7145189671
 C         -2.6531914257       -1.1436973272        0.0585156514
 C         -0.7409524767       -1.4928339154        1.0551549330
 C         -1.6224710686       -2.5105881733        1.3275357411
 C         -3.6927842906       -0.5499678962       -0.7768377878
 H          0.2786848030       -1.3437487833        1.3412831644
 H         -1.4773440753       -3.3854501081        1.9268275683
 H         -5.5349221683       -0.7804453340       -1.2504388944
 P          3.2251791390       -0.7560110020       -0.3983236828
 O          0.4786932668        0.5273555124       -0.5586685466
 O         -0.0679151820        3.5141085215       -0.3926074884
 O         -2.1952215871        2.4607068893        0.8027996738
 O          2.4382248688       -0.4398776568        0.9756417323
 O          4.2713560594       -1.8276184749        0.0553625689
 O          2.2352706509       -1.6086505317       -1.2894643925
 O          3.8187192794        0.4319734129       -1.0264383806
 C          0.2560818764        2.5806534846        0.6004078488
 C          1.2502590544        1.5163362230        0.1190592415
 C         -1.0134409937        1.7411582321        0.8563340840
 C         -0.8876358448        0.6347948947       -0.2306818950
 C          2.0479808707        0.8866495685        1.2743581536
 H          0.6037352361        3.0744316831        1.5136110505
 H          1.9529108608        1.9072921200       -0.6215122807
 H         -0.9728986717        1.2734890448        1.8457611038
 H         -1.4643410112        0.9160216336       -1.1213089876
 H          2.9328996115        1.4972106358        1.4674668038
 H          1.4432526561        0.8065486563        2.1809677298
 H          0.6612741985        4.1341566402       -0.5297568550
 H         -2.1201350882        3.1304506467        0.1005425594
 H          3.9135553486       -2.6515469547        0.4100579604
 H          1.6437946985       -1.0852941091       -1.8381343298
  34
        -71.10405917
 O         -3.8998075419       -1.9927619420       -1.4853674982
 O         -2.7534890136       -0.1094368611       -1.8083654360
 N         -1.4995072293       -0.5767850781        0.8139252581
 N         -2.8856470748       -2.2945839371        1.0125372543
 C         -2.4860556327       -1.3181210844        0.2188301110
 C         -1.2778276256       -1.1376250617        2.0295023783
 C         -2.1452480069       -2.1963370991        2.1313431761
 C         -3.0400729146       -1.0675885845       -1.1084191931
 H         -0.5299129832       -0.7622131014        2.6948142606
 H         -2.2805221319       -2.8843362369        2.9399443732
 H         -4.2735396396       -1.8129800405       -2.3720951171
 P          2.6413837707       -0.6932845955       -0.9420067290
 O          0.6011633554        0.3044603320        0.4594914672
 O          0.3854048318        3.7900245851        0.4709243797
 O         -2.0246053750        2.6740460395        0.4644691287
 O          3.3084729590        0.3380188070        0.1026215816
 O          3.9819982889       -1.3550887621       -1.4669442907
 O          1.9997962031       -1.8862483207       -0.1488505909
 O          1.8007072805       -0.1142229620       -2.0009029195
 C          0.3564445868        2.5513699295        1.1120947180
 C          1.2357557137        1.5598093955        0.3320551754
 C         -1.0551809309        1.8773319938        1.0577388538
 C         -0.7784928873        0.5428266948        0.2938489179
 C          2.6573780761        1.3730429641        0.8198031869
 H          0.7032522993        2.6299529333        2.1488035658
 H          1.2474198728        1.8611660467       -0.7256021210
 H         -1.4257263499        1.6502089531        2.0612217269
 H         -1.0306922431        0.6634364430       -0.7693460290
 H          3.2353589057        2.2881835164        0.6730504231
 H          2.6520730393        1.0899232821        1.8771860562
 H         -0.0712658880        4.4529780852        1.0120963574
 H         -1.6691346364        3.0766270333       -0.3451185948
 H          4.4612993496       -0.8450165360       -2.1274002799
 H          2.6378217536       -2.4069969633        0.3563299209
  34
        -71.10403767
 O         -1.7263138797       -1.9822799386        2.3168435171
 O         -1.3333490983        0.1778486127        1.9291824656
 N         -1.8139761850       -0.4907457064       -0.9463777327
 N         -2.9134533916       -2.2312086516       -0.1252000299
 C         -2.1194108769       -1.2210667075        0.1716301646
 C         -2.4470688020       -1.0981874519       -1.9836685393
 C         -3.1306430932       -2.1615285744       -1.4533024464
 C         -1.6753374002       -0.9235466901        1.5357746995
 H         -2.3670664318       -0.7337855132       -2.9860205196
 H         -3.7606881687       -2.8739819200       -1.9440627522
 H         -1.4829562552       -1.7824054467        3.2433708450
 P          2.6733362228       -0.8380704250       -0.0637533116
 O          0.2583711349        0.3394409146       -0.3548365109
 O          0.0252948696        3.8602760345       -0.1430118981
 O         -1.8839123638        2.7402292827       -1.5961322773
 O          2.6691890930        0.2885995876        1.0606388369
 O          4.0132330634       -1.5796746861        0.3395838458
 O          1.5813034579       -1.8908861359        0.3699369347
 O          2.6735466083       -0.3834918656       -1.4680437177
 C         -0.2885159830        2.5696060586        0.2698706886
 C          0.8577154655        1.5565876598        0.0447036926
 C         -1.4859271343        1.9523021989       -0.5127556580
 C         -0.9195364764        0.6236008829       -1.0655110700
 C          1.6637864281        1.2588434828        1.2936619191
 H         -0.5252707177        2.6267151254        1.3338254637
 H          1.5266391843        1.9060537784       -0.7558215428
 H         -2.3183725553        1.7434635648        0.1667118481
 H         -0.7034375285        0.7674444969       -2.1371363760
 H          2.1753077001        2.1576300454        1.6438282882
 H          0.9810270969        0.8810458248        2.0605139393
 H          0.0180892639        3.8980447920       -1.1149022563
 H         -2.3836984347        3.5079121151       -1.2781886018
 H          4.8164161187       -1.1707648679        0.0021806404
 H          1.6628406408       -2.7354536535       -0.0873462292
  34
        -71.10396244
 O         -2.3537636409       -0.1863008314       -1.8498120894
 O         -1.1322809262       -2.0237822082       -2.1192980950
 N         -1.5347546974       -0.2799996976        0.9049836743
 N         -1.9391291352       -2.4555226933        0.7451452581
 C         -1.7248400768       -1.3458814242        0.0731074809
 C         -1.6239077489       -0.7664550347        2.1710063400
 C         -1.8926830120       -2.1036731997        2.0490680686
 C         -1.6988826461       -1.2301156396       -1.3877083291
 H         -1.5312107405       -0.1456770339        3.0362456124
 H         -2.0556541385       -2.8323234866        2.8158807162
 H         -2.3281110676       -0.1278474004       -2.8284532435
 P          2.0828442108       -1.1070692995       -0.6475695855
 O         -0.0845474352        0.9286695354       -0.4671951135
 O         -0.5467360734        3.8726120280        0.1732033909
 O         -1.6840882614        2.6227519398        2.2686938632
 O          2.7247947456        0.3627961932       -0.5576866795
 O          1.4281871443       -1.1215831132       -2.0866703372
 O          3.3717498771       -2.0062474785       -0.7949212467
 O          1.2606315260       -1.4927016876        0.5051989317
 C          0.2651863302        2.9106413962        0.7875334242
 C          0.9019890214        1.9283857516       -0.2094360243
 C         -0.6697784966        1.9757469631        1.5819703036
 C         -1.1556283926        1.0349918436        0.4586519590
 C          2.1738215058        1.2892593736        0.3555407836
 H          1.0163215047        3.3716523171        1.4352226261
 H          1.1290273496        2.3909777046       -1.1753186026
 H         -0.0868306819        1.4050212229        2.3095178914
 H         -2.0183946105        1.4889509648       -0.0559790971
 H          2.9458866114        2.0430639499        0.5172107389
 H          1.9384220521        0.7669469818        1.2871240091
 H         -0.0110825422        4.5847240692       -0.2034720192
 H         -2.0055572622        3.3637913029        1.7255081738
 H          0.6183098532       -1.6510568722       -2.1722295153
 H          3.9342867631       -1.8078222692       -1.5543156076
  34
        -71.10395163
 O         -4.9834100684       -1.0635269398       -0.2654112090
 O         -3.6106108460        0.2286946837       -1.4591773887
 N         -1.4172951530       -0.7163020157        0.2139961669
 N         -2.8826737500       -2.1030190220        1.1418401795
 C         -2.7303727130       -1.1138993795        0.2795655128
 C         -0.7343567114       -1.5051143061        1.0768348390
 C         -1.6593287231       -2.3562282404        1.6357900384
 C         -3.7947066914       -0.5756564702       -0.5593439752
 H          0.3293188079       -1.4560348292        1.1783738723
 H         -1.5054818633       -3.1288477111        2.3602185006
 H         -5.6826929542       -0.7141411585       -0.8541454185
 P          3.2070733248       -0.8408490895       -0.3554065381
 O          0.5116702511        0.3823701861       -0.5661922235
 O         -0.0343165932        3.4690214212        1.1675660275
 O         -1.5425494961        2.7348026841       -0.9499678126
 O          3.2806839567        0.6118669941        0.3011791155
 O          2.7768042371       -0.5874526139       -1.8443514217
 O          4.7367118630       -1.1972553131       -0.5148795023
 O          2.4167459315       -1.8156820108        0.4212349004
 C         -0.1550857523        2.1057552145        0.9316763214
 C          1.0319685873        1.4996727923        0.1550785057
 C         -1.3431752097        1.7429087382        0.0106678012
 C         -0.8939461169        0.3857019647       -0.5714635987
 C          2.1733446301        1.0614886620        1.0589029416
 H         -0.2550501629        1.6011837342        1.8988107803
 H          1.4316319084        2.2243881183       -0.5676259866
 H         -2.2829751291        1.6582004264        0.5593984056
 H         -1.2593536023        0.2615199907       -1.5996280012
 H          2.5242637689        1.9133299444        1.6437820417
 H          1.8362609706        0.2546508607        1.7155645621
 H         -0.4971796572        3.9497820036        0.4558183987
 H         -0.8837650856        2.6692032818       -1.6574735941
 H          2.4836358742       -1.3740083414       -2.3153227127
 H          5.1728134343       -1.5285354244        0.2772824587
  34
        -71.10392658
 O         -1.9876110006       -2.4751604630        1.7928542299
 O         -1.4121095820       -0.3300926589        1.9555503497
 N         -2.1986131649       -0.1759422281       -0.9542525620
 N         -3.4715067161       -1.9127160484       -0.4221924096
 C         -2.4985252682       -1.1219888200       -0.0100681996
 C         -3.0318218440       -0.4102084821       -2.0021530259
 C         -3.8173207131       -1.4759310039       -1.6485649459
 C         -1.8998961710       -1.2489326252        1.3209192594
 H         -3.0049100351        0.1831770694       -2.8915506588
 H         -4.6033148111       -1.9497629723       -2.1991748279
 H         -1.6456652604       -2.5517182011        2.7070664175
 P          3.2236029462       -0.7279467354        0.0905897780
 O          0.0577546478        0.2263158597       -0.5634574869
 O          0.3190118661        3.4386831614       -0.8017528404
 O         -2.2484779947        2.9723162248       -0.5108548519
 O          2.0429945314       -0.5986125615        1.1785566585
 O          3.9813484671       -2.0118464573        0.6026899758
 O          2.5908675975       -1.2130948517       -1.2591131620
 O          4.0168663179        0.5036235476       -0.0486294497
 C          0.0596393857        2.4957825204        0.2044781219
 C          0.8948054231        1.2105171532        0.0392264512
 C         -1.3903966259        2.0086057002       -0.0026642551
 C         -1.1590690514        0.8121563896       -0.9596990463
 C          1.4414133575        0.6698509493        1.3574212593
 H          0.1947303861        2.9281487036        1.1997391376
 H          1.7410602001        1.3857848846       -0.6388496913
 H         -1.8087765460        1.6388876157        0.9367535751
 H         -1.0816976719        1.1942710241       -1.9908601963
 H          2.1820552637        1.3711561872        1.7495884560
 H          0.6286702422        0.5111741111        2.0685169396
 H          1.1427361626        3.9121508195       -0.6235716750
 H         -1.7297082543        3.5782790950       -1.0710155186
 H          4.5605763996       -1.8835579433        1.3618808159
 H          2.1772444278       -2.0844924162       -1.2306162541
  34
        -71.10392129
 O         -2.1984033249       -0.6023908854       -2.1334522512
 O         -0.3895540723       -1.8602283851       -1.8197527971
 N         -1.8667004696       -0.2720876325        0.8531238176
 N         -2.2144316452       -2.4435648033        0.6273601192
 C         -1.7945624311       -1.3507798425        0.0325675045
 C         -2.3458576211       -0.7276069584        2.0481762452
 C         -2.5644486789       -2.0640600712        1.8838678733
 C         -1.3648439900       -1.2855673262       -1.3819051178
 H         -2.4816353821       -0.0730344590        2.8831103741
 H         -2.9526702452       -2.7803563917        2.5776971067
 H         -1.9370204043       -0.5877463293       -3.0779341750
 P          1.9179848990       -0.8214905033       -0.5265431546
 O         -0.7435391192        1.1136563671       -0.6312686978
 O          1.1397424211        3.3746603068        1.2126321715
 O         -0.8544724053        2.4129955046        2.5917387274
 O          1.5169044045        0.1596163926       -1.7118656774
 O          2.2791161510       -2.1463588775       -1.2848197855
 O          3.3419475540       -0.2494479722       -0.1088830653
 O          1.0021724294       -0.9527567080        0.6240471315
 C          0.8572600146        2.0468487403        0.8715305487
 C          0.3548289740        2.0089833287       -0.5814523084
 C         -0.3303836807        1.4829017350        1.6992814218
 C         -1.3700947990        1.0583546682        0.6223893631
 C          1.4043111598        1.5680865401       -1.6047149498
 H          1.7291626229        1.4006515593        0.9828604914
 H          0.0162338094        3.0250416904       -0.8369811340
 H         -0.0203430972        0.5959621885        2.2585816859
 H         -2.2225202897        1.7605680469        0.6537574168
 H          1.1101948157        1.8890129056       -2.6055777787
 H          2.3708976872        2.0055666577       -1.3411460042
 H          1.7808967033        3.4096736324        1.9379802445
 H         -0.5732110793        3.3037524770        2.3036359708
 H          1.4952479601       -2.6034853653       -1.6151148140
 H          3.8463028831       -0.8177207380        0.4835125264
  34
        -71.10380528
 O         -2.7390102571       -1.7630851873        2.3364645691
 O         -1.7583833818        0.1783575109        1.8512138300
 N         -2.1108549434       -0.6006908006       -1.0152819630
 N         -3.5702111783       -2.0673592874       -0.2160679722
 C         -2.6556354814       -1.1713732756        0.1058661194
 C         -2.7229138750       -1.1873301105       -2.0755590930
 C         -3.6272914141       -2.0809821923       -1.5605865411
 C         -2.3244014327       -0.8395306577        1.4917182255
 H         -2.4793617224       -0.9291564700       -3.0845582120
 H         -4.3078390210       -2.7271321161       -2.0751974661
 H         -2.5626560123       -1.5265410605        3.2696167453
 P          3.3707828267       -0.4641320350        0.0959023022
 O          0.0316477618       -0.0611423463       -0.3274303496
 O          0.3227379392        3.4143601677       -0.2178820672
 O         -1.6564749594        2.6493434915       -1.7204324679
 O          2.2761236522       -0.4164086890        1.2764497779
 O          4.3483329613       -1.5790938695        0.6323003386
 O          2.7075005452       -1.1524035266       -1.1478688185
 O          3.9626487995        0.8469423796       -0.2097793866
 C         -0.2538694361        2.2296284282        0.2503384722
 C          0.7541222949        1.0741329947        0.1061288135
 C         -1.4516654690        1.7930308157       -0.6425285589
 C         -1.0543501526        0.3653375400       -1.1134696093
 C          1.4717112330        0.7392053995        1.4042749930
 H         -0.5757437367        2.3028090173        1.2901469351
 H          1.5023960797        1.3491545828       -0.6531573578
 H         -2.3770780606        1.7457494863       -0.0613060218
 H         -0.7625002326        0.4252125965       -2.1745074577
 H          2.0924751100        1.5928278770        1.6874472957
 H          0.7404587117        0.5053578904        2.1804861607
 H         -0.0341082453        4.1769014662        0.2600843613
 H         -0.8585876922        3.2070416827       -1.8162173023
 H          4.9532191744       -1.3049455316        1.3305619663
 H          2.4356347722       -2.0683562825       -1.0093588395
  34
        -71.10379500
 O         -5.7114578396       -0.2189483080       -0.3816660246
 O         -3.9287160139        0.8489957476       -1.1833573487
 N         -2.2661263979       -1.1337018995        0.2206137160
 N         -4.1699193335       -2.0916116248        0.8303885686
 C         -3.6345461320       -1.0783812806        0.1729256581
 C         -1.9500168374       -2.2334591455        0.9481748706
 C         -3.1417527026       -2.8136859995        1.3087976082
 C         -4.4115645118       -0.0577291609       -0.5235829865
 H         -0.9337781272       -2.5159222567        1.1242355588
 H         -3.3136911419       -3.7010648274        1.8819749657
 H         -6.2241242607        0.4656082808       -0.8580615817
 P          4.0812007734        0.5354617633        0.0952843332
 O         -0.2450087115       -0.9167851087       -0.8776019434
 O          0.8718222841        2.2444678461       -0.2773854338
 O         -1.3934297259        1.8669790077        1.0285554471
 O          3.3080922556       -0.2234723832       -1.1016620673
 O          5.5842762198        0.4235658355       -0.3612700306
 O          3.7869396762        2.0646731253       -0.0647400526
 O          3.7420429743        0.0017909607        1.4234718208
 C          0.7533670357        0.9465987808        0.2399337442
 C          0.8922705646       -0.0704161025       -0.9109925361
 C         -0.6821239485        0.6994117405        0.7913231908
 C         -1.3155487560       -0.2012032144       -0.3068840708
 C          2.1357931785       -0.9525767337       -0.8186171368
 H          1.5056888429        0.7575541198        1.0097359017
 H          0.9127797146        0.4943620155       -1.8550715876
 H         -0.6493807822        0.1485740594        1.7355109982
 H         -1.8229779229        0.4280280989       -1.0524242988
 H          2.2010730121       -1.3864170874        0.1834172898
 H          2.0647559505       -1.7451616320       -1.5658347596
 H          1.1512139304        2.8534106781        0.4210461481
 H         -1.2069238885        2.4948356344        0.3070561245
 H          6.0023811896       -0.4361074907       -0.2433699125
 H          4.1620234683        2.4729239522       -0.8556453719
  34
        -71.10378336
 O         -3.4981283122        0.3006614381       -1.4514633892
 O         -4.9833852017       -0.9900303534       -0.4095079808
 N         -1.4084543137       -0.7411489740        0.1810795297
 N         -2.8555964368       -2.2060676291        1.0121142683
 C         -2.7147730534       -1.1683764339        0.2045388993
 C         -0.7225983186       -1.5584592497        1.0155124154
 C         -1.6345692942       -2.4596572573        1.5113585991
 C         -3.8333735661       -0.6248696993       -0.5579502291
 H          0.3355073666       -1.4785195708        1.1531769731
 H         -1.4751252785       -3.2671564892        2.1954498116
 H         -4.2802199460        0.6169233774       -1.9475404741
 P          3.1351727028       -0.8965703759       -0.2974544591
 O          0.5336061006        0.3900419018       -0.4536924861
 O          0.0429883199        3.5616866887        1.0469333536
 O         -1.6944429987        2.6876408341       -0.7653815512
 O          3.2693213190        0.6895967702       -0.0317104406
 O          2.4880515801       -1.1186523827       -1.7038090476
 O          4.6442095896       -1.2828583392       -0.5705152418
 O          2.4814059093       -1.6089865364        0.8102183952
 C         -0.0736880853        2.1741476318        0.9695015764
 C          1.0430676503        1.5997597031        0.0879369003
 C         -1.3358118834        1.7347835666        0.1857866188
 C         -0.8722874092        0.4201609582       -0.4969595695
 C          2.3332088145        1.2953119589        0.8351459141
 H         -0.0530469270        1.6908339816        1.9514746565
 H          1.2522494150        2.3044489759       -0.7296547531
 H         -2.1903857706        1.5329465376        0.8462875927
 H         -1.2137344396        0.4087345977       -1.5402411216
 H          2.7886116988        2.2183996930        1.1959161732
 H          2.1212775354        0.6115030879        1.6626546589
 H         -0.3981546642        3.9009208092        1.8395950832
 H         -1.2245902226        3.5185504810       -0.5551301934
 H          2.9951487336       -0.7683624132       -2.4476204593
 H          5.2066691217       -1.3500197512        0.2077630806
  34
        -71.10377735
 O         -5.6254641219       -0.2915344039       -0.4849544857
 O         -3.8021175396        0.6204838128       -1.3826105182
 N         -2.2179588046       -1.1869635602        0.3208849719
 N         -4.1561402347       -2.0569418468        0.9537628923
 C         -3.5821566728       -1.1245614218        0.2140255213
 C         -1.9448834060       -2.2039629166        1.1753336461
 C         -3.1567521838       -2.7324476598        1.5474320203
 C         -4.3190378390       -0.1813390436       -0.6212783893
 H         -0.9402452693       -2.4758645174        1.4203360798
 H         -3.3624402182       -3.5522474854        2.2040457968
 H         -6.1111950909        0.3378603192       -1.0559555563
 P          3.9944818616        0.7936339185       -0.1984418478
 O         -0.1203080395       -1.0833802606       -0.6411926741
 O          0.5992390128        2.1212032634       -0.6544405780
 O         -1.4800815734        1.8420110883        0.9284385277
 O          3.4645434630       -0.7002558821       -0.3381607491
 O          3.9456793946        1.0603583953        1.3526144916
 O          5.5169810890        0.6173182330       -0.5263857863
 O          3.3001451653        1.7992158620       -1.0324749556
 C          0.7112898253        1.0059444319        0.1832833229
 C          1.0598314510       -0.2869802761       -0.5847533071
 C         -0.6872629901        0.7177749926        0.7670580884
 C         -1.2362221129       -0.3156928835       -0.2548318305
 C          2.1723874896       -1.1174194249        0.0580643350
 H          1.4411512878        1.1940908193        0.9793674102
 H          1.3630463096       -0.0274413625       -1.6081124142
 H         -0.6069988219        0.2301019031        1.7449325272
 H         -1.6878759203        0.2080972188       -1.1087365972
 H          2.0910723553       -1.0844027518        1.1480088013
 H          2.0791797401       -2.1492692293       -0.2890575681
 H          1.4943805001        2.3430489061       -0.9742897477
 H         -1.2396905858        2.4841674076        0.2369603804
 H          4.3847895470        1.8626900386        1.6589739427
 H          5.7510042148        0.6516110798       -1.4602536002
  34
        -71.10376167
 O         -5.1541898195       -1.0944782061        0.0068330854
 O         -4.0782545280        0.8219272250       -0.3517664002
 N         -1.5796493979       -0.7530440340       -0.4285472760
 N         -2.8703884975       -2.5321727732       -0.1324310154
 C         -2.8577967595       -1.2158559302       -0.2500777501
 C         -0.7712733045       -1.8415961763       -0.4189925485
 C         -1.5907074178       -2.9296692598       -0.2395007951
 C         -4.0599672752       -0.3906183381       -0.2041145314
 H          0.2887451113       -1.7615094505       -0.5410350796
 H         -1.3313533309       -3.9665309276       -0.1813073111
 H         -5.9563008384       -0.5338549349        0.0325372038
 P          3.2804707152       -0.3191324663        0.6549938141
 O         -0.3176029326        0.7451834493       -1.6977142708
 O          0.3372873972        3.3247817037        0.0361592752
 O         -1.0650922886        1.7145920085        1.6369213163
 O          2.1844736084       -0.4957496888       -0.4961582774
 O          2.3843410137       -0.1823584264        1.9389802714
 O          3.9037969776       -1.7580140821        0.8175752977
 O          4.2383990178        0.7693292614        0.3903500039
 C          0.7591438879        1.9897740030        0.0172273121
 C          0.9114738983        1.4075623158       -1.3910486215
 C         -0.3044930361        1.0738792337        0.6661452956
 C         -1.1376153528        0.6107552871       -0.5593195474
 C          2.1105982353        0.4658555413       -1.5371191692
 H          1.7028358147        1.9642877238        0.5665188817
 H          1.0368270375        2.2039152448       -2.1338580719
 H          0.1704331346        0.2011278678        1.1246805584
 H         -2.0388262946        1.2293667625       -0.6668643788
 H          2.0083135410       -0.0883863459       -2.4726083252
 H          3.0290840049        1.0585857776       -1.5383069189
 H         -0.3591958516        3.4693417712       -0.6226788219
 H         -0.9508339210        2.6783401874        1.5285244785
 H          2.8542053312       -0.1868141200        2.7808862756
 H          4.6603680317       -1.9555764931        0.2543155563
  34
        -71.10374527
 O         -3.0639782908       -1.6022194520        2.6260212614
 O         -1.5325452381       -0.1863475840        1.8426204479
 N         -2.7063430628       -0.7000210696       -0.8509473479
 N         -4.3801335981       -1.6243749448        0.2741386418
 C         -3.1809168460       -1.0827750066        0.3781818853
 C         -3.6674783411       -1.0365478632       -1.7490155705
 C         -4.6953655565       -1.5959760787       -1.0333004721
 C         -2.4986233957       -0.9073210403        1.6590585443
 H         -3.5551971295       -0.8549509991       -2.7971071481
 H         -5.6336015418       -1.9759341820       -1.3808945206
 H         -2.6310461173       -1.4591532454        3.4919843577
 P          3.7971367731        0.3006603549        0.0968278151
 O         -0.4046007206       -0.9119227500       -0.6594110242
 O          1.0207060131        2.2682869438       -0.7218647360
 O         -1.4236539193        2.2805503937       -1.6809428121
 O          2.5837078977        0.1009610990        1.1489487473
 O          3.7206094615        1.8221545842       -0.3209737738
 O          5.0791289049        0.2519631542        0.9910307980
 O          3.8038655758       -0.6862094407       -0.9922845064
 C          0.1955431120        1.3221606484       -0.0909326845
 C          0.7165409854       -0.0945105506       -0.3862962439
 C         -1.2430660076        1.3316234729       -0.6801766333
 C         -1.4384429650       -0.1215719995       -1.1965898465
 C          1.4936824457       -0.7098635728        0.7732507429
 H          0.1607785594        1.4787562092        0.9904829511
 H          1.3772925646       -0.0549751491       -1.2664184183
 H         -1.9798927487        1.5475426560        0.0960874539
 H         -1.3813678333       -0.1147485008       -2.2972606157
 H          0.8432580905       -0.7852954049        1.6468430781
 H          1.8402650691       -1.7003222387        0.4694308052
 H          0.7316109670        3.1586944072       -0.4612904038
 H         -0.6225008049        2.3302492561       -2.2314170897
 H          2.8467536568        2.1044984458       -0.6519945101
 H          5.1183470859        0.9087648407        1.6988345068
  34
        -71.10373230
 O         -2.1305743382        0.0406487802       -1.9037583198
 O         -2.0575943138       -2.1556452110       -2.2394757713
 N         -1.3558272413       -0.3506043031        0.8156916047
 N         -1.9096070932       -2.4892733042        0.5852923627
 C         -1.7404833080       -1.3456584436       -0.0475694001
 C         -1.2622450893       -0.9339372860        2.0389949677
 C         -1.6217403556       -2.2456573141        1.8775095860
 C         -1.9722108557       -1.2084439709       -1.4842884702
 H         -0.9561880449       -0.4152836991        2.9209750822
 H         -1.6907878023       -3.0215950194        2.6115591040
 H         -2.2917392926        0.0772682817       -2.8683720301
 P          1.9428090925       -1.0454238846       -0.5050379418
 O          0.1120572797        0.9315635145       -0.4580484062
 O         -0.3511936814        3.9231350316        0.2303997955
 O         -1.5715923871        2.6074000980        2.2117896094
 O          2.7072274635        0.3668955790       -0.6803986547
 O          0.9765534277       -1.2433434291       -1.7259273816
 O          3.1089900405       -2.0466097535       -0.9037788007
 O          1.3895196633       -1.2552050601        0.8403084541
 C          0.3767812796        2.9010077276        0.8452636381
 C          1.0101891171        2.0143473528       -0.2312062688
 C         -0.5369713589        1.9074588062        1.5939414887
 C         -0.9836221661        0.9889676681        0.4377447626
 C          2.3624112022        1.4276881230        0.1850043915
 H          1.1371251957        3.3231949578        1.5152767407
 H          1.1059641450        2.5646711561       -1.1731443765
 H          0.0730869583        1.3406072480        2.3064659086
 H         -1.8379671306        1.4558125128       -0.0794324977
 H          3.1585845613        2.1670400891        0.1012280302
 H          2.2930814074        1.0403629595        1.2058935232
 H         -1.0090899541        4.2562063215        0.8633736806
 H         -2.1221430499        2.0214139297        2.7490093227
 H          1.4577617462       -1.3069185924       -2.5615985110
 H          3.7484276204       -2.2418140970       -0.2113288392
  34
        -71.10369244
 O         -3.3597372531        0.5210007908       -1.4571710591
 O         -4.7801624814       -1.1047546062       -0.9290075405
 N         -1.3526242719       -0.6971185738        0.2149861252
 N         -2.7542604289       -2.3840752765        0.5417511690
 C         -2.6028090830       -1.2074444439       -0.0413018540
 C         -0.7167726573       -1.6057230588        0.9957837427
 C         -1.5981926175       -2.6435544232        1.1760409255
 C         -3.6749274452       -0.6092665850       -0.8315267376
 H          0.2951087026       -1.4682347216        1.3166023775
 H         -1.4635096498       -3.5517185791        1.7261802618
 H         -4.1214960183        0.8684025822       -1.9648655974
 P          2.9886811807       -0.9415195994       -0.1730697605
 O          0.5797912346        0.4694384589       -0.3336122896
 O         -0.1249169180        3.8055331473        0.2121030489
 O         -2.2064871416        2.3083634577        0.7745591494
 O          3.2636831644        0.6259237221       -0.4398202267
 O          2.1178040431       -1.5142108790       -1.3405355611
 O          4.4081885637       -1.5542571635       -0.5174650725
 O          2.4897790106       -1.2237664145        1.1812401743
 C          0.2325256165        2.5747982539        0.7620533585
 C          1.1540112474        1.7605040849       -0.1816738571
 C         -0.9972842758        1.6430044892        0.9675391648
 C         -0.8079932611        0.5803533306       -0.1442090357
 C          2.5665203881        1.5625516734        0.3553682871
 H          0.7431993506        2.7731850835        1.7092183864
 H          1.1909244629        2.2576499155       -1.1613039468
 H         -0.9432391509        1.1443407281        1.9410849332
 H         -1.3026837992        0.9318335103       -1.0602278974
 H          3.1311740192        2.4940113098        0.3166721032
 H          2.5080859663        1.1800764967        1.3787890780
 H         -1.0332377086        3.7387716171       -0.1380875558
 H         -2.4887604161        2.7494756149        1.5898398575
 H          2.5211246371       -1.4425250734       -2.2149873211
 H          5.0863873663       -1.4523585324        0.1576876034
  34
        -71.10369092
 O         -3.3694611544       -2.3283775513       -1.5844576489
 O         -3.4021496859       -0.1025394268       -1.6262231746
 N         -1.2672039724       -0.1922037982        0.4280212834
 N         -1.8115560226       -2.3369199610        0.6358071997
 C         -2.0151998918       -1.2343391174       -0.0607995499
 C         -0.5509247959       -0.6999024803        1.4643194983
 C         -0.9102104431       -2.0195943396        1.5812221506
 C         -2.9765408316       -1.1467717799       -1.1570951954
 H          0.1403331874       -0.1231270941        2.0386874386
 H         -0.5604026938       -2.7456562928        2.2850415716
 H         -4.0407022782       -2.2620091120       -2.2943725216
 P          2.2837760608       -1.3187880000       -0.0279308028
 O         -0.0193208025        1.1977037559       -0.9992862436
 O          0.8532927212        3.8163987048        1.2286127342
 O         -1.6142060974        3.4351068752        0.4564466192
 O          2.2289425663        0.1768772758        0.5022631052
 O          1.1583569454       -1.4168015213       -1.1268506045
 O          3.6128834601       -1.4298337729       -0.8989898774
 O          2.2075977265       -2.2573681567        1.0980063788
 C          0.5147021116        2.5002240337        0.9382512265
 C          0.9967096683        2.0310272136       -0.4549463463
 C         -1.0109523598        2.2474093026        0.8872200427
 C         -1.1479362966        1.1262177132       -0.1623295427
 C          2.3265979444        1.2804891369       -0.3952411279
 H          0.9836859785        1.8794944013        1.7069374016
 H          1.1161825336        2.8989879603       -1.1166714544
 H         -1.4046254876        1.9290906291        1.8582076027
 H         -2.0329485575        1.2707531217       -0.7936804137
 H          2.5950293018        0.9287894011       -1.3916313062
 H          3.0963320508        1.9476794029       -0.0023137039
 H          0.1878179492        4.4011450127        0.8251950478
 H         -2.5760911581        3.3873116237        0.5429312459
 H          1.3203449500       -2.0830240025       -1.8043042963
 H          4.3780749300       -1.7527430828       -0.4107545509
  34
        -71.10365515
 O         -3.5947887342        0.6881530484       -1.0665952156
 O         -4.8185179128       -1.1658476791       -1.0818504915
 N         -1.4016929666       -0.7955552601        0.1241380452
 N         -2.7598598060       -2.5477678170        0.2084697548
 C         -2.6497576700       -1.2898546337       -0.1799426067
 C         -0.7246239910       -1.8077384151        0.7222396218
 C         -1.5807267784       -2.8794498102        0.7621132076
 C         -3.7757229333       -0.6054236275       -0.8097058275
 H          0.2862545892       -1.6886767266        1.0492540226
 H         -1.4162952848       -3.8597858972        1.1588620585
 H         -4.3948599761        1.0854825202       -1.4682791982
 P          2.7874890588       -0.6064761367        0.1509918637
 O          0.3292968534        0.3945438816       -0.9054942731
 O          0.4560924266        3.5403848403        0.6720772288
 O         -1.5415396854        2.0808203541        1.5310703208
 O          3.1807550456        0.7476679994       -0.6116620507
 O          2.1885823198       -1.6427363055       -0.8609896588
 O          4.2454222245       -1.1672762801        0.3948854800
 O          2.0038493337       -0.4366825303        1.3859498228
 C          0.7285379271        2.1748673295        0.6073379799
 C          0.9138920253        1.6843297249       -0.8501851398
 C         -0.4548788026        1.3012613356        1.1240223903
 C         -0.8528755162        0.4982866808       -0.1380973177
 C          2.3424622838        1.6109154291       -1.3547667345
 H          1.6325975035        1.9802928514        1.1883101449
 H          0.3553918480        2.3686736975       -1.5087545818
 H         -0.1100230590        0.6152491076        1.8999780099
 H         -1.5992279608        1.0890685187       -0.6865860517
 H          2.3254928063        1.2715834158       -2.3943094021
 H          2.7983835983        2.6017180978       -1.2891112408
 H         -0.5125191355        3.6539595765        0.7203202975
 H         -1.4722869799        2.2885944316        2.4741442300
 H          2.8101758962       -1.9748894206       -1.5205374872
 H          4.7287361374       -0.7626584626        1.1217557327
  34
        -71.10363846
 O         -1.4499138753       -2.1289665720        2.0811384491
 O         -1.0040872782        0.0353337458        1.8208857845
 N         -1.8058238559       -0.3816704978       -1.0606448555
 N         -2.6733646328       -2.2699365696       -0.2856097798
 C         -1.9332294531       -1.2205282441        0.0175724155
 C         -2.4964688213       -0.9668258367       -2.0758200066
 C         -3.0317099262       -2.1239223840       -1.5750236280
 C         -1.3984729076       -1.0236395741        1.3670775525
 H         -2.5574896212       -0.5242288374       -3.0476463083
 H         -3.6490105486       -2.8510234126       -2.0604907708
 H         -1.1655536325       -1.9887601624        3.0067266723
 P          2.4521613857       -1.0229252484        0.2787471592
 O          0.3204214458        0.5878962692       -1.0400595912
 O          0.0318741848        3.8390682210        0.3032728623
 O         -2.0974680024        3.0132311523       -0.9727119895
 O          2.2216740032        0.4373409897        0.8811161491
 O          3.4129034344       -1.6836686258        1.3473696154
 O          1.0651535761       -1.7799895791        0.4633567429
 O          3.0155387426       -1.0671852678       -1.0756213481
 C         -0.1061158478        2.4483246460        0.3325698063
 C          0.9078341508        1.8059336008       -0.6303608686
 C         -1.4658715377        1.9908711054       -0.2622984458
 C         -1.0620018959        0.8332851434       -1.2179126666
 C          2.2754350198        1.5232354011       -0.0261895297
 H          0.0242627776        2.0229075920        1.3289091077
 H          1.0341859530        2.4778869046       -1.4935653153
 H         -2.1440949528        1.6256175146        0.5144237324
 H         -1.2419219006        1.1851691166       -2.2473367874
 H          2.9736132045        1.2737669980       -0.8291458359
 H          2.6226583418        2.3917021295        0.5346663636
 H         -0.2792005476        4.2244479929        1.1354789963
 H         -1.5244011186        3.8053180740       -0.9265887633
 H          3.1887920888       -1.5566544498        2.2778770278
 H          1.0793531815       -2.6212884294       -0.0055333186
  34
        -71.10363413
 O         -1.4528336322       -0.9184171285       -1.9083980991
 O         -0.1398356127       -2.4985968286       -1.0431641771
 N         -1.8971952511       -0.0749691963        0.8436991098
 N         -2.0753757922       -2.2539556068        1.2031593511
 C         -1.6281477098       -1.3303980521        0.3790080621
 C         -2.5666949895       -0.2377528974        2.0196064516
 C         -2.6708895397       -1.5874329330        2.2182577396
 C         -0.9816786604       -1.6308520243       -0.9099928401
 H         -2.9285985780        0.5904090601        2.5911838935
 H         -3.1358152989       -2.1202881529        3.0214440241
 H         -0.9413408695       -1.0576720344       -2.7308414505
 P          2.1876003334       -0.9913297267       -1.0273235221
 O         -0.3494904574        1.0162772934       -0.5533281329
 O          0.1314689700        3.8847646614        0.0482158476
 O         -2.0675168681        3.2717181414        1.4293003148
 O          1.5062727217       -0.7807536897        0.4021232399
 O          3.5796383567       -0.2632868670       -0.8153739716
 O          2.5743045984       -2.5134222270       -1.0076654070
 O          1.4674220695       -0.5151210251       -2.2234280320
 C          0.2673306856        2.7549733563        0.8606355702
 C          0.7980662195        1.5337610015        0.1047505837
 C         -1.1263826734        2.2552079241        1.3300838755
 C         -1.4882432033        1.1868927389        0.2517170146
 C          1.4442143753        0.4907447347        1.0247952898
 H          0.8998388465        3.0480457836        1.6989360387
 H          1.5032254073        1.7873321294       -0.6912145957
 H         -1.0378692370        1.7754412332        2.3093891540
 H         -2.3057511105        1.5412536171       -0.3922414210
 H          2.4506139072        0.8183933442        1.2968678299
 H          0.8482281455        0.3254319617        1.9256205893
 H         -0.1470193556        3.6209935646       -0.8425418416
 H         -1.7362618222        4.0488203850        0.9393505428
 H          4.1329704070       -0.2292511560       -1.6035636707
 H          1.8135541405       -3.0996756974       -1.1033919906
  34
        -71.10362679
 O         -1.6731649405       -0.5705040045       -2.0714477935
 O         -0.3633207532       -2.2944758142       -1.5454715061
 N         -1.8639488101       -0.0462102460        0.7665655551
 N         -2.0322335688       -2.2525375576        0.9079529967
 C         -1.6408619988       -1.2465278469        0.1552519914
 C         -2.4410071363       -0.3332413814        1.9671314163
 C         -2.5403278108       -1.6967116865        2.0306250628
 C         -1.1358748151       -1.4169054661       -1.2163085063
 H         -2.7612557059        0.4239217734        2.6506265243
 H         -2.9469112809       -2.3098283676        2.8079543769
 H         -1.3478589049       -0.7031338843       -2.9848191631
 P          2.3582362244       -1.1283387504       -0.7692514035
 O         -0.3221576430        1.1407631727       -0.5482570682
 O          0.2600793037        3.9146054514        0.2703465518
 O         -2.0200098994        3.3105008008        1.4974560520
 O          1.2816062807       -0.8356603922        0.3751225701
 O          2.2926540598       -2.6827065782       -0.9301754594
 O          1.7316496631       -0.4813657887       -2.0790707538
 O          3.7007879640       -0.6111192636       -0.4566641558
 C          0.3189978770        2.7306427975        1.0112539234
 C          0.8232235449        1.5384390368        0.1931151319
 C         -1.1118986645        2.2632428200        1.3990072609
 C         -1.4665709873        1.2569586858        0.2607557241
 C          1.3621955140        0.3962800984        1.0675421606
 H          0.9338445156        2.9397198106        1.8868408782
 H          1.5827559643        1.8099228451       -0.5434644115
 H         -1.0808358516        1.7456391519        2.3614888269
 H         -2.2806983187        1.6461816316       -0.3659538314
 H          2.4034567288        0.5995180619        1.3323676669
 H          0.7633442965        0.2570975988        1.9698178496
 H         -0.0040466311        3.7215416122       -0.6432635957
 H         -1.6253591159        4.1004757433        1.0799827113
 H          1.3968841444       -3.0047092028       -1.1294373803
 H          2.3789542121       -0.3496299584       -2.7817132114
  34
        -71.10362458
 O         -5.1612760810       -0.8719590771       -0.4824017246
 O         -3.7504083488        0.5673597716       -1.4322867131
 N         -1.6056828589       -0.7065278147        0.1281016370
 N         -3.1126770666       -2.2410748253        0.6703106591
 C         -2.9171738580       -1.0931853136        0.0452811704
 C         -0.9676528791       -1.6631573596        0.8470041957
 C         -1.9159573982       -2.6057445982        1.1631154610
 C         -3.9570163987       -0.3756064250       -0.6864448142
 H          0.0836518853       -1.6225566521        1.0404689613
 H         -1.8028017325       -3.5168427916        1.7133784797
 H         -5.8471962526       -0.3965359683       -0.9937058260
 P          3.6241205427       -0.6152165844       -0.2464343205
 O          0.3293403660        0.3434664339       -0.6561858269
 O          0.0318011075        3.3502996772       -0.4295821454
 O         -2.2107500489        2.4536804418        0.6776726574
 O          2.4019055143       -0.7095722592        0.8071469326
 O          4.3266114921       -2.0090408954       -0.0407375467
 O          3.0328778408       -0.7239375361       -1.6922251573
 O          4.4349150044        0.5944000549       -0.0416815451
 C          0.2472587889        2.3741571595        0.5515466639
 C          1.1606744666        1.2363586974        0.0780984385
 C         -1.0948592788        1.6380597473        0.7569798256
 C         -1.0250566856        0.5310918769       -0.3366463588
 C          1.8547292915        0.5193157632        1.2420932097
 H          0.6074116800        2.8190911651        1.4848410626
 H          1.9335624793        1.5724205010       -0.6211847787
 H         -1.1233394396        1.1622869067        1.7431136299
 H         -1.5817263792        0.8466058603       -1.2287482650
 H          2.6556305049        1.1604145072        1.6198375610
 H          1.1554182626        0.2703520747        2.0420675274
 H          0.8144657248        3.9090726215       -0.5329176312
 H         -2.0610309022        3.1165077346       -0.0189043272
 H          4.8540892126       -2.1039182908        0.7599677621
 H          2.6442761700       -1.5747969791       -1.9277814884
  34
        -71.10359645
 O         -3.5493593411        0.2411747072       -1.4399558568
 O         -5.0341141490       -0.9194695007       -0.2527028700
 N         -1.4335051373       -0.7439082890        0.1897431908
 N         -2.8839378104       -2.1232084689        1.1517466909
 C         -2.7489307313       -1.1330462093        0.2867640471
 C         -0.7364156874       -1.5380019934        1.0385866630
 C         -1.6509741532       -2.3859928244        1.6160475195
 C         -3.8805229448       -0.6058706404       -0.4697299605
 H          0.3285059628       -1.4885963469        1.1305720001
 H         -1.4848198615       -3.1625452096        2.3334956677
 H         -4.3379645112        0.5469698613       -1.9323329699
 P          3.2111887542       -0.8671247057       -0.3344817677
 O          0.5051611400        0.3600791274       -0.5485453078
 O          0.0127279533        3.4824517633        1.0471466010
 O         -1.5628221828        2.6636522249       -0.9569863014
 O          3.2808588174        0.6583089054        0.1834454088
 O          2.7468619044       -0.8128289215       -1.8467082771
 O          4.7224650939       -1.2420222047       -0.4651762012
 O          2.4523341104       -1.7500803541        0.5621860611
 C         -0.1427678204        2.1015121813        0.9295534739
 C          1.0202393627        1.5104967227        0.1211694380
 C         -1.3549813068        1.7205078230        0.0475604522
 C         -0.9026119897        0.3749017933       -0.5652774319
 C          2.2169811697        1.1305636362        0.9825726659
 H         -0.2116187840        1.5984401587        1.8997272473
 H          1.3414449265        2.2410737328       -0.6337412845
 H         -2.2742269727        1.5843241239        0.6335027557
 H         -1.2567830466        0.3025990727       -1.6005630074
 H          2.5895125644        2.0131372737        1.5048806558
 H          1.9305383946        0.3505955718        1.6943968170
 H         -0.4692030166        3.8216810166        1.8155659273
 H         -1.1345796814        3.4977293806       -0.6839606211
 H          1.7995034555       -0.6825981990       -1.9578425235
 H          5.2378351884       -0.6967805002       -1.0734821983
  34
        -71.10353841
 O         -2.9550523915       -2.4166340209        2.1048723204
 O         -1.4524364406       -0.7878854993        1.8958195180
 N         -2.7405715721       -0.2563161491       -0.7712563147
 N         -4.4313958380       -1.4082933852        0.0873596725
 C         -3.1804260096       -1.0284683193        0.2730541153
 C         -3.7811801406       -0.1689171893       -1.6398893866
 C         -4.8172730976       -0.8762616598       -1.0865470894
 C         -2.4311011391       -1.3831999292        1.4774221956
 H         -3.7104913293        0.3768537034       -2.5570468863
 H         -5.8075184293       -1.0313969167       -1.4616925875
 H         -2.4872925212       -2.6241930735        2.9395062338
 P          3.7986042163        0.0638079129        0.0553599884
 O         -0.4447569172       -0.6558630699       -0.8434097508
 O          0.8344470158        2.3196172029       -1.2166837064
 O         -1.6409660927        2.7035538685       -0.4538998614
 O          2.6050180137       -0.1514949560        1.1176470573
 O          3.6891818821        1.5717111937       -0.3954227255
 O          5.0704157416        0.0847506588        0.9794444276
 O          3.7819804313       -0.8974532290       -1.0557940808
 C          0.4648363453        1.4574614021       -0.1714472452
 C          0.7766306535       -0.0185400731       -0.4831832938
 C         -1.0739717042        1.4941450741       -0.0798113760
 C         -1.4491609087        0.3169994288       -1.0159706734
 C          1.4088847579       -0.7676840204        0.6886467553
 H          0.9280349936        1.7619947636        0.7720959043
 H          1.4668096794       -0.0750417947       -1.3372317957
 H         -1.4037833843        1.2604505552        0.9354508840
 H         -1.4517727258        0.6821205385       -2.0560506683
 H          0.7299766960       -0.7639528730        1.5432851309
 H          1.6055477936       -1.7935076877        0.3678735792
 H          1.7996571211        2.3521677793       -1.2908948960
 H         -1.0575206850        3.1235961506       -1.1117527249
 H          4.1417297862        2.1839324191        0.2009183721
 H          5.3887228137       -0.7706204733        1.2886864606
  34
        -71.10352199
 O         -5.2624132077       -0.7940641625       -0.7963525084
 O         -3.4986050504        0.3840977574       -1.4870120512
 N         -1.9216431506       -0.9229670380        0.5679776306
 N         -3.8021364237       -1.8734409432        1.2659457120
 C         -3.2687785145       -1.0758552357        0.3567700914
 C         -1.6168325783       -1.6623551619        1.6585776915
 C         -2.7943610414       -2.2424499862        2.0728762607
 C         -4.0014384648       -0.4286424592       -0.7223978834
 H         -0.6156695903       -1.7317771582        2.0270786512
 H         -2.9649800842       -2.8965712679        2.9026553556
 H         -5.7449135526       -0.3391571043       -1.5168313902
 P          3.8249100122       -0.3005397229       -0.5900343197
 O          0.3074670436       -0.4317771700        0.1485298596
 O          0.4043799826        3.1161503942        0.7129543810
 O         -1.2004064165        2.1300757085       -1.1632390945
 O          3.1440022246       -0.4114939684        0.8359929044
 O          2.7251149157       -0.6727002127       -1.6758641500
 O          4.0290480011        1.2560881895       -0.7771684726
 O          5.0299252171       -1.1374137814       -0.6802143053
 C          0.0161967243        1.7933314582        0.8542304121
 C          1.0472583223        0.7651271668        0.3420205571
 C         -1.2268327964        1.4019441317        0.0272363766
 C         -1.0130525326       -0.1185166602       -0.2134097432
 C          2.1908149184        0.5297271936        1.3116293433
 H         -0.1693686739        1.6225910236        1.9194665925
 H          1.4520162523        1.1073024997       -0.6197285177
 H         -2.1590302875        1.5778007323        0.5771518059
 H         -1.1805089947       -0.3447036769       -1.2773832724
 H          2.6790691735        1.4889399598        1.4996970597
 H          1.8199867458        0.1019935361        2.2451719463
 H          0.2446380205        3.3903872299       -0.2067117480
 H         -1.9970319177        1.9221278520       -1.6773968571
 H          2.8858748488       -1.5218586775       -2.0989173169
 H          4.7235053845        1.4956512435       -1.4011225870
  34
        -71.10348428
 O         -3.1434425550       -1.4459148357        2.6618005915
 O         -1.6820045780        0.0342628329        1.8646942669
 N         -2.6697024702       -0.7461367612       -0.8439227504
 N         -4.3623893961       -1.6578123134        0.2625821555
 C         -3.1908578165       -1.0615319666        0.3845566212
 C         -3.5708435332       -1.1819594398       -1.7610271993
 C         -4.6120986243       -1.7319439796       -1.0574225644
 C         -2.5828630259       -0.7661904442        1.6810565732
 H         -3.4108048431       -1.0673978227       -2.8123702676
 H         -5.5170294877       -2.1721318868       -1.4218547124
 H         -2.7697219875       -1.2171453039        3.5370459486
 P          3.8531328723        0.1265139647        0.0853574405
 O         -0.3773537227       -0.8233124015       -0.4957036701
 O          0.8827929172        2.4338347582       -0.6766618351
 O         -1.4072429410        2.1875464034       -1.9023319903
 O          2.6417118949        0.3706088068        1.1284360821
 O          3.7667701331        1.2370668103       -1.0175428885
 O          5.0993327107        0.5836420899        0.9348150833
 O          3.8663159443       -1.2392461108       -0.4573498510
 C          0.0667365077        1.4733889149       -0.0729324132
 C          0.6852247421        0.0755649577       -0.2560258105
 C         -1.3132039664        1.3649208348       -0.7830403200
 C         -1.4100484682       -0.1387076858       -1.1663282539
 C          1.4794511924       -0.4060960107        0.9509620408
 H         -0.0775206008        1.6653049174        0.9925608892
 H          1.3658655771        0.1024389170       -1.1234554649
 H         -2.1292333306        1.6240216265       -0.1029378337
 H         -1.2803631257       -0.2233458848       -2.2574298299
 H          0.8817680190       -0.3078070987        1.8588453414
 H          1.7480925383       -1.4527971675        0.7834178646
 H          0.6692696939        3.3104832111       -0.3212041889
 H         -0.5020846917        2.4305049008       -2.1799665468
 H          3.9905656458        2.1275949451       -0.7190434127
 H          5.3874695911       -0.0227249772        1.6256853437
  34
        -71.10348012
 O         -0.6652885248       -2.9645365857       -0.5623447859
 O         -0.6002473034       -1.1798567637       -1.8921915574
 N         -2.1004980679        0.1912171149        0.3790675114
 N         -2.7789732523       -1.8869225889        0.7454196054
 C         -1.9030962389       -1.1344586188        0.1033847240
 C         -3.1627155508        0.2487754807        1.2292376196
 C         -3.5671557323       -1.0433227932        1.4386604527
 C         -0.9758076163       -1.7243011621       -0.8668848686
 H         -3.5396219776        1.1800179814        1.5976987478
 H         -4.3739919603       -1.4115571665        2.0375931445
 H         -0.1219489338       -3.3936218500       -1.2535272927
 P          2.4672205582       -1.0504174033       -0.7443622523
 O         -0.1202647582        1.0858802962       -0.5822739824
 O          0.5135585144        3.8237519335        0.4126312859
 O         -1.9151729128        3.3993365565        1.3005367016
 O          1.3266676768       -0.9599573177        0.3977459306
 O          2.4235264509       -2.5939644503       -1.0622649261
 O          1.9563285120       -0.3671942284       -2.0546985709
 O          3.7538614869       -0.5034109079       -0.2856713125
 C          0.4132016190        2.6163910345        1.1141185842
 C          0.9337146166        1.4158266205        0.3127678442
 C         -1.0921207321        2.2861060155        1.2382629919
 C         -1.3573416351        1.3817890619       -0.0107206170
 C          1.2978967012        0.2103017528        1.1882801520
 H          0.8912404547        2.6832354471        2.0968666885
 H          1.7925586870        1.6572968452       -0.3202951238
 H         -1.2684887047        1.7028441067        2.1476471820
 H         -1.9575486188        1.9212714938       -0.7572717843
 H          2.2807519370        0.3701420931        1.6397651271
 H          0.5468408154        0.0216671949        1.9582904695
 H          1.4323379387        4.1210251813        0.3688549189
 H         -1.5028725524        4.1190224493        0.7904432098
 H          3.0171743358       -3.1307097040       -0.5245484491
 H          1.0423790686       -0.5993188839       -2.3085749741
  34
        -71.10347299
 O         -5.4918743499       -0.7707218229       -0.5767564834
 O         -3.7621352590        0.4368204633       -1.3017146246
 N         -2.0684117588       -1.0383281474        0.5391701010
 N         -3.9152834016       -2.0025341206        1.3046989417
 C         -3.4302478183       -1.1531722259        0.4156525548
 C         -1.7039534002       -1.8559317809        1.5531811833
 C         -2.8614949537       -2.4429186057        2.0109302968
 C         -4.2237744273       -0.4230676662       -0.5629138918
 H         -0.6808745099       -1.9663504341        1.8422615761
 H         -2.9880235661       -3.1492541799        2.8049847737
 H         -6.0132360215       -0.2650681724       -1.2333052685
 P          4.0475606290        0.0622775778       -0.6936056684
 O          0.1365872542       -0.5676524730       -0.0060173091
 O          0.3693696232        2.9382070612        0.7574955424
 O         -1.4096683398        2.1059542329       -1.0426305625
 O          3.0536797777       -0.5662465696        0.4104843434
 O          5.1880373754        0.7810370622        0.1112177961
 O          4.7356898000       -1.2374582350       -1.2498719725
 O          3.4036689636        0.9498247431       -1.6721288478
 C         -0.0394481749        1.6165947391        0.8430715892
 C          0.9225253284        0.6011850492        0.1923775970
 C         -1.3544087811        1.3035845827        0.0979994387
 C         -1.1978818773       -0.2025704620       -0.2521768112
 C          2.1323161451        0.2902163948        1.0592067411
 H         -0.1465324851        1.3845533659        1.9077685904
 H          1.2691343751        0.9848257218       -0.7760485481
 H         -2.2340916822        1.4618318836        0.7334365739
 H         -1.4454993315       -0.3536312409       -1.3140691322
 H          2.6079231240        1.2402056285        1.3189897681
 H          1.8236545128       -0.2420200114        1.9617732462
 H          0.1900710445        3.2612395143       -0.1417045872
 H         -2.2497035185        1.9428567730       -1.5014229437
 H          5.7357482861        0.2006413144        0.6563438477
 H          4.2071476948       -1.7546658597       -1.8662648156
  34
        -71.10346779
 O         -3.5344981995        0.3116506836       -1.3963281565
 O         -4.9889117300       -1.0161175426       -0.3577973198
 N         -1.4093889865       -0.7157248806        0.1927335806
 N         -2.8405393116       -2.1475681092        1.1058147611
 C         -2.7166252256       -1.1395551546        0.2594144313
 C         -0.7068719530       -1.5065949675        1.0372333482
 C         -1.6097484545       -2.3862050397        1.5865308026
 C         -3.8479850284       -0.6244175237       -0.5027117310
 H          0.3553430878       -1.4352768303        1.1407209628
 H         -1.4357772656       -3.1687142934        2.2956358312
 H         -4.3261459486        0.6058807984       -1.8912682645
 P          3.1706360281       -0.9021067210       -0.3101982785
 O          0.5166819725        0.4110744349       -0.5588701290
 O         -0.0397568409        3.5049584882        1.1641287680
 O         -1.6278137844        2.7416701562       -0.8836949908
 O          3.2611377077        0.6519176548        0.1145292812
 O          2.6021725969       -0.9892146590       -1.7651732617
 O          4.6969507771       -1.2434926940       -0.5329838106
 O          2.4582527871       -1.7226995560        0.6799488089
 C         -0.1372922785        2.1384524098        0.9325971775
 C          1.0310226004        1.5628744294        0.1090036657
 C         -1.3506185458        1.7482896636        0.0548189518
 C         -0.8895341961        0.4083029820       -0.5641157113
 C          2.2412137446        1.1725538303        0.9427014639
 H         -0.1882134052        1.6277848168        1.9005010967
 H          1.3576337152        2.2923680490       -0.6458249106
 H         -2.2604439772        1.6269171450        0.6456231615
 H         -1.2418037498        0.3039241460       -1.5986634284
 H          2.6513039824        2.0549307186        1.4362302678
 H          1.9552878562        0.4167643626        1.6796421064
 H         -0.5684675240        3.9729122293        0.4903427549
 H         -0.9702326514        2.7390786942       -1.5958795831
 H          3.1596353439       -0.5900025899       -2.4452906382
 H          5.2209455402       -1.3652756406        0.2652283176
  34
        -71.10345241
 O         -2.8517309935       -1.6765398507        2.3793061569
 O         -1.8135615073        0.2228607685        1.8494317032
 N         -2.0972929845       -0.6463874898       -0.9921633589
 N         -3.5899920466       -2.0774525649       -0.1909126117
 C         -2.6799452367       -1.1774292851        0.1299666319
 C         -2.6799834344       -1.2649516417       -2.0515284764
 C         -3.6054319237       -2.1358588228       -1.5356697812
 C         -2.3889869698       -0.7971538044        1.5127569982
 H         -2.4033499716       -1.0410940160       -3.0601916523
 H         -4.2745188774       -2.7947763128       -2.0491067125
 H         -2.7004511828       -1.4029304507        3.3066798255
 P          3.3842434178       -0.4292419123        0.0768809466
 O          0.0306727884       -0.0915420511       -0.2637165785
 O          0.2558271043        3.4582570558       -0.1310068074
 O         -1.5465798658        2.5098323094       -1.8564212812
 O          2.3558353948       -0.3363000794        1.3122493573
 O          4.4346873662       -1.4647624049        0.6325513310
 O          2.6783588616       -1.2316982161       -1.0719317361
 O          3.9059912534        0.8739720642       -0.3629399923
 C         -0.2576952612        2.2149776632        0.2227441408
 C          0.7609417551        1.0606499135        0.1148971245
 C         -1.4297886756        1.7482374496       -0.6898664747
 C         -1.0329469272        0.3103826836       -1.0920300749
 C          1.4986696201        0.7850789066        1.4133173803
 H         -0.6068515443        2.3055200232        1.2526544975
 H          1.5010733371        1.2900788490       -0.6671576492
 H         -2.3699474070        1.7341310391       -0.1271478554
 H         -0.7118963966        0.3389912672       -2.1464709000
 H          2.0773231356        1.6746333932        1.6749118511
 H          0.7818113301        0.5398105621        2.1994036728
 H          0.5750555004        3.4362042253       -1.0478612027
 H         -1.8039932558        3.4158196368       -1.6237116939
 H          5.0714526902       -1.1175132274        1.2667836924
 H          2.4421671702       -2.1402678987       -0.8469652360
  34
        -71.10342423
 O         -1.5778539620       -0.6504767119       -2.0739348582
 O         -0.3074219834       -2.3598886588       -1.4195702738
 N         -1.9147428071       -0.0263000969        0.7289925840
 N         -2.1312203936       -2.2239427417        0.9263477076
 C         -1.6733840395       -1.2482363813        0.1706778633
 C         -2.5754402979       -0.2658006722        1.8965304836
 C         -2.7029391958       -1.6247356157        1.9952091635
 C         -1.0910830572       -1.4681678565       -1.1631137984
 H         -2.9230925585        0.5199228777        2.5329356530
 H         -3.1711312119       -2.2065575147        2.7618776586
 H         -1.1949727910       -0.8084114321       -2.9599013164
 P          2.3796232871       -1.1054871518       -0.7886866527
 O         -0.2998182351        1.1033523672       -0.5451029207
 O          0.2132248511        3.8929359494        0.2832206686
 O         -2.0280014314        3.2952731596        1.4987904391
 O          1.3250823783       -0.8398065555        0.3821884628
 O          2.3889783916       -2.6655497936       -0.9108323485
 O          1.6944213603       -0.5283344908       -2.1009701314
 O          3.7031040939       -0.5155767157       -0.5246772672
 C          0.3200175882        2.7139289546        1.0296914576
 C          0.8318623092        1.5282320087        0.1966203769
 C         -1.1186121724        2.2556409137        1.3772123350
 C         -1.4610927148        1.2605199114        0.2241371193
 C          1.3906007462        0.3945689943        1.0711457509
 H          0.9199539423        2.8619307295        1.9327843485
 H          1.5807794440        1.8103715500       -0.5467416028
 H         -1.1073130256        1.7233063149        2.3318424754
 H         -2.2424182641        1.6723144732       -0.4289668441
 H          2.4303406130        0.6107058315        1.3324728713
 H          0.7943077543        0.2483125392        1.9742202923
 H          1.0806273360        4.3017276349        0.1600144049
 H         -1.7606159388        4.0127425136        0.8967285585
 H          1.5061918188       -3.0384793017       -1.0705793617
 H          2.3292154488       -0.3384815861       -2.8018322766
  34
        -71.10337450
 O         -3.5795315331        0.2910361802       -1.3808920115
 O         -5.0018400992       -1.1102916695       -0.3979162696
 N         -1.4429227579       -0.7056009780        0.2245010394
 N         -2.8721747321       -2.1271862984        1.1579824015
 C         -2.7469373925       -1.1403196081        0.2872999569
 C         -0.7445588354       -1.4695107163        1.0988322146
 C         -1.6460669210       -2.3422862963        1.6604595181
 C         -3.8754537217       -0.6681341143       -0.5053215612
 H          0.3159000653       -1.3903022741        1.2144676591
 H         -1.4738770319       -3.1043704264        2.3918693846
 H         -4.3646230008        0.5275909828       -1.9162495523
 P          3.2033533935       -0.8708314716       -0.3494304918
 O          0.4945922870        0.3731922133       -0.5467873654
 O          0.0043835995        3.4684682617        1.2094837082
 O         -1.4859390440        2.6972863329       -0.9773506608
 O          3.2861649892        0.6496239829        0.1805965741
 O          2.7303220017       -0.7984580116       -1.8589840341
 O          4.7116679185       -1.2536953011       -0.4926051269
 O          2.4416133883       -1.7578618568        0.5404347372
 C         -0.1302178419        2.1132304702        0.9442718331
 C          1.0283106363        1.5146767659        0.1271557597
 C         -1.3458382325        1.7582652626        0.0521990618
 C         -0.9118915338        0.4021334951       -0.5481896569
 C          2.2238485075        1.1229996772        0.9826537134
 H         -0.2113296059        1.6081988172        1.9108171583
 H          1.3566812113        2.2336551775       -0.6365388174
 H         -2.2645198328        1.6435102199        0.6314970794
 H         -1.2740965817        0.3179448992       -1.5800068611
 H          2.5979022499        2.0001014406        1.5134562731
 H          1.9348966147        0.3426197907        1.6923270518
 H         -0.0074536551        3.9587948005        0.3695031519
 H         -2.1576519588        3.3539586110       -0.7470740514
 H          1.7810167770       -0.6747157374       -1.9610138740
 H          5.2282922686       -0.7001829213       -1.0923617184
  34
        -71.10337286
 O         -3.4384218791        0.6065227724       -1.3498935041
 O         -4.8393877381       -1.0294099121       -0.8078673712
 N         -1.3492216837       -0.6976856385        0.1607456631
 N         -2.7600775518       -2.3719226522        0.5170516873
 C         -2.6199598364       -1.1816180848       -0.0417415735
 C         -0.6912024447       -1.6332157499        0.8875607947
 C         -1.5783782933       -2.6635148734        1.0851051773
 C         -3.7259156821       -0.5462958012       -0.7487424245
 H          0.3354666020       -1.5195854700        1.1671540943
 H         -1.4294931002       -3.5877374238        1.6040466708
 H         -4.2288512254        0.9709533344       -1.7989049607
 P          3.0375319374       -0.9528912946       -0.1271024449
 O          0.5586819727        0.4926844695       -0.4726553072
 O         -0.3291773807        3.7197605354       -0.0826879829
 O         -2.1713643928        2.1993244629        1.0950576461
 O          3.2930362064        0.6276459366       -0.3257687284
 O          2.2327285851       -1.4965974060       -1.3532945997
 O          4.4822036229       -1.5297940331       -0.4114485611
 O          2.4635983543       -1.2770398142        1.1875482199
 C          0.1978813093        2.6147286736        0.5903585815
 C          1.1696313942        1.7641582987       -0.2513480253
 C         -0.9201089871        1.6121370397        0.9713986484
 C         -0.8199236894        0.5867738672       -0.1908403124
 C          2.5121124354        1.5249233650        0.4353123185
 H          0.6849245413        3.0202773698        1.4788400945
 H          1.3487078397        2.2358319108       -1.2274118219
 H         -0.6719118978        1.0902016543        1.9039328932
 H         -1.3714684833        0.9524761769       -1.0676690724
 H          3.0810786732        2.4523563588        0.5065547397
 H          2.3385759391        1.0929956211        1.4252583951
 H         -0.6058852641        3.4836953170       -0.9817924734
 H         -2.1053031392        3.1225914541        0.7806675780
 H          2.6852408819       -1.4204391105       -2.2028907534
 H          5.1225722375       -1.4343576355        0.3008715814
  34
        -71.10336891
 O         -3.0487918583       -1.6069022239        2.6197193993
 O         -1.6119079684       -0.0764967914        1.8724648040
 N         -2.6950017222       -0.6685896043       -0.8429230316
 N         -4.3621545753       -1.6361155446        0.2541137880
 C         -3.1803483916       -1.0624830218        0.3779590131
 C         -3.6293502872       -1.0338461976       -1.7582726726
 C         -4.6547058055       -1.6182691386       -1.0595918103
 C         -2.5230796944       -0.8604264033        1.6691199293
 H         -3.4998640735       -0.8509235250       -2.8041421810
 H         -5.5764147795       -2.0234705703       -1.4225203733
 H         -2.6348842849       -1.4477722616        3.4922016501
 P          3.8252713449        0.1630044746        0.0925198345
 O         -0.3986651400       -0.8331275969       -0.5838230392
 O          0.9484903233        2.4241637632       -0.6847962700
 O         -1.4359962374        2.2294605659       -1.7856388517
 O          2.6114742709        0.2317587293        1.1563115782
 O          3.7074692528        1.4098818059       -0.8482063825
 O          5.0621565008        0.5241534314        1.0010233577
 O          3.8821800665       -1.1126460024       -0.6359364568
 C          0.1632715122        1.4371516846       -0.0953589615
 C          0.7082646072        0.0068541412       -0.3183191470
 C         -1.2781069265        1.3876328213       -0.6798910214
 C         -1.4298035128       -0.0709797023       -1.1634311264
 C          1.4661557159       -0.5434968904        0.8835047071
 H          0.1324970730        1.6525763422        0.9744187065
 H          1.3950572839        0.0094190764       -1.1809043699
 H         -2.0150901882        1.5988174841        0.1001735359
 H         -1.3387570387       -0.0687117782       -2.2621812780
 H          0.8334480232       -0.5013097441        1.7718162489
 H          1.7529316660       -1.5761396902        0.6665478590
 H          0.7641610734        2.4468391813       -1.6398072663
 H         -1.5415917485        3.1468330432       -1.4904097157
 H          3.7220231397        2.2668461696       -0.4027313040
 H          5.3815879694       -0.1784420839        1.5776909528
  34
        -71.10335114
 O         -2.5189493794       -0.1439778432       -1.7819373700
 O         -0.9279218022       -1.6136243430       -2.2821866884
 N         -1.4450272653       -0.2493397132        0.9139019777
 N         -1.5102654846       -2.4383736164        0.5664808346
 C         -1.4978033146       -1.2543749808       -0.0061815142
 C         -1.4161631103       -0.8504917347        2.1331699559
 C         -1.4691494895       -2.1978740679        1.8955139787
 C         -1.5985617854       -1.0222847862       -1.4536837981
 H         -1.3857592803       -0.2978134494        3.0478336431
 H         -1.4778822638       -3.0063382450        2.5964399703
 H         -2.5825120893       -0.0087405240       -2.7510216453
 P          2.1118823807       -1.3545660802       -0.5859074952
 O         -0.6162607694        1.3229564993       -0.6037060483
 O         -0.4678183457        4.1210057974        0.4681927750
 O         -1.6165536776        2.7202311260        2.4589143650
 O          1.9391376143        0.1892892673       -1.0461508639
 O          1.6733758058       -2.1638054242       -1.8500673300
 O          3.6645598749       -1.6049415671       -0.5312505124
 O          1.4688671750       -1.6153153522        0.7097448749
 C          0.2166105872        2.9596116686        0.8384484371
 C          0.5781126134        2.0566937439       -0.3448697885
 C         -0.7019520445        2.0294976529        1.6738481760
 C         -1.3698684498        1.1568878680        0.5785162711
 C          1.7720230242        1.1510712770       -0.0199337434
 H          1.0884408244        3.2832866078        1.4075532550
 H          0.7901325172        2.6106536800       -1.2630919757
 H         -0.0939713425        1.3960536335        2.3263856589
 H         -2.3954146151        1.5062991335        0.3813570916
 H          2.6790895005        1.7568244429        0.0444834617
 H          1.6125788229        0.6236956505        0.9247502932
 H         -1.0759723837        3.9344789832       -0.2637751342
 H         -1.6947386441        3.6310141594        2.1157353064
 H          0.7201534293       -2.1258382982       -2.0749234002
 H          4.1208907277       -1.5711906435       -1.3821089015
  34
        -71.10332331
 O         -5.2189023610       -0.9097954469        0.1289707955
 O         -4.0858115200        0.9547306722       -0.3127060095
 N         -1.6277311646       -0.6971353697       -0.2562839233
 N         -2.9809927583       -2.4116896213        0.1333590884
 C         -2.9236120049       -1.1072986971       -0.0716720307
 C         -0.8560708313       -1.8075950926       -0.1581188169
 C         -1.7134621299       -2.8548169202        0.0788346810
 C         -4.1022354078       -0.2479737965       -0.0980576299
 H          0.2085029653       -1.7726622986       -0.2581404906
 H         -1.4862260469       -3.8920944435        0.2133963070
 H         -6.0049255726       -0.3269280796        0.1057191198
 P          3.3026614742       -0.6314132778        0.5552655681
 O         -0.3515281332        0.6820656799       -1.6484178654
 O          0.2267406722        3.3920142284       -0.1603775811
 O         -1.0125101239        1.8451295814        1.6553344542
 O          2.0636549344       -0.5051475013       -0.4278518597
 O          4.5718712369       -0.8734276936       -0.3670849415
 O          3.5142887895        0.8498438351        1.0595938474
 O          3.0648166436       -1.6554579263        1.5794389200
 C          0.7222531044        2.0848158071       -0.0651461870
 C          0.8751071085        1.3828132956       -1.4190071837
 C         -0.2801491218        1.1768133230        0.6819405609
 C         -1.1504523263        0.6405546495       -0.4862738424
 C          2.0757266374        0.4337343446       -1.5014220838
 H          1.6693886514        2.1632820252        0.4685005618
 H          0.9830990890        2.1130885368       -2.2292929330
 H          0.2406357195        0.3380949407        1.1578522939
 H         -2.0399816509        1.2722009294       -0.6172093123
 H          2.0001452558       -0.1371654501       -2.4297486254
 H          3.0016042327        1.0085194104       -1.4862123984
 H         -0.4989896702        3.4367436358       -0.8011784404
 H         -0.9629004075        2.8028558991        1.4709367584
 H          4.8712075180       -1.7876988990       -0.4067902615
 H          4.1800967534        0.9480415783        1.7497896501
  34
        -71.10331297
 O         -2.2097570893       -2.7189753235       -1.6021115539
 O         -1.9741464137       -0.5670324298       -2.1281028551
 N         -1.4767778779       -0.0562062870        0.7270883526
 N         -2.0042080399       -2.1909332814        1.0449726154
 C         -1.8183752405       -1.2496541625        0.1415383276
 C         -1.4345247236       -0.2961715910        2.0644960943
 C         -1.7706615931       -1.6146683191        2.2380464806
 C         -1.9969031390       -1.4580568608       -1.2944860387
 H         -1.1957893147        0.4548582589        2.7861831780
 H         -1.8592043632       -2.1739760547        3.1463779927
 H         -2.3510189049       -2.8497005522       -2.5616001310
 P          2.1213901452       -0.9940167427       -0.8393011387
 O          0.2247874685        1.0743607659       -0.4525752584
 O          0.8364206408        3.8500737700        1.1320403316
 O         -1.5827928087        3.5338203342        0.1902748324
 O          1.5458431911       -0.8509648366        0.6593574403
 O          2.8250508934       -2.3965087950       -0.7888978521
 O          0.8814362460       -1.2858109071       -1.7835013580
 O          3.0129404315        0.0964781498       -1.2513142997
 C          0.3297131629        2.5742636434        1.3939217175
 C          1.1140155716        1.5546229298        0.5425029185
 C         -1.1478749404        2.4212277892        0.9069935068
 C         -1.1000610972        1.1536942229        0.0237428899
 C          1.7050863130        0.3753655027        1.3480973158
 H          0.4197877903        2.3352820907        2.4600115504
 H          1.9203780343        2.0593985644        0.0039306600
 H         -1.8583868445        2.3099703138        1.7274824445
 H         -1.7476510433        1.2485616879       -0.8544235150
 H          2.7657838126        0.5625789477        1.5267356380
 H          1.1885244401        0.2231109039        2.2978143229
 H          0.3876138375        4.5076239392        1.6858574772
 H         -0.8852922597        3.8248830415       -0.4198192108
 H          2.2701268855       -3.1496448733       -0.5500046918
 H          0.5443385594       -0.4911056711       -2.2083529208
  34
        -71.10331286
 O         -5.1750617252       -1.0377911717       -0.4268122388
 O         -3.8594143283        0.6423001485       -1.0783865409
 N         -1.6147311365       -0.7608727606        0.1049907818
 N         -3.0719610381       -2.2497533910        0.8700528014
 C         -2.9299867010       -1.1490896372        0.1515957460
 C         -0.9187513928       -1.6662414170        0.8289123232
 C         -1.8400801397       -2.5785283170        1.2917386015
 C         -4.0113715722       -0.4293923221       -0.5066426900
 H          0.1450368808       -1.6097293710        0.9246228550
 H         -1.6801490685       -3.4430725426        1.9020789131
 H         -5.8913999865       -0.5375928080       -0.8687001264
 P          3.6933900714       -0.7821642571       -0.3089133617
 O          0.3137465686        0.3164880806       -0.6311284666
 O          0.0044686289        3.4387933948        1.1160214741
 O         -1.7765788554        2.7378716005       -0.7401033964
 O          3.1998761243        0.7271184806       -0.2864015154
 O          4.2007665681       -1.0707332360        1.1719542972
 O          2.3868652893       -1.6658761436       -0.3783554534
 O          4.6856113379       -1.0169416545       -1.3657009576
 C         -0.1505961758        2.0824751395        0.8747283055
 C          0.9101287683        1.4798224584       -0.0725378202
 C         -1.4621398280        1.7120291898        0.1528352497
 C         -1.0852616499        0.3977986887       -0.5784824986
 C          2.2035484638        1.1272158982        0.6482402584
 H         -0.1015501511        1.5753661681        1.8438988914
 H          1.1371485849        2.1883651837       -0.8812129111
 H         -2.2818974491        1.5397716044        0.8596163275
 H         -1.4960264957        0.4083384342       -1.5986165897
 H          2.5732151243        2.0212896449        1.1556825092
 H          2.0293622927        0.3278371678        1.3703812120
 H         -0.3735098305        3.9321585788        0.3675787655
 H         -2.6359845459        2.5475509643       -1.1473196166
 H          5.1565414229       -1.0216760623        1.2766335004
 H          2.5050884944       -2.4380890015       -0.9409981415
  34
        -71.10330212
 O         -5.1977240537       -1.0691512980       -0.0259526533
 O         -4.1137812784        0.8424804144       -0.4166999636
 N         -1.6384016818       -0.6584288471       -0.4602457507
 N         -2.8044302781       -2.4189988500        0.2221803791
 C         -2.8814566722       -1.1561766651       -0.1609777433
 C         -0.7576428387       -1.6614815514       -0.2448809781
 C         -1.5011696953       -2.7414176338        0.1745507787
 C         -4.1027481802       -0.3655034952       -0.2195554881
 H          0.2922687218       -1.5274307386       -0.3983903168
 H         -1.1679302879       -3.7220961593        0.4440425629
 H         -6.0069707387       -0.5187556343       -0.0500632741
 P          3.6146926774       -0.7450553861        0.4816274429
 O         -0.0732301086        0.7322096711       -1.5051145553
 O          0.5153674034        2.9967408596        1.2155772360
 O         -1.8171516625        2.9351143702       -0.0805460982
 O          2.1992497507       -0.2425939474       -0.1115592548
 O          3.1700037168       -1.9939086928        1.3274651755
 O          4.4009037766       -1.3551094815       -0.7345051700
 O          4.3577465031        0.3153166017        1.1735825422
 C          0.1665264327        1.8031918481        0.5990845887
 C          0.8021194864        1.6021108083       -0.7919585488
 C         -1.3377291039        1.6748953745        0.2833208341
 C         -1.3383498873        0.6848943761       -0.9055518288
 C          2.2106900414        1.0215296421       -0.7570792880
 H          0.4841789650        0.9910383867        1.2594569985
 H          0.8449920915        2.5687197307       -1.3126509049
 H         -1.9024341303        1.2661634774        1.1290004836
 H         -2.0993180413        0.9739014574       -1.6433285024
 H          2.5784319191        0.8985297145       -1.7788570602
 H          2.8695674614        1.7004706516       -0.2084394986
 H         -0.0351758825        3.7080342921        0.8442160104
 H         -2.7751609702        2.8849666417       -0.2175899070
 H          3.0365514744       -1.8257313883        2.2658409026
 H          4.0592393788       -2.1868667228       -1.0877127887
  34
        -71.10327334
 O         -5.5371718402       -0.9709764363       -0.9240252604
 O         -3.6401727018       -0.1820167261       -1.7854898993
 N         -2.3241224978       -0.9656453402        0.7345598918
 N         -4.3041670849       -1.7403974282        1.3596621256
 C         -3.6416493570       -1.1310043169        0.3939024275
 C         -2.1759990521       -1.5056017575        1.9710870586
 C         -3.4107572853       -1.9812841997        2.3361561356
 C         -4.2469577189       -0.7105369485       -0.8679596139
 H         -1.2279573823       -1.5248065907        2.4650992019
 H         -3.7043655747       -2.4765614226        3.2383679956
 H         -5.9347685062       -0.6936259246       -1.7742811997
 P          3.9463897085        0.7371012838       -0.6027189828
 O         -0.1415198664       -1.1742061608        0.0130735625
 O          1.3179807187        2.0697405407        0.0135485759
 O         -1.3190016992        2.0613777493       -0.1969707887
 O          3.2841517468       -0.1637073700        0.5675884839
 O          4.1226131656        2.1448467883        0.0790971847
 O          5.4288831926        0.2246626502       -0.6947493211
 O          3.2514578599        0.6678968222       -1.8948087797
 C          0.7214771855        0.9455053528        0.5841818129
 C          0.9917473157       -0.3556637787       -0.2018838460
 C         -0.8347734875        1.0262343052        0.6072018738
 C         -1.2734770830       -0.3308909174       -0.0051349060
 C          2.2512868651       -1.0800261559        0.2675472074
 H          1.1241421657        0.8606552273        1.5962996011
 H          1.0861625499       -0.1061533505       -1.2674035231
 H         -1.2106049874        1.1071110733        1.6326848333
 H         -1.6242255586       -0.1490444902       -1.0312361857
 H          2.0414440213       -1.6107890909        1.1990047814
 H          2.5753036607       -1.7882213216       -0.4975374029
 H          0.8207640323        2.3079939136       -0.7883796471
 H         -1.3054020606        2.8987124712        0.2912332053
 H          3.2858633180        2.6149504685        0.1983856661
 H          5.9471871242        0.3129177310        0.1155263250
  34
        -71.10326600
 O         -0.2954648596       -2.0949716848        1.2239818865
 O         -0.3638489152       -2.1712058776       -1.0061089017
 N         -2.4114497575        0.0229732144       -0.1220921837
 N         -3.3513949021       -1.9036527737        0.4164391094
 C         -2.2215195618       -1.2943230126        0.1577428738
 C         -3.7579136556        0.2487035231       -0.0232761710
 C         -4.3163875482       -0.9506181446        0.3056961246
 C         -0.8655033568       -1.9002120276        0.0702147755
 H         -4.1783074233        1.2166822056       -0.1958603559
 H         -5.3436111140       -1.2009903128        0.4694087829
 H          0.6695833768       -2.3342863162        1.1090218424
 P          2.7219262668       -1.0485890207       -0.5458532662
 O         -0.1307657307        0.4911314203       -0.1856978095
 O          0.3030451803        3.8051684786        0.9022686709
 O         -2.0815410971        3.3663412377       -0.0871438584
 O          2.8886496670        0.4662614873       -0.0518254260
 O          1.9034303842       -1.0178791465       -1.8779308373
 O          4.1634345662       -1.3556591418       -1.0790610051
 O          2.2357513379       -1.9487216415        0.5263168696
 C         -0.1109872789        2.4852653163        1.0827681634
 C          0.7303763446        1.5588920971        0.1848204599
 C         -1.5619450285        2.2547865233        0.5679567424
 C         -1.4183950456        1.0287113676       -0.3865905237
 C          1.9722672689        1.0147558516        0.8752507441
 H         -0.0226907424        2.1602116783        2.1232312284
 H          1.0366782790        2.1160400786       -0.7126876797
 H         -2.2410229249        1.9974586464        1.3874690676
 H         -1.5313398361        1.3791596576       -1.4275487478
 H          2.5017809576        1.8343657806        1.3645504028
 H          1.6798102103        0.2477831811        1.5981317779
 H          0.0541340796        4.3489111728        1.6650729051
 H         -1.3475788052        3.9793272101       -0.2870503034
 H          1.0888758151       -1.5492260917       -1.8262092687
 H          4.8322686548       -1.5221896899       -0.4050389192
  34
        -71.10323565
 O         -4.8402391269       -1.2482969112       -0.7867187923
 O         -3.8111917227        0.7044260314       -1.0705262401
 N         -1.3907060775       -0.5740732420        0.0721868539
 N         -2.6607737971       -2.3770267746        0.3182996659
 C         -2.6318843539       -1.1281164432       -0.1126285596
 C         -0.6236076050       -1.5349499208        0.6441097971
 C         -1.4278077821       -2.6400953486        0.7839059665
 C         -3.7894679970       -0.4577364917       -0.6961491123
 H          0.4056462835       -1.3821048942        0.8950211915
 H         -1.1852650053       -3.5976233332        1.1960896062
 H         -5.6147194763       -0.7892115013       -1.1710797478
 P          3.0114569614       -0.9965791759        0.2490216655
 O          0.1387609681        0.6909298333       -1.1411467340
 O         -0.3252124935        3.6846210472       -0.0498236306
 O         -1.4624992179        2.1054088617        1.7454901673
 O          2.5181129995        0.5061755146        0.3688047367
 O          2.2800225578       -1.5438708421       -1.0323619056
 O          4.5292408521       -0.9275812435       -0.2237136029
 O          2.7962966456       -1.7142367788        1.5136222740
 C          0.4694798205        2.5801522757        0.2933851000
 C          0.9915532600        1.8189650457       -0.9451413870
 C         -0.4537616503        1.5497950271        0.9732609112
 C         -0.9578385431        0.7526508130       -0.2551273497
 C          2.4340932253        1.3360847561       -0.7867172137
 H          1.2895553980        2.8648575522        0.9574526492
 H          0.9221101925        2.4566568151       -1.8355367955
 H          0.1304956021        0.8848685216        1.6169374185
 H         -1.8032549316        1.2804359347       -0.7198005218
 H          2.7244189259        0.7718155499       -1.6723458366
 H          3.1038818383        2.1851735521       -0.6400437567
 H          0.2253824007        4.4578215615       -0.2347881429
 H         -1.7568379800        2.9287044393        1.3158086570
 H          2.5726838202       -2.4102032002       -1.3358753572
 H          5.1721256707       -0.9823441419        0.4905125555
  34
        -71.10322703
 O         -1.3433945685       -1.0506153146       -1.8862051388
 O         -0.0343936304       -2.4959225423       -0.8035459315
 N         -1.9860825957       -0.0549015781        0.7903159810
 N         -2.2688360927       -2.2118293748        1.2019493033
 C         -1.7140071507       -1.3321110358        0.3965162181
 C         -2.7680296970       -0.1532557754        1.9027367523
 C         -2.9365344364       -1.4906309036        2.1335327833
 C         -0.9328778418       -1.6757886929       -0.8074440907
 H         -3.1413378223        0.7106185207        2.4111867038
 H         -3.4930671086       -1.9813841536        2.9046171876
 H         -0.7221007240       -1.1702158629       -2.6346201414
 P          2.2456713373       -0.9872204500       -1.0307822831
 O         -0.3145728151        0.9287371664       -0.5303283846
 O         -0.0140439454        3.8546000577       -0.0089652288
 O         -2.0844481572        3.1998588071        1.4864528317
 O          1.6353341322       -0.7208300415        0.4196630724
 O          3.6214539947       -0.2041037546       -0.9298683408
 O          2.6859013804       -2.4929878120       -0.9488677104
 O          1.4626509376       -0.6050336782       -2.2218285269
 C          0.2476763014        2.7618211445        0.8253630016
 C          0.8123709941        1.5499826742        0.0678410256
 C         -1.1191765438        2.2219417643        1.3081217319
 C         -1.4788496525        1.1749650678        0.2113269739
 C          1.5586098291        0.5739649321        0.9887133678
 H          0.8861799159        3.0444567472        1.6682934777
 H          1.4626365766        1.8236172902       -0.7678107097
 H         -0.9969359770        1.7104120861        2.2676310580
 H         -2.2422032524        1.5752652373       -0.4722486685
 H          2.5660953097        0.9493656328        1.1858098953
 H          1.0219956089        0.4257493870        1.9292114936
 H          0.8051374770        4.3088873984       -0.2483346432
 H         -1.9456566725        3.8986917439        0.8227325162
 H          4.1270060656       -0.1857276404       -1.7500742107
 H          1.9414080299       -3.1063443370       -0.9679338204
  34
        -71.10320817
 O         -2.1078473630       -2.7550227885       -1.4262939636
 O         -1.1533124748       -0.8362181578       -2.0299107501
 N         -1.3214091075       -0.0097453072        0.7746249338
 N         -1.7600284617       -2.1446469666        1.2141052321
 C         -1.5916712935       -1.2533386594        0.2603653099
 C         -1.2947457881       -0.1672621178        2.1255806425
 C         -1.5712456903       -1.4865674260        2.3727935916
 C         -1.5836843607       -1.5820165392       -1.1612883450
 H         -1.0988467075        0.6294940525        2.8089883092
 H         -1.6446071587       -1.9962316277        3.3111920846
 H         -2.0425822092       -2.9873613128       -2.3748564869
 P          1.7116860746       -1.3357957189       -0.7248809722
 O          0.0459601299        1.2809338205       -0.6813601723
 O          0.7044144049        3.9992681872        1.2211490624
 O         -1.7205453440        3.5792707920        0.1789022879
 O          1.4957537200       -0.4396337092        0.5703961109
 O          1.6284793443       -0.4463457925       -2.0308996143
 O          3.2700063447       -1.6102025746       -0.6467643917
 O          0.8567085824       -2.5312183590       -0.7023235729
 C          0.2920597438        2.6649664258        1.2454307656
 C          1.0372747722        1.9083612456        0.1227702408
 C         -1.2094097830        2.4858919560        0.8767611876
 C         -1.1744805116        1.2134626533        0.0043727651
 C          2.0693142233        0.8626259078        0.6072765286
 H          0.5006709386        2.2054176388        2.2198484718
 H          1.5490540499        2.6425171065       -0.5085010729
 H         -1.8608476259        2.3705408217        1.7434137361
 H         -1.9587916315        1.2207025654       -0.7615035436
 H          2.9522014704        0.8842847136       -0.0318987010
 H          2.3607029028        1.0424992598        1.6430912769
 H          0.2155857929        4.5158935821        1.8794213821
 H         -1.1093982038        3.8442727331       -0.5259570747
 H          0.7201477801       -0.3162283775       -2.3411083219
 H          3.6037171429       -2.2554737973       -1.2789784336
  34
        -71.10319098
 O         -3.4628660072       -1.6463362312        1.3195089232
 O         -3.3304074915        0.4609486686        0.6166648573
 N         -0.9595661412       -0.3655556817       -0.9578965272
 N         -1.5242140713       -2.4344653284       -0.3748541452
 C         -1.7945884549       -1.1500803315       -0.2023971818
 C         -0.1485374219       -1.2167827215       -1.6266985326
 C         -0.5111063128       -2.4883960561       -1.2503522790
 C         -2.9109080055       -0.6893517703        0.6058999220
 H          0.5871355129       -0.8742580615       -2.3222380246
 H         -0.0928007576       -3.4205061601       -1.5689206303
 H         -4.2381182677       -1.3322396736        1.8288578487
 P          2.1472865811       -1.2829908703        0.7072252144
 O          0.1761368222        1.4411855802       -1.8927184188
 O          0.2113948804        4.0241457383       -0.2777415569
 O         -1.8450087924        2.7073242442        0.5146291348
 O          1.6623567571        0.2239680516        0.4760183238
 O          3.3183988547       -1.2047238411        1.7711227359
 O          0.8756717451       -1.8030099802        1.4844462216
 O          2.5713042744       -2.0013710948       -0.4982355820
 C          0.4965680076        2.6995359188        0.0658782670
 C          1.2141682350        1.9998805922       -1.0972134024
 C         -0.7819505896        1.8470534828        0.2504691714
 C         -0.9181591224        1.0853029425       -1.1008836961
 C          2.2286298299        0.9647583714       -0.5989232026
 H          1.1083424255        2.6793663046        0.9756277077
 H          1.7240371623        2.7269777833       -1.7333063230
 H         -0.6355004590        1.1200088865        1.0590152044
 H         -1.8360244953        1.4002757815       -1.6180737640
 H          2.5123080692        0.2802441930       -1.4026017776
 H          3.1197269498        1.4862340961       -0.2405240444
 H         -0.6930147782        4.2255853809        0.0211139505
 H         -2.6522130606        2.1793861488        0.6538915308
 H          3.1245067402       -0.7449221338        2.5985221996
 H          0.9406412531       -2.7123284148        1.7970849892
  34
        -71.10317027
 O         -1.8107813395       -0.7589952939       -1.9156995836
 O         -0.2875822403       -2.2915783086       -1.3691992458
 N         -1.8639384545       -0.1006755714        0.9059459003
 N         -1.9391807685       -2.3021735089        1.1439981792
 C         -1.6197419763       -1.3150390762        0.3351589928
 C         -2.3761219571       -0.3540423879        2.1426150601
 C         -2.4210425985       -1.7162842546        2.2650564656
 C         -1.1465588682       -1.4936235194       -1.0492600871
 H         -2.6870312087        0.4248368587        2.8059481265
 H         -2.7700252689       -2.3116216495        3.0830238327
 H         -1.4763926587       -0.8646665814       -2.8286224643
 P          2.2614912236       -1.0148387331       -1.0237592248
 O         -0.4141665752        1.0168363158       -0.5399914585
 O         -0.0300797952        3.8784324256        0.0605966307
 O         -2.0596504134        3.2229008290        1.5919887509
 O          1.4927790247       -0.7614549448        0.3745083137
 O          3.7518549878       -0.5670892613       -0.7376564419
 O          2.3702663771       -2.5782879956       -1.0654590250
 O          1.7103180157       -0.3104863306       -2.1885142569
 C          0.2492948981        2.7643654498        0.8599903905
 C          0.7543522261        1.5576257633        0.0533330055
 C         -1.1053433652        2.2371032814        1.3947346804
 C         -1.5109105818        1.1810016712        0.3219131298
 C          1.4723137060        0.5325605456        0.9470678288
 H          0.9307776716        3.0212142638        1.6778552715
 H          1.4012280279        1.8234602957       -0.7857067659
 H         -0.9518505517        1.7440266374        2.3581936302
 H         -2.3592825932        1.5393370009       -0.2774596713
 H          2.4938730502        0.8793150734        1.1274671211
 H          0.9491326883        0.4019813169        1.8978147581
 H          0.7863290968        4.2833531536       -0.2615340383
 H         -1.9345202218        3.9159260824        0.9200709516
 H          4.2824691153       -1.2107724282       -0.2499725510
 H          1.5193931160       -3.0058929785       -1.2337351067
  34
        -71.10316234
 O         -3.5961678181        0.3292139511       -1.3498312943
 O         -5.0164761191       -1.0610848950       -0.3523315550
 N         -1.4431251325       -0.7267592798        0.2195500855
 N         -2.8936448693       -2.1022706805        1.1883236094
 C         -2.7576056671       -1.1216205925        0.3102576191
 C         -0.7487407102       -1.5083600419        1.0790233908
 C         -1.6646344168       -2.3509508114        1.6653668135
 C         -3.8859272161       -0.6323329975       -0.4673576121
 H          0.3166136542       -1.4568138609        1.1647900164
 H         -1.5001776674       -3.1142699457        2.3973111729
 H         -4.3971775506        0.5454425874       -1.8707480774
 P          3.2068202080       -0.8412074816       -0.3434357513
 O          0.5092510647        0.3330063914       -0.5361050363
 O         -0.0462123586        3.4427327626        1.1815134431
 O         -1.3870310550        2.7105596718       -1.0237856982
 O          3.2856633280        0.6414339361        0.2401697939
 O          2.7531253873       -0.6640386355       -1.8360453450
 O          4.7359358623       -1.2007921022       -0.5099291019
 O          2.4356267802       -1.7823062909        0.4924541246
 C         -0.1648943694        2.0907957211        0.9025154401
 C          1.0195458077        1.4918643242        0.1176573073
 C         -1.3409192446        1.7330648841       -0.0283077231
 C         -0.8949750585        0.3551437146       -0.5782676826
 C          2.1937943333        1.1166385708        1.0054066041
 H         -0.2704491717        1.5720946546        1.8607531281
 H          1.3611631875        2.1991918177       -0.6504426929
 H         -2.2889527984        1.6565205693        0.5135130164
 H         -1.2215023184        0.2179259605       -1.6170222097
 H          2.5498580680        1.9996114268        1.5384230452
 H          1.8857079755        0.3381905360        1.7094981756
 H         -0.2378426931        3.9461951697        0.3709850374
 H         -2.1860945354        2.6123698524       -1.5592647855
 H          2.4544495846       -1.4739018820       -2.2619357388
 H          5.1814241898       -1.5031627076        0.2885162591
  34
        -71.10316147
 O         -2.5130463465       -0.2814031845       -1.9210274572
 O         -1.1054705191       -1.9856374928       -2.1847843007
 N         -1.6342548693       -0.3723133645        0.8600047025
 N         -2.1357828470       -2.5178187265        0.6320051232
 C         -1.8315481326       -1.4076450302       -0.0016752275
 C         -1.8176436460       -0.8770891316        2.1106537975
 C         -2.1418879579       -2.1949522370        1.9469674900
 C         -1.7648037994       -1.2603373733       -1.4636159935
 H         -1.7321040121       -0.2728426027        2.9875730184
 H         -2.3809827868       -2.9310109732        2.6860617136
 H         -2.4773676500       -0.2030851030       -2.8977870742
 P          1.9901276374       -0.8575831646       -0.4397006652
 O         -0.3372521096        0.8520055621       -0.6335455339
 O          0.4152155894        3.8307117565        0.9651055906
 O         -1.0762578046        2.2791916725        2.5000714851
 O          2.5149277860        0.6471533112       -0.5844696732
 O          1.4717367272       -1.2069782445       -1.8813987969
 O          3.3842446384       -1.5993335879       -0.3517715048
 O          1.1311494943       -1.1490830752        0.7236827225
 C          0.6909185466        2.4724002608        0.8015854971
 C          0.5047533778        2.0009408669       -0.6617038797
 C         -0.2716972542        1.5629771387        1.6122219312
 C         -1.1517851506        0.9345473996        0.5149465197
 C          1.8132477742        1.6176827864       -1.3403756000
 H          1.7281940597        2.3161322491        1.1084562001
 H          0.0165020906        2.7996438470       -1.2375874982
 H          0.2935849358        0.7606264551        2.0990603783
 H         -2.0139005075        1.5980465581        0.3175270867
 H          1.6042319951        1.2220260734       -2.3363775314
 H          2.4736876249        2.4840694413       -1.3995056644
 H         -0.5250139007        3.9446421589        1.1889426437
 H         -0.5412067811        2.6132172336        3.2369718298
 H          0.6915603872       -1.7822178295       -1.9533405001
 H          3.5690716918       -1.9873972131        0.5091932390
  34
        -71.10313458
 O         -0.9126754109       -1.6759812187       -1.5878572655
 O          0.2310734925       -1.9812447929        0.3058620920
 N         -2.3881882458        0.0205746123        0.5473442000
 N         -2.8768599704       -2.0783994378        1.0368662740
 C         -2.0280425017       -1.2846725407        0.4303909373
 C         -3.5441096168        0.0411761347        1.2767800077
 C         -3.8295445064       -1.2616009270        1.5626930247
 C         -0.7877143098       -1.6771816842       -0.2918206728
 H         -4.0290151963        0.9599587666        1.5297797181
 H         -4.6525648014       -1.6736932928        2.1082833096
 H         -0.0215808550       -1.7195401714       -2.0296268948
 P          2.7158366635       -1.0461251402       -0.9963846956
 O         -0.4654750874        0.7882149635       -0.5309850472
 O         -0.3283613834        3.8208050964       -0.0994969217
 O         -2.2771593631        3.0717430994        1.5369666345
 O          2.6930009139        0.2476180719       -0.0426992704
 O          4.1248816028       -0.8579856654       -1.6430621387
 O          2.9144595267       -2.3039738881       -0.0605915156
 O          1.6565149187       -1.1419417903       -2.0163960375
 C          0.0214325924        2.7416311123        0.7237265946
 C          0.6379010346        1.5692033830       -0.0636158039
 C         -1.2986375436        2.1375727783        1.2409582418
 C         -1.6697521700        1.1792123151        0.0776361915
 C          1.6220029533        0.7174646581        0.7541202597
 H          0.6650694744        3.0639738128        1.5467527746
 H          1.1635067560        1.9237551603       -0.9572521284
 H         -1.1215872943        1.5451915683        2.1445491885
 H         -2.3004006710        1.7062455863       -0.6568724044
 H          2.1035197173        1.3255785559        1.5236087635
 H          1.0921063653       -0.1165649991        1.2178208718
 H          0.4506819435        4.3478883810       -0.3251669879
 H         -2.1961968715        3.8131566776        0.9103280345
 H          4.8669471249       -0.8418558771       -1.0255413114
 H          2.0796244399       -2.6753364572        0.2539506449
  34
        -71.10308265
 O         -4.9934761796       -1.0543502101       -0.2819282190
 O         -3.6150468933        0.1990769540       -1.5090777546
 N         -1.4262078548       -0.7296982170        0.2011305764
 N         -2.9007791345       -2.1256972764        1.0996440070
 C         -2.7387372273       -1.1279817431        0.2481152803
 C         -0.7527792372       -1.5249953873        1.0668227851
 C         -1.6827908414       -2.3829572837        1.6056816497
 C         -3.7993277036       -0.5871267118       -0.5947366562
 H          0.3091571331       -1.4694534599        1.1849403820
 H         -1.5374672691       -3.1630802563        2.3238221948
 H         -5.6906699911       -0.7099611670       -0.8759907183
 P          3.1971516794       -0.8310026400       -0.3615843131
 O          0.5166409003        0.3640018394       -0.5026749981
 O          0.0315263677        3.4832450247        1.1032706696
 O         -1.5314966716        2.6930531515       -0.9217425600
 O          3.2927357685        0.6486549889        0.2299953705
 O          2.7280843375       -0.6455959723       -1.8477033379
 O          4.7226026039       -1.1951221403       -0.5494857239
 O          2.4348063500       -1.7702868238        0.4840872950
 C         -0.1323251447        2.1052715504        0.9685016921
 C          1.0309513439        1.5130873131        0.1597441279
 C         -1.3391147258        1.7375138245        0.0743407895
 C         -0.8877104276        0.3922195746       -0.5420018078
 C          2.2213859199        1.1218586447        1.0224473251
 H         -0.2096568094        1.5927306428        1.9333828856
 H          1.3592063782        2.2403067031       -0.5957906463
 H         -2.2684224287        1.6016964156        0.6448293462
 H         -1.2415613940        0.3285484432       -1.5790464332
 H          2.5981081011        1.9969730243        1.5541607270
 H          1.9217827618        0.3353709559        1.7216782407
 H         -0.4753352595        3.8189703904        1.8577670275
 H         -1.0838153878        3.5152414273       -0.6410272549
 H          2.3826520202       -1.4423792335       -2.2615745821
 H          5.1774082187       -1.5049781574        0.2410406933
  34
        -71.10306726
 O         -1.4515331988       -0.8450595861       -2.0114602838
 O         -2.0619652087       -2.9094368707       -1.4663972827
 N         -1.5125656307       -0.0897334323        0.7570320768
 N         -2.0688258893       -2.1844179269        1.2474945332
 C         -1.8031412804       -1.3423692252        0.2706678993
 C         -1.5759091035       -0.1956225113        2.1134376509
 C         -1.9282075662       -1.4894912396        2.3916855834
 C         -1.7824057398       -1.7796933054       -1.1227012335
 H         -1.3885005959        0.6209874493        2.7762381510
 H         -2.0894589941       -1.9570505733        3.3410902573
 H         -1.4747569008       -1.2165802534       -2.9167919408
 P          1.9735152711       -1.0750581408       -0.8094751378
 O          0.1496922699        1.0461182929       -0.5008886506
 O          0.5519357297        3.8702509316        1.5318407231
 O         -1.4668020843        3.4870482334       -0.0934684418
 O          2.7111593684        0.0681871583        0.0519388603
 O          1.6297201457       -0.4871102954       -2.2272429177
 O          3.1902021601       -1.9703686233       -1.2430216090
 O          0.9053971042       -1.7678912950       -0.0631736355
 C          0.1530429435        2.5509232732        1.3700031450
 C          1.0284705546        1.7534670314        0.3718166740
 C         -1.2719214412        2.4054334351        0.7742927254
 C         -1.1743941347        1.0863381026       -0.0199324034
 C          1.9670895714        0.7533087621        1.0408305010
 H          0.2134285773        2.0891049095        2.3589789035
 H          1.6197033993        2.4338643011       -0.2510383063
 H         -2.0443482103        2.3695420192        1.5456819757
 H         -1.8187745651        1.1004109790       -0.9049315689
 H          2.6905548893        1.2606798123        1.6795217505
 H          1.3827114125        0.0241943373        1.6119194437
 H          0.2019475912        4.3948187534        0.7895350308
 H         -2.4047585710        3.6137321049       -0.2914408899
 H          0.9034886032        0.1484259001       -2.2075049337
 H          3.4457800530       -2.6425860452       -0.6026059994
  34
        -71.10305807
 O         -5.7543656947       -0.4810850769       -0.0724485046
 O         -4.2204229675        0.6655493537       -1.2130375244
 N         -2.1817378127       -1.0098312417        0.0771215213
 N         -3.8679612888       -2.0822787962        1.0412044006
 C         -3.5408488504       -1.0871180391        0.2362447276
 C         -1.6527674260       -2.0077789316        0.8273269376
 C         -2.7118483620       -2.6606864667        1.4095665865
 C         -4.5108749759       -0.2140311958       -0.4190670713
 H         -0.5995613144       -2.1867767523        0.8665367936
 H         -2.7042464859       -3.5054658694        2.0665854246
 H         -6.3975538048        0.1003415655       -0.5267454791
 P          4.0073166945        0.4830278727        0.0558204011
 O         -0.2410089017       -0.6123759825       -1.1442986712
 O          1.1140982038        1.9507250618        0.9479197721
 O         -1.0272518226        2.3312056794       -0.5587113520
 O          3.2541238264       -0.7199639792       -0.7074928503
 O          5.5199064999        0.1010595511       -0.1132273099
 O          3.8512488331        1.7589565967       -0.8350757744
 O          3.5093521286        0.6714776576        1.4310733791
 C          0.4032327144        0.7864013501        0.6579643045
 C          0.9123140105       -0.0018628974       -0.5678972834
 C         -1.0226927620        1.1685804378        0.2116752930
 C         -1.4256622308       -0.0277699466       -0.6721755477
 C          1.9573803986       -1.0869813761       -0.2838384710
 H          0.3503274408        0.1244127989        1.5335421204
 H          1.3318656408        0.7125703301       -1.2904383007
 H         -1.7054784859        1.2723118143        1.0672247255
 H         -2.0418904678        0.3191253901       -1.5099097234
 H          1.9809301595       -1.3208976356        0.7844680789
 H          1.6989048519       -1.9758282185       -0.8632946436
 H          1.9969349549        1.7068871536        1.2860497321
 H         -0.3833826049        2.9481381146       -0.1679228089
 H          5.8516252455       -0.6140583520        0.4408265152
 H          4.3449741950        1.7582089716       -1.6651920704
  34
        -71.10303857
 O         -5.3096050844       -0.8124491338       -0.7159142463
 O         -3.5861927429        0.4366174513       -1.3844872680
 N         -1.9122578671       -1.0031748158        0.4935118907
 N         -3.7448744089       -2.0547367146        1.1734283320
 C         -3.2640254692       -1.1655558042        0.3218287949
 C         -1.5494739402       -1.8321193194        1.4985804782
 C         -2.6982482429       -2.4734898584        1.9030463668
 C         -4.0491479873       -0.4406874970       -0.6673644403
 H         -0.5324713886       -1.9129601207        1.8180330544
 H         -2.8226430340       -3.2046602729        2.6746902905
 H         -5.8261270538       -0.3085827725       -1.3779751427
 P          3.8301448019       -0.0387550197       -0.6473936556
 O          0.2889992651       -0.4198657694        0.0413903238
 O          0.3070041798        3.0537510853        0.9662387249
 O         -1.2922341431        2.2070997053       -0.9900827088
 O          3.0748200808       -0.4646608955        0.6892769541
 O          5.0675377826       -1.0142959281       -0.6562059452
 O          2.9238154008       -0.6062438671       -1.8028258425
 O          4.1466499134        1.4008161926       -0.7337084388
 C         -0.0446324929        1.7136511070        0.9770623584
 C          1.0022496474        0.7656645276        0.3554202887
 C         -1.2903781636        1.3752599583        0.1307913574
 C         -1.0512346083       -0.1120057991       -0.2472061555
 C          2.1674444105        0.4512419353        1.2763394309
 H         -0.2112379103        1.4334940123        2.0221565831
 H          1.4022819192        1.2131223205       -0.5664473419
 H         -2.2178358201        1.4844327049        0.7049107119
 H         -1.2502131275       -0.2537376024       -1.3200854744
 H          2.6797272468        1.3914435650        1.4995450775
 H          1.8237750145       -0.0309879876        2.1929592743
 H          0.1437653154        3.4112455917        0.0765628689
 H         -2.0986521166        2.0410492962       -1.5042272046
 H          5.8131600246       -0.7377963419       -0.1122385596
 H          3.2150070911       -0.3824357674       -2.6942945136
  34
        -71.10302848
 O         -5.0190431797       -1.2367959547       -0.8891490273
 O         -3.3793752913        0.1657187252       -1.4516612449
 N         -1.8337553514       -0.8964719746        0.7715873300
 N         -3.6718740832       -1.9780274410        1.3873207965
 C         -3.1382105667       -1.1937836450        0.4670402945
 C         -1.5568612561       -1.5309460693        1.9341384031
 C         -2.7072614270       -2.1931268273        2.2965518346
 C         -3.8379628013       -0.6901900099       -0.7062034054
 H         -0.5879294948       -1.4786408645        2.3818686826
 H         -2.8885001332       -2.8027944863        3.1573177524
 H         -5.4823277372       -0.8815979805       -1.6753533772
 P          3.4959959496       -0.2990963406       -0.8477902567
 O          0.3779697445       -0.2898967313        0.4764344264
 O          0.3547443481        3.2950653563        0.5432844932
 O         -1.3284229662        2.0887672513       -1.0844130977
 O          3.3283957466        0.0348792621        0.7183381211
 O          3.8473900042        1.0583707439       -1.5643106700
 O          4.8707081958       -1.0673110169       -0.7984218390
 O          2.3895222686       -1.0170699576       -1.4938694279
 C          0.0326252096        1.9845162627        0.8589690339
 C          1.0744369377        0.9394521730        0.4025138753
 C         -1.2321732693        1.4478776937        0.1517842820
 C         -0.9299507142       -0.0758779217        0.0089031059
 C          2.3251700234        0.8807090951        1.2535833990
 H         -0.0817856801        1.9274199779        1.9460714908
 H          1.3595316347        1.1454695758       -0.6408573556
 H         -2.1407728919        1.6027011639        0.7472294874
 H         -1.0068162696       -0.3557955936       -1.0537673126
 H          2.7204538173        1.8963834010        1.3499401782
 H          2.0881411450        0.4750852956        2.2402640861
 H          0.0867653250        3.4651752744       -0.3763645173
 H         -2.0984430597        1.7378756720       -1.5627026333
 H          4.7234923893        1.4154734839       -1.3674251486
 H          4.8101450285       -1.9939900395       -0.5446488788
  34
        -71.10302038
 O         -3.5231377254        0.6142278834       -1.2972662398
 O         -4.9248283912       -1.0660182963       -0.9141217965
 N         -1.4574252412       -0.8088876609        0.1721401281
 N         -2.8927111955       -2.4893103226        0.3657134975
 C         -2.7265061218       -1.2663398802       -0.1031136152
 C         -0.8283138598       -1.8087203511        0.8436625484
 C         -1.7307073993       -2.8370411992        0.9460503389
 C         -3.8179717483       -0.5819278193       -0.7938660825
 H          0.1836025903       -1.7119523728        1.1798782024
 H         -1.6097241088       -3.7974198481        1.4026903380
 H         -4.2987157212        1.0127178441       -1.7431432625
 P          2.8951499488       -0.5945770040        0.1055438231
 O          0.3043046414        0.3245918981       -0.8913219307
 O          0.4384654937        3.5091692358        0.6055307803
 O         -1.5321118315        2.0582914316        1.5468733190
 O          3.1985107654        0.8758354029       -0.4609192383
 O          2.5048683849       -1.4880128767       -1.1467978631
 O          4.3383672946       -1.0710361990        0.4674612783
 O          2.0010512912       -0.6589185290        1.2710403273
 C          0.7185896934        2.1444149696        0.5719730912
 C          0.8954198178        1.6177020083       -0.8740727814
 C         -0.4521039825        1.2772923495        1.1252361182
 C         -0.8753621770        0.4637452639       -0.1200605916
 C          2.3330013572        1.5459055140       -1.3582741645
 H          1.6328986999        1.9681627583        1.1445819323
 H          0.3349233290        2.2786642590       -1.5524895955
 H         -0.0895389862        0.5998768409        1.9012421871
 H         -1.6093075913        1.0618525276       -0.6761670620
 H          2.3550788175        1.0405707383       -2.3276525501
 H          2.7331703767        2.5576124256       -1.4463219639
 H         -0.5291716838        3.6195173048        0.6744899030
 H         -1.4376845492        2.2876897839        2.4826821894
 H          1.5623318090       -1.5355960404       -1.3312470924
 H          4.9869476360       -1.0691021542       -0.2480190965
  34
        -71.10299132
 O         -3.5669372352        0.2772830166       -1.3841402520
 O         -5.0280569610       -0.9681058947       -0.2554639824
 N         -1.4313428044       -0.7252746501        0.2052093812
 N         -2.8690001249       -2.1006265564        1.1919849694
 C         -2.7450895906       -1.1207177716        0.3143240770
 C         -0.7254400259       -1.5067489288        1.0573437206
 C         -1.6325407220       -2.3509292246        1.6523395408
 C         -3.8827549460       -0.6105087029       -0.4433921702
 H          0.3402075818       -1.4590078529        1.1365249115
 H         -1.4575355194       -3.1168066550        2.3790760226
 H         -4.3615720967        0.5717051318       -1.8741101863
 P          3.2274056934       -0.8735664557       -0.3340778198
 O          0.4963968070        0.3734751838       -0.6065021127
 O         -0.0352384215        3.4685557631        1.1152093888
 O         -1.5786453449        2.7118349439       -0.9781128601
 O          3.2744908748        0.6199031425        0.2695580996
 O          2.8176063377       -0.7298936848       -1.8576221288
 O          4.7438792262       -1.2372817979       -0.4251060543
 O          2.4291491274       -1.8073793677        0.4716554859
 C         -0.1608042312        2.1027366675        0.8945516141
 C          1.0231282625        1.4907811603        0.1186946478
 C         -1.3569468766        1.7319970492       -0.0119740878
 C         -0.9119292815        0.3713961176       -0.5921198174
 C          2.1668266970        1.0627296511        1.0265670655
 H         -0.2540446396        1.6060416049        1.8667008551
 H          1.4213412578        2.2147322248       -0.6051336263
 H         -2.2863344029        1.6466568388        0.5534595544
 H         -1.2773290335        0.2405632481       -1.6184027766
 H          2.5078062401        1.9216988178        1.6071843047
 H          1.8395726205        0.2593139859        1.6921104548
 H         -0.5283646242        3.9449232476        0.4209793946
 H         -0.8897160309        2.6911802501       -1.6599648089
 H          1.8667005039       -0.7075718893       -2.0030552622
 H          5.2852034531       -0.6411153009       -0.9581663914
  34
        -71.10296659
 O         -1.1428278588        0.1278263023        1.8357361998
 O         -1.5086030969       -2.0176446728        2.2636881214
 N         -1.6317229034       -0.4440298320       -1.0128887631
 N         -2.4744117935       -2.3736536748       -0.3177661008
 C         -1.8258547797       -1.2857076104        0.0545462694
 C         -2.1784196984       -1.0698710685       -2.0900116950
 C         -2.7031014653       -2.2502342147       -1.6389525630
 C         -1.4522870011       -1.1125195623        1.4582054040
 H         -2.1613128670       -0.6341114738       -3.0667924161
 H         -3.2271319099       -3.0123419760       -2.1774951494
 H         -0.9675000195        0.1238129671        2.7982213897
 P          2.2954347703       -1.0486555190        0.2162373570
 O          0.4047332582        0.6114319747       -0.6685577005
 O         -0.1280826877        3.9835266662       -0.0351947631
 O         -2.1623702793        2.8814090881       -1.2239827833
 O          2.8124661964        0.4727457578        0.3846299960
 O          2.0501582294       -1.3432627744       -1.3033118123
 O          3.6591275606       -1.8283936004        0.4463997990
 O          1.2069726833       -1.4198555202        1.1322383301
 C         -0.2919451396        2.6495405267        0.3510204802
 C          0.9081893279        1.8294087786       -0.1570204096
 C         -1.5217677556        1.9998765592       -0.3568511793
 C         -0.9110956238        0.7934864395       -1.1252333218
 C          1.9258262062        1.4415096060        0.9096454690
 H         -0.3845761849        2.5430406494        1.4323977734
 H          1.3997300681        2.3920286712       -0.9650790955
 H         -2.2596600150        1.6451169831        0.3660082856
 H         -0.9037429732        1.0501112343       -2.1977336581
 H          2.5367099837        2.2913015685        1.2132792990
 H          1.3924061942        1.0059186235        1.7578592810
 H         -0.6028247201        4.5713392801        0.5706835799
 H         -1.5461669775        3.6143143350       -1.4235185263
 H          2.8400597648       -1.2650443545       -1.8547700419
 H          3.9286205507       -1.9382779649        1.3637123941
  34
        -71.10296321
 O         -2.7518254427       -2.9241087739       -0.8509257686
 O         -1.0033588701       -1.9020032733        0.0762999341
 N         -2.8237730088        0.4720333736        0.3231826911
 N         -4.4271432905       -1.0572904061        0.2132247295
 C         -3.1326227623       -0.8409873808        0.0783378097
 C         -4.0003379788        1.0887337203        0.6127688762
 C         -4.9737308991        0.1260062902        0.5527193375
 C         -2.1829499547       -1.9110798243       -0.2315747619
 H         -4.0513884648        2.1330872659        0.8378317071
 H         -6.0251114145        0.2136229736        0.7322668849
 H         -2.1317193790       -3.6658822838       -1.0052940087
 P          3.5748197679       -0.3599629812       -0.3985531567
 O         -0.9402084117        0.8413854300       -1.0016505647
 O          1.0342293713        2.6074368442        0.8138373896
 O         -0.8083488118        1.5856249351        2.4678322206
 O          2.5404214868       -0.0563610144       -1.5983629876
 O          4.8562136956       -0.8297601379       -1.1882439126
 O          4.0222152326        1.0249555228        0.1819954679
 O          3.0432964568       -1.2849803991        0.6132235706
 C          0.7677172782        1.2449632197        0.6222093791
 C          0.4742240681        0.9821960210       -0.8624618785
 C         -0.5465367635        0.8299406338        1.3221950608
 C         -1.5686869920        1.1590028479        0.2167764457
 C          1.1592155598       -0.2708471882       -1.4085704515
 H          1.6137286604        0.6407041981        0.9701123773
 H          0.7985102610        1.8536914885       -1.4464888077
 H         -0.5459887593       -0.2467892367        1.5052371813
 H         -1.7875788907        2.2383574346        0.2684297903
 H          0.9943082210       -1.1065827377       -0.7236749526
 H          0.7375574507       -0.5037921821       -2.3882841532
 H          0.6767242214        2.8692793314        1.6820140704
 H         -0.5000891002        1.1192473108        3.2575436239
 H          4.8397558575       -1.7343552043       -1.5191360013
 H          4.5424035063        1.5769839791       -0.4159601263
  34
        -71.10296165
 O         -5.7684830532       -0.6774643011       -0.0517050070
 O         -4.3744415461        0.7909102812       -0.9814810643
 N         -2.1607644615       -0.8963560120       -0.0036651778
 N         -3.7337551713       -2.2696374315        0.7429391852
 C         -3.5056761405       -1.1232999938        0.1279174095
 C         -1.5368584057       -1.9595917211        0.5630160513
 C         -2.5269380286       -2.7979808571        1.0124073542
 C         -4.5637288020       -0.2396451320       -0.3561447819
 H         -0.4709931694       -2.0417624233        0.5871309865
 H         -2.4383716945       -3.7408902639        1.5109603776
 H         -6.4729726346       -0.0841251406       -0.3827713658
 P          3.9283422321        0.2034002497        0.2689284403
 O         -0.4361911780       -0.2006406920       -1.3885062586
 O          1.4138126662        1.9915581952        0.6619772616
 O         -1.1522904483        2.5032197841        0.2866775812
 O          3.1814572131        0.0515451481       -1.1547305077
 O          5.3791868627       -0.3492788142       -0.0426874900
 O          4.1964133069        1.7271677344        0.4668604545
 O          3.2243514273       -0.4614040542        1.3757145062
 C          0.6342283989        0.8531551457        0.4442599672
 C          0.7918279522        0.3999328258       -1.0137781595
 C         -0.8829634249        1.1576716613        0.5356608680
 C         -1.4898530693        0.2508763488       -0.5663882261
 C          1.9298547757       -0.5938393998       -1.2340632020
 H          0.9069117944        0.0421052171        1.1255596952
 H          0.9790531345        1.2897121647       -1.6331701721
 H         -1.3037704459        0.8873174605        1.5128180916
 H         -2.2212134080        0.8198724192       -1.1538045793
 H          1.8701443507       -1.3923797084       -0.4897949951
 H          1.8503620183       -1.0122993483       -2.2392135629
 H          1.5668146848        2.1165959332        1.6093944992
 H         -0.2993398943        2.9727826027        0.1998911005
 H          5.4865286887       -1.3049329574       -0.0061566186
 H          4.7043960016        2.1569833129       -0.2324257608
  34
        -71.10292781
 O         -4.0123697321        0.7537346730       -0.1880444849
 O         -5.0978918381       -1.1167047033        0.3442176041
 N         -1.6264669897       -0.7149382954       -0.6412561012
 N         -2.6849368483       -2.5630154085       -0.0181278154
 C         -2.8121202798       -1.2623075692       -0.2172997677
 C         -0.7338352875       -1.7328992169       -0.6987078422
 C         -1.4096155949       -2.8653025403       -0.3137819970
 C         -4.0718606678       -0.5605895355        0.0055824296
 H          0.2771605598       -1.5794462139       -1.0133153526
 H         -1.0541747863       -3.8716892508       -0.2355970060
 H         -4.8788477547        1.1793612154       -0.0259855648
 P          3.2151913144       -0.3714383883        0.6922306125
 O         -0.1669565791        0.7276403692       -1.7392041101
 O          0.9938946340        2.4691098019        1.1662614672
 O         -1.4831540443        2.7935892851        0.1465248075
 O          2.4887668961       -0.4031625576       -0.7450315536
 O          2.3387791021       -1.3138517044        1.5843451123
 O          4.5362372785       -1.2104265912        0.4998870019
 O          3.3932686592        0.9986878698        1.2047714823
 C          0.4923562807        1.4012146286        0.4241238372
 C          0.8779331848        1.4281947996       -1.0658420251
 C         -1.0422514248        1.4832201195        0.3318403196
 C         -1.3234808784        0.6695628556       -0.9478378699
 C          2.2363650158        0.8233866850       -1.4120505568
 H          0.7698488993        0.4363469011        0.8675077070
 H          0.8735874792        2.4733507014       -1.4070396321
 H         -1.5304285324        1.0277101213        1.2044175892
 H         -2.1670000951        1.1077606940       -1.4936543140
 H          2.2594832263        0.5997072819       -2.4797307792
 H          3.0086530011        1.5497425263       -1.1530147514
 H          1.9194534776        2.2725905884        1.3969058916
 H         -0.9812837596        3.3691433762        0.7482683894
 H          2.6110867040       -2.2395719284        1.5932899472
 H          5.3177242177       -0.7340501593        0.1982502036
  34
        -71.10289417
 O         -0.2790305211       -2.0633938492        1.2487462671
 O         -0.3602601383       -2.1756924895       -0.9795966030
 N         -2.4196026517        0.0212834524       -0.1156760528
 N         -3.3398580442       -1.9092680172        0.4425590676
 C         -2.2162454876       -1.2908956031        0.1796061507
 C         -3.7692975471        0.2319581853       -0.0253469457
 C         -4.3154090002       -0.9689236856        0.3172468954
 C         -0.8559266586       -1.8886924408        0.0953250797
 H         -4.2047957450        1.1885672698       -0.2201392203
 H         -5.3400375085       -1.2287166946        0.4824330474
 H          0.6855747684       -2.3042806861        1.1316680762
 P          2.7277663856       -1.0444833729       -0.5450649353
 O         -0.1436277017        0.4921569575       -0.2024862828
 O          0.2777064765        3.7945295071        1.1026495783
 O         -1.9897819857        3.3499497140       -0.2653476436
 O          2.8834970265        0.4751126161       -0.0621239691
 O          1.9051957202       -1.0288996718       -1.8753561266
 O          4.1698731241       -1.3455745347       -1.0797348197
 O          2.2487646663       -1.9410349160        0.5333258857
 C         -0.1352435480        2.4691747170        1.0826298610
 C          0.7189793067        1.5587569509        0.1742417898
 C         -1.5714719439        2.2689121972        0.5161350436
 C         -1.4322781035        1.0276639760       -0.4016935623
 C          1.9615929331        1.0186577440        0.8637114103
 H         -0.0832102292        2.1118087887        2.1138387803
 H          1.0238076481        2.1089699633       -0.7286671831
 H         -2.2845618640        2.0611518286        1.3217213908
 H         -1.5512165660        1.3641980598       -1.4469019543
 H          2.4814487630        1.8417822626        1.3584519516
 H          1.6725418165        0.2508393385        1.5865573487
 H          0.1822981673        4.1786709956        0.2148347462
 H         -2.1881111694        4.1077798088        0.3067913348
 H          1.0924237166       -1.5620578279       -1.8157801875
 H          4.8409724680       -1.5044459999       -0.4061183160
  34
        -71.10288777
 O         -4.2319755470       -1.8682326296       -1.3564900522
 O         -2.9155359260       -0.1246424210       -1.7955409506
 N         -1.6242119875       -0.6123415967        0.8078183283
 N         -3.1285935779       -2.2147446882        1.0928076599
 C         -2.6865562943       -1.2861946388        0.2644728789
 C         -1.4069887630       -1.1589796374        2.0308638751
 C         -2.3452685594       -2.1493051901        2.1842934763
 C         -3.2687277645       -1.0229346883       -1.0486024910
 H         -0.6097386983       -0.8264542342        2.6609432080
 H         -2.5019931540       -2.8095793397        3.0119115397
 H         -4.6212121785       -1.6824382199       -2.2350576822
 P          2.9406129671       -0.6515520036       -0.9792730697
 O          0.5079498355        0.1933941367        0.4168904688
 O          0.4103069875        3.6919814223        0.5157889283
 O         -2.0216923661        2.6543018856        0.3476521419
 O          3.4169060989        0.6001860006       -0.1112460526
 O          4.3130542981       -1.0469383191       -1.6416453877
 O          2.6351208866       -1.7621059454        0.1152559922
 O          1.8992582600       -0.4476243859       -1.9948872656
 C          0.3126501072        2.4342540096        1.1110655564
 C          1.1771307652        1.4343124385        0.3213102038
 C         -1.1189711714        1.8230012516        0.9976822898
 C         -0.8675716698        0.4699331958        0.2567461845
 C          2.5934628552        1.2600976642        0.8335837517
 H          0.6361021519        2.4578811808        2.1578015958
 H          1.2167992138        1.7580824960       -0.7298281393
 H         -1.5477317437        1.6211281399        1.9834870418
 H         -1.1268241785        0.5773883013       -0.8059537630
 H          3.0568365118        2.2348922696        0.9978296120
 H          2.5707588995        0.6748187353        1.7571662854
 H         -0.0149848906        4.3590559250        1.0769035067
 H         -1.5806816014        3.0905272039       -0.4007096679
 H          5.0639013857       -1.1433999661       -1.0414970864
 H          2.1267761022       -2.5082673972       -0.2153230994
  34
        -71.10288574
 O         -2.9277244215       -2.3947647629        2.1099945335
 O         -1.4506015296       -0.7443457703        1.8863103786
 N         -2.7608426535       -0.2383315294       -0.7724516402
 N         -4.4260296363       -1.4240613671        0.0897965605
 C         -3.1828878394       -1.0182936039        0.2733558243
 C         -3.8040222245       -0.1729549623       -1.6396357563
 C         -4.8244543372       -0.9011444690       -1.0840485951
 C         -2.4223242896       -1.3561709185        1.4755615726
 H         -3.7459844003        0.3740875519       -2.5568984709
 H         -5.8118031275       -1.0773891848       -1.4574909871
 H         -2.4518865650       -2.5923846264        2.9423213576
 P          3.8439509118       -0.0504734369        0.0729551546
 O         -0.4598543943       -0.5939513722       -0.8359725814
 O          0.8066852281        2.4286997475       -1.1331730985
 O         -1.7036577365        2.7485888411       -0.4874863861
 O          2.5998131646       -0.0067404166        1.0715961166
 O          3.6874806936        1.2763128757       -0.7729007169
 O          5.0570659383        0.2820500223        1.0170801930
 O          3.9493810312       -1.2931535588       -0.7128619740
 C          0.4070002405        1.5308899455       -0.1313202479
 C          0.7471304865        0.0660153926       -0.4784156955
 C         -1.1353049316        1.5491018123       -0.0833406097
 C         -1.4808750552        0.3600792968       -1.0164354189
 C          1.4151372964       -0.6711899843        0.6789292510
 H          0.8388437144        1.8037731152        0.8357841340
 H          1.4295896912        0.0419080489       -1.3413172032
 H         -1.4889967069        1.3229630480        0.9256656554
 H         -1.4874617413        0.7206735951       -2.0579842004
 H          0.7532578581       -0.6848130877        1.5462538179
 H          1.6459345202       -1.6903616914        0.3588228661
 H          1.7620254010        2.5726924170       -1.0782075944
 H         -1.0865903724        3.1844441923       -1.1040589035
 H          4.4124649364        1.4229261017       -1.3931772364
 H          5.4206675472       -0.4612472738        1.5107415189
  34
        -71.10288324
 O         -5.6779849003       -0.8942941767       -0.7563387125
 O         -3.9624568553        0.1465119654       -1.7250208542
 N         -2.2733269951       -0.8909385233        0.4603669069
 N         -4.1060344790       -1.8961701596        1.2004612009
 C         -3.6140419865       -1.1000025149        0.2688314079
 C         -1.9312202396       -1.5969094328        1.5676267799
 C         -3.0769239841       -2.2131655653        2.0060108604
 C         -4.4083682963       -0.5489485475       -0.8269462348
 H         -0.9266261292       -1.6203822882        1.9328608636
 H         -3.2171127416       -2.8591936955        2.8476968494
 H         -6.2028239450       -0.5345421019       -1.5002730827
 P          4.0445096302        0.5099176022       -0.3583569171
 O         -0.1835176264       -0.7831174770       -0.5313742088
 O          1.1438889664        2.1739287250        0.9769298471
 O         -1.0589594613        2.3168613170       -0.4213810673
 O          3.2422604515       -0.8861604773       -0.4293345159
 O          5.5348798648        0.0690152824       -0.5716686984
 O          3.7093327092        1.3010809793       -1.6661546703
 O          3.7338322089        1.2627828693        0.8709075411
 C          0.4535620117        0.9634398355        0.9262634044
 C          0.9577055286       -0.0332226364       -0.1369298411
 C         -0.9926641269        1.2335266863        0.4553149799
 C         -1.3714021386       -0.0609154058       -0.3004669491
 C          2.0522431707       -1.0023856022        0.3248403780
 H          0.4383547716        0.4787227741        1.9136171458
 H          1.3305901087        0.5422561885       -0.9971340238
 H         -1.6705157766        1.3962658716        1.3056273862
 H         -1.8607505532        0.2007990683       -1.2468055590
 H          2.2805414892       -0.8350266786        1.3808279254
 H          1.7019649399       -2.0244495344        0.1685667071
 H          2.1050223538        2.0043666084        1.0564185084
 H         -0.3670668679        2.9511773935       -0.1576479002
 H          5.9749546773       -0.3503119865        0.1761565588
 H          4.0694437218        0.9390118232       -2.4859686824
  34
        -71.10287804
 O         -3.4924611019        0.3188897515       -1.4325860550
 O         -4.9689442749       -0.9993703456       -0.4130083151
 N         -1.3963773888       -0.7279809146        0.1872226984
 N         -2.8426617213       -2.1853769592        1.0330860618
 C         -2.7027648282       -1.1552372449        0.2158624856
 C         -0.7098644821       -1.5382400336        1.0276406297
 C         -1.6213611351       -2.4342983992        1.5335800799
 C         -3.8224407853       -0.6193115584       -0.5500529775
 H          0.3487526956       -1.4600197133        1.1613757948
 H         -1.4612738247       -3.2351147846        2.2253487394
 H         -4.2744442468        0.6273871826       -1.9339504335
 P          3.1202474812       -0.9035541876       -0.3100877259
 O          0.5459983882        0.4047967772       -0.4587798580
 O         -0.1067258477        3.5290864323        1.1696660651
 O         -1.5822804113        2.6735039121       -0.8720555024
 O          3.2567624663        0.6814782494       -0.0409551809
 O          2.4575370551       -1.1278628418       -1.7083086212
 O          4.6271938989       -1.2854267274       -0.6025095017
 O          2.4832309144       -1.6181625437        0.8060515366
 C         -0.1030645548        2.1474658619        0.9866050901
 C          1.0432925220        1.6132361729        0.1077531063
 C         -1.3252713638        1.7445622873        0.1346823232
 C         -0.8586987102        0.4207494404       -0.5122144885
 C          2.3362753181        1.2891568118        0.8428924435
 H         -0.1271445157        1.5998329277        1.9369875744
 H          1.2422033006        2.3309950613       -0.7013108831
 H         -2.2186465959        1.5846507523        0.7547067586
 H         -1.1910463874        0.3867380771       -1.5576725252
 H          2.8194353074        2.1962630725        1.2070096572
 H          2.1247259157        0.5980784466        1.6647927858
 H          0.5176072923        3.7904900874        1.8595687924
 H         -1.5086997259        3.5653996871       -0.4909753228
 H          2.9521090345       -0.7717195429       -2.4574771798
 H          5.1975422032       -1.3603574295        0.1692178898
  34
        -71.10287533
 O         -3.2371449909       -2.3591987849       -1.6044454988
 O         -3.2269336165       -0.1379765737       -1.7433699435
 N         -1.2444821918       -0.1620180178        0.4612905490
 N         -1.7259622258       -2.3243709188        0.6348402955
 C         -1.9358814032       -1.2251221355       -0.0651834999
 C         -0.5606161976       -0.6511388076        1.5272996092
 C         -0.8795324946       -1.9832174993        1.6209907009
 C         -2.8436447585       -1.1662703700       -1.2077475302
 H          0.0798116475       -0.0539923253        2.1386713160
 H         -0.5363662873       -2.7025331273        2.3348757863
 H         -3.8678698634       -2.3103554390       -2.3517990548
 P          2.2164929155       -1.3590841565       -0.0409845111
 O         -0.1006385402        1.2884329623       -1.0067776565
 O          0.8573302515        3.8575394622        1.1961103527
 O         -1.6897656434        3.4457487004        0.6098636316
 O          2.1386742360        0.1369385707        0.4839481051
 O          1.1035327618       -1.4563319691       -1.1544368310
 O          3.5558056172       -1.4567334181       -0.8977999864
 O          2.1375625849       -2.3020602118        1.0802738211
 C          0.5298042057        2.5255861857        0.9487086886
 C          0.9727135506        2.0483033350       -0.4547796593
 C         -1.0005156318        2.2750108601        0.9438870496
 C         -1.1781768933        1.1690383840       -0.1070581724
 C          2.2641728202        1.2319122412       -0.4213291865
 H          1.0239824021        1.9098841599        1.7073501749
 H          1.1422542306        2.9143408049       -1.1078183053
 H         -1.3766872630        1.9751235556        1.9232786699
 H         -2.1018483468        1.3015879508       -0.6839404879
 H          2.4904141139        0.8649418866       -1.4227152176
 H          3.0741675611        1.8655947514       -0.0541883557
 H          0.0432016235        4.3920805842        1.1236021111
 H         -1.6128202194        3.6268571035       -0.3396546300
 H          1.2664473091       -2.1396816542       -1.8146329630
 H          4.3130535668       -1.7956996927       -0.4080778235
  34
        -71.10286352
 O         -1.4314273654       -2.2559196450        2.0708691894
 O         -1.1063228250       -0.0557817629        1.9690183028
 N         -1.7878022963       -0.3308527331       -0.9423175971
 N         -2.7986699156       -2.1890157487       -0.2781058667
 C         -1.9919561088       -1.2112608854        0.0870507817
 C         -2.5020435713       -0.8074018945       -1.9958664416
 C         -3.1287572679       -1.9457067750       -1.5612665737
 C         -1.4529183523       -1.0997343706        1.4436496550
 H         -2.5149428524       -0.3108094392       -2.9430351372
 H         -3.7918604985       -2.5977569212       -2.0909443609
 H         -1.1330602645       -2.1738670422        2.9994736191
 P          2.5116390088       -0.9199067385       -0.0265047259
 O          0.3375373691        0.4780893733       -0.4770796621
 O          0.1485417679        3.8604319326       -0.6105038652
 O         -2.2565807969        2.8554943077       -0.9626957333
 O          2.4497568747        0.0866846238        1.2075494777
 O          3.7010995553       -1.8399804820        0.4724824019
 O          1.2877983061       -1.9084710657        0.1185217589
 O          2.7663446530       -0.3241120375       -1.3525760455
 C         -0.0871986364        2.7394198243        0.1899552835
 C          0.9741875578        1.6338374978        0.0493089580
 C         -1.4184932182        2.0429688647       -0.2052798315
 C         -0.9237444394        0.8117944985       -1.0045850506
 C          1.6125657545        1.2192630878        1.3670318226
 H         -0.1381617915        3.1104546863        1.2148670747
 H          1.7655610227        1.9313841746       -0.6531312777
 H         -1.9460181033        1.6969845726        0.6897721720
 H         -0.8390197228        1.0859959413       -2.0694934762
 H          2.2392823712        2.0201089057        1.7648972252
 H          0.8213776555        0.9579074148        2.0760087682
 H          0.4866668987        3.6004018736       -1.4812778102
 H         -1.8110380151        3.7174385750       -1.0860253273
 H          4.5822680557       -1.4960284147        0.2933024629
 H          1.5031462393       -2.8005177322       -0.1781380835
  34
        -71.10285836
 O         -1.9680467163       -0.8795885755       -1.9522232843
 O         -1.9639840075       -3.0035745185       -1.3032606757
 N         -1.5528181788       -0.0567206179        0.7751967484
 N         -2.0443937625       -2.1377812816        1.3765396154
 C         -1.8251181153       -1.3364359891        0.3560243961
 C         -1.5954412893       -0.0967268437        2.1384668980
 C         -1.9091540877       -1.3825153724        2.4853822186
 C         -1.8981173640       -1.8259728198       -1.0233272602
 H         -1.4276373607        0.7593996460        2.7544208237
 H         -2.0481719383       -1.8067640883        3.4582045512
 H         -2.0554069098       -1.2740108681       -2.8434500488
 P          2.0463117526       -1.0089283895       -0.8908414408
 O          0.1560539185        0.9969430345       -0.5079219620
 O          0.6419950543        3.8544654769        1.3238779448
 O         -1.4477095376        3.4701257073       -0.2378686102
 O          2.5627762108       -0.2836112990        0.4316673186
 O          2.2201896421        0.0869161877       -2.0062473026
 O          3.2731301756       -1.9661499937       -1.1760600976
 O          0.7532000047       -1.7164775813       -0.8050556827
 C          0.1650008466        2.5463291146        1.3183636258
 C          1.0259571402        1.5896704334        0.4509305318
 C         -1.2442430446        2.4268001778        0.6701257389
 C         -1.1776914472        1.0720119686       -0.0547060708
 C          1.7203314968        0.4967783315        1.2588416264
 H          0.1616620721        2.1976750199        2.3554850554
 H          1.7868168165        2.1417792234       -0.1107013680
 H         -2.0570331497        2.4941652681        1.3930368650
 H         -1.8128158910        1.0533262369       -0.9454250814
 H          2.3745542217        0.9324108600        2.0163556291
 H          0.9743492512       -0.1543522047        1.7252810689
 H          0.0841712161        4.3902398227        0.7268497723
 H         -0.9237585927        3.3194184853       -1.0408752481
 H          2.0060184760       -0.1928067608       -2.9020560994
 H          3.2329047527       -2.8212735898       -0.7366508925
  34
        -71.10281183
 O         -5.1309179239       -1.1371715827       -0.0819048530
 O         -4.0845365546        0.7815565981       -0.5104495619
 N         -1.5504635501       -0.7393784318       -0.4056525800
 N         -2.8206475149       -2.5378546602       -0.1459928871
 C         -2.8266123686       -1.2232091249       -0.2765403845
 C         -0.7236454550       -1.8136922616       -0.3529552493
 C         -1.5304421599       -2.9140338005       -0.1963997170
 C         -4.0460850066       -0.4206205058       -0.3004353272
 H          0.3383928810       -1.7142586691       -0.4393850690
 H         -1.2563075147       -3.9456679864       -0.1178347865
 H         -5.9456415036       -0.5951419465       -0.1130867114
 P          3.2342150847       -0.3693112544        0.6319309266
 O         -0.2575297649        0.7518531881       -1.6348086524
 O          0.4934505524        3.3637942867        0.2209460265
 O         -1.2585082577        1.8314484219        1.5288947728
 O          2.2348684532       -0.4421598891       -0.6123019343
 O          2.2403529333       -0.4724358230        1.8483072790
 O          3.9443677142       -1.7771342866        0.6493850410
 O          4.1315774525        0.7990872010        0.6003403371
 C          0.7715518747        1.9977672965        0.1383685972
 C          0.9171395068        1.4937476873       -1.3103471902
 C         -0.3671566393        1.1230223608        0.7209646111
 C         -1.1215067567        0.6302171819       -0.5325519838
 C          2.1668778528        0.6383939326       -1.5284822046
 H          1.7086440992        1.8548258927        0.6835919822
 H          0.9741162470        2.3468209882       -1.9974465744
 H          0.0599623646        0.2627184060        1.2512420029
 H         -2.0236755727        1.2404747487       -0.6796754614
 H          2.1270218800        0.1981605556       -2.5265514817
 H          3.0540814491        1.2665792349       -1.4147063245
 H         -0.4272485095        3.5319377621       -0.0342866324
 H         -0.7973980616        2.1773697164        2.3085646928
 H          2.6290077981       -0.7770731691        2.6769291456
 H          4.7493823938       -1.8493759089        0.1245768414
  34
        -71.10280864
 O         -3.6225162315        0.7002178257       -1.1117991712
 O         -4.9385367918       -1.0851101562       -0.9905635407
 N         -1.4980661520       -0.8047035450        0.1726734837
 N         -2.9238342986       -2.4962700255        0.3346582793
 C         -2.7651145932       -1.2620928100       -0.1083513084
 C         -0.8609390999       -1.8149939041        0.8176497510
 C         -1.7581065023       -2.8497020880        0.9036263911
 C         -3.8651004703       -0.5623638905       -0.7681110445
 H          0.1530693336       -1.7162419911        1.1458664026
 H         -1.6328471602       -3.8175919527        1.3431356544
 H         -4.4067240432        1.1102779694       -1.5310908012
 P          2.9543127439       -0.5847846592        0.1129629243
 O          0.2655676514        0.3032005913       -0.9052548235
 O          0.4394948998        3.4916260281        0.5713938271
 O         -1.5196012835        2.0575044213        1.5599335702
 O          3.1847636835        0.8793948459       -0.4670735739
 O          2.6708281158       -1.4514645445       -1.1847444018
 O          4.4115630354       -0.9370118865        0.5883943257
 O          2.0035724848       -0.7433907845        1.2231753478
 C          0.7137357959        2.1251489421        0.5446140608
 C          0.8743650349        1.5853622029       -0.8989360569
 C         -0.4558279613        1.2678730967        1.1151370151
 C         -0.9043510848        0.4608420989       -0.1261506280
 C          2.3054183074        1.4848544180       -1.3968215835
 H          1.6327858554        1.9501965760        1.1104205732
 H          0.3192537794        2.2511528030       -1.5781640597
 H         -0.0861991711        0.5829750811        1.8814396055
 H         -1.6363678333        1.0687135821       -0.6747113150
 H          2.3081883985        0.9073567916       -2.3242964774
 H          2.7061118432        2.4865355629       -1.5599935100
 H         -0.5263126009        3.6058453167        0.6583023974
 H         -1.4048501509        2.2831243711        2.4945892836
 H          2.1901102972       -2.2709642036       -1.0409330479
 H          5.1189502424       -0.8145590493       -0.0570229556
  34
        -71.10276401
 O         -3.5451282883        0.2805425667       -1.4092054595
 O         -5.0196522720       -0.9561438077       -0.2883691329
 N         -1.4264174336       -0.7306587237        0.2013383329
 N         -2.8760194434       -2.1176497775        1.1535388493
 C         -2.7405358443       -1.1271206830        0.2891100406
 C         -0.7313308567       -1.5212804854        1.0548405644
 C         -1.6452913489       -2.3734934704        1.6269391810
 C         -3.8708686684       -0.6061779213       -0.4730285504
 H          0.3329782706       -1.4694988786        1.1512611799
 H         -1.4802562255       -3.1481334964        2.3467198120
 H         -4.3332619340        0.5817111474       -1.9054790590
 P          3.1997976580       -0.8763178544       -0.3479057075
 O          0.5149307898        0.3717110874       -0.5379229190
 O         -0.1189087774        3.4794553020        1.1192672192
 O         -1.4988548963        2.6451868511       -1.0080775061
 O          3.2779723814        0.6496932401        0.1674879587
 O          2.7296707370       -0.8232235835       -1.8577705006
 O          4.7095551796       -1.2559016415       -0.4857349636
 O          2.4452518907       -1.7543789921        0.5570121659
 C         -0.1530177234        2.0974598082        0.9443002366
 C          1.0272212446        1.5248198924        0.1367265582
 C         -1.3415143924        1.7320585319        0.0326777875
 C         -0.8920702535        0.3819440594       -0.5606809464
 C          2.2292765794        1.1279971176        0.9841200316
 H         -0.2476763871        1.5595584660        1.8960837072
 H          1.3389072418        2.2566050704       -0.6212344079
 H         -2.2728679383        1.6238484637        0.6049697862
 H         -1.2417720167        0.3024371817       -1.5969114270
 H          2.6310233980        1.9947105690        1.5104338414
 H          1.9419115217        0.3450079733        1.6924332387
 H          0.4818212493        3.7259641757        1.8348627840
 H         -1.4364031275        3.5436923476       -0.6418481284
 H          1.7848138068       -0.6747346247       -1.9667283696
 H          5.2217830644       -0.7189271028       -1.1039875290
  34
        -71.10273978
 O         -3.3243091172       -2.3075009994       -1.6163724487
 O         -3.2719815302       -0.0850719628       -1.7234505311
 N         -1.2471805018       -0.1836125961        0.4407587742
 N         -1.7600495540       -2.3404751039        0.5849960873
 C         -1.9711040551       -1.2228722668       -0.0863070080
 C         -0.5393947451       -0.7059513000        1.4746199641
 C         -0.8785061298       -2.0341270724        1.5517085107
 C         -2.9003160118       -1.1276103248       -1.2088007143
 H          0.1365552288       -0.1341470710        2.0722698216
 H         -0.5260668280       -2.7734130770        2.2403100308
 H         -3.9661518518       -2.2341214739       -2.3521104555
 P          2.2464676687       -1.3537484864       -0.0192821106
 O         -0.0888802138        1.2641740473       -0.9988999687
 O          0.8124300933        3.9366519847        0.9575050652
 O         -1.7639949708        3.3513821185        0.8125947378
 O          2.1698697026        0.1499829473        0.4876938546
 O          1.1209898403       -1.4706162154       -1.1171851760
 O          3.5761872953       -1.4546015093       -0.8904505024
 O          2.1885032098       -2.2805941880        1.1167656922
 C          0.5577562580        2.5633223805        0.9111041211
 C          0.9815564258        2.0390503810       -0.4730384989
 C         -0.9580559193        2.2297369160        1.0024071990
 C         -1.1613970357        1.1603074180       -0.0944988189
 C          2.2786054800        1.2304179734       -0.4365804638
 H          1.1109201210        2.0269082797        1.6920351007
 H          1.1390217483        2.8948670315       -1.1430195047
 H         -1.2397310457        1.8301762083        1.9791701124
 H         -2.0891506395        1.3391589318       -0.6514558115
 H          2.4926822517        0.8487532192       -1.4348785078
 H          3.0917167618        1.8729559360       -0.0927724111
 H          0.5844248278        4.2905640393        1.8301583933
 H         -1.4138278071        3.8962424295        0.0894703687
 H          1.2792376679       -2.1556144510       -1.7765877614
 H          4.3403376034       -1.7881211955       -0.4077323702
  34
        -71.10273186
 O         -5.1474992146       -1.0684216076        0.0189875684
 O         -4.0805904976        0.8381445173       -0.4348829468
 N         -1.5952773052       -0.6546670232       -0.4799277102
 N         -2.7542721965       -2.4154246221        0.2164415346
 C         -2.8347319967       -1.1509579029       -0.1612755127
 C         -0.7140480626       -1.6614151713       -0.2857216713
 C         -1.4533214901       -2.7407007707        0.1441024680
 C         -4.0591082660       -0.3651417429       -0.2111262915
 H          0.3341574991       -1.5379033515       -0.4593737327
 H         -1.1158883352       -3.7227732739        0.4032786943
 H         -5.9595835677       -0.5219579899       -0.0056317228
 P          3.5666667435       -0.7905456390        0.4970995078
 O         -0.0338371241        0.7602453229       -1.5037529242
 O          0.4546638216        3.0786419090        1.1857313568
 O         -1.8548908547        2.9352702953       -0.1294038161
 O          2.1667916637       -0.1873546935        0.0259579912
 O          3.1059572972       -2.0567200350        1.3056454382
 O          4.1666838129       -1.3685140628       -0.8414084162
 O          4.4395857124        0.1583321727        1.2125288251
 C          0.1452068058        1.8606243290        0.5960004181
 C          0.8205937922        1.6368831696       -0.7735660922
 C         -1.3488814619        1.6914257763        0.2535546514
 C         -1.3072106035        0.6917370179       -0.9268067006
 C          2.2219809165        1.0454578947       -0.6806486315
 H          0.4643453533        1.0729461122        1.2851916978
 H          0.8858756960        2.5940611805       -1.3087327033
 H         -1.9165202480        1.2758714239        1.0938474828
 H         -2.0587896264        0.9625403138       -1.6814396985
 H          2.6090585583        0.8628997264       -1.6859208514
 H          2.8798529777        1.7374769347       -0.1477411713
 H         -0.1128552017        3.7640797961        0.7913899616
 H         -2.8094039521        2.8573688571       -0.2791192040
 H          3.0945359117       -1.9411912421        2.2617637441
 H          5.1216265835       -1.5001742602       -0.8316432768
  34
        -71.10272127
 O         -2.3285847643       -3.1594104167        0.1765661332
 O         -0.7906589629       -1.5886823717        0.5392714753
 N         -2.9257416007        0.3898092457       -0.0934850006
 N         -4.3149637617       -1.3219844792        0.1554296597
 C         -3.0454282774       -0.9614388346        0.1085981332
 C         -4.1906650143        0.8738231307       -0.1801113312
 C         -5.0325806052       -0.1965389278       -0.0142877803
 C         -1.9417681659       -1.9034588463        0.2883184849
 H         -4.3906565864        1.9119830123       -0.3419530575
 H         -6.1025096370       -0.2214128072       -0.0080727097
 H         -1.5967716696       -3.7887120970        0.3377760789
 P          3.5529808118       -0.4148653647       -0.1715522274
 O         -0.9263895339        0.6068416184       -1.2475494179
 O          1.2299350213        2.4015354964        0.7775179998
 O         -1.1568164076        2.5157603657        1.6934805523
 O          2.6611525451        0.0608329152       -1.4058510625
 O          4.9652045592       -0.6305821926       -0.8224110411
 O          3.6800510478        0.9202199722        0.6982315950
 O          3.0560998488       -1.5772403708        0.5718948542
 C          0.5675141729        1.1939338536        0.5310754911
 C          0.4328173460        0.9057262007       -0.9804214533
 C         -0.8910077691        1.3164173156        1.0393774376
 C         -1.7395841473        1.1817354671       -0.2536425813
 C          1.2872144713       -0.2671952289       -1.4537731224
 H          1.0608453090        0.3501925272        1.0238266582
 H          0.7210169989        1.8141189367       -1.5325078206
 H         -1.1268991362        0.4877481836        1.7145336435
 H         -2.0634023948        2.1908372972       -0.5560437584
 H          1.0821668084       -1.1387519776       -0.8267963137
 H          1.0439419727       -0.4919809591       -2.4940071149
 H          2.1886605725        2.2534283553        0.7519644471
 H         -0.3661975681        3.0834785053        1.6120815576
 H          5.2655588951        0.0546698151       -1.4344220879
 H          4.2183882645        0.8151864727        1.4920638673
  34
        -71.10272019
 O         -2.4552125608       -0.1100578825       -1.8332487647
 O         -0.9984223037       -1.7384842729       -2.2407111288
 N         -1.5358502427       -0.2846361323        0.8963689661
 N         -1.8199045617       -2.4615637931        0.5992620774
 C         -1.6598377719       -1.3024080340       -0.0005827567
 C         -1.6069589703       -0.8492878250        2.1305620145
 C         -1.8005726865       -2.1884412570        1.9242226184
 C         -1.6536136949       -1.0794837409       -1.4517336709
 H         -1.5374883581       -0.2696688279        3.0265966370
 H         -1.9275483561       -2.9716926206        2.6423853042
 H         -2.4437856242        0.0284604485       -2.8037325170
 P          2.0445831499       -1.1643700329       -0.6187864704
 O         -0.3581732713        1.0872909774       -0.5658747501
 O         -0.5763121749        3.9331879481        0.5762832094
 O         -1.3008418015        2.3852597522        2.6459831543
 O          2.1674285365        0.3243245177       -1.1895806284
 O          1.6565881512       -2.0254514916       -1.8661386623
 O          3.5676998368       -1.5326266433       -0.3974350592
 O          1.2268304984       -1.2844113015        0.6034295221
 C          0.3050537937        2.8777289884        0.8445859129
 C          0.6737886851        2.0614967836       -0.4059321742
 C         -0.4796004256        1.8390978790        1.6735034926
 C         -1.2214469570        1.0768363408        0.5538054489
 C          2.0442768098        1.3810607808       -0.2522981393
 H          1.1974578662        3.2233927982        1.3743411283
 H          0.6645529189        2.6644884467       -1.3194841616
 H          0.2122322724        1.1481373089        2.1647231373
 H         -2.1554028726        1.6022278525        0.2905076696
 H          2.8462739183        2.0917057313       -0.4583157351
 H          2.1457949095        0.9756824002        0.7570937958
 H         -0.1008029107        4.6949550496        0.2162387719
 H         -1.6879455443        3.2082818465        2.2984505890
 H          0.7026407535       -2.0713467112       -2.0771828832
 H          3.7189497331       -2.3536158883        0.0831763373
