  34
        -71.11218621
 O         -4.9025258476       -1.1367365356       -0.5400514289
 O         -3.5913882162        0.5559766778       -1.1621355922
 N         -1.3837996875       -0.7721810228        0.2000256486
 N         -2.8620099912       -2.2832196372        0.8814926556
 C         -2.6940144545       -1.1852104725        0.1639584109
 C         -0.7196230280       -1.6596598690        0.9737263456
 C         -1.6544330241       -2.5853570431        1.3829709813
 C         -3.7489855322       -0.5046417520       -0.5704225881
 H          0.3360877738       -1.5960364928        1.1388769471
 H         -1.5151878924       -3.4419355227        2.0093993387
 H         -5.6021561034       -0.6633040573       -1.0352329986
 P          3.1385329316       -0.8679596945       -0.2585219823
 O          0.5597532046        0.3712017619       -0.4049896963
 O         -0.0026289454        3.5941822820        1.0792738573
 O         -1.6881294418        2.6713719265       -0.7439414911
 O          3.2838355917        0.7302719795       -0.0955917449
 O          2.4636826398       -1.1790149945       -1.6360708419
 O          4.6406911854       -1.2742714035       -0.5446458818
 O          2.5085883288       -1.5164331619        0.9009590353
 C         -0.0579291961        2.2171848320        0.9278242758
 C          1.0535115038        1.6289736892        0.0360805829
 C         -1.3240890404        1.7129624610        0.2033111329
 C         -0.8440032082        0.3923050491       -0.4601507174
 C          2.3718741819        1.3948201147        0.7548714905
 H          0.0066514385        1.7732702943        1.9264881489
 H          1.2128212726        2.2801502472       -0.8352552477
 H         -2.1450172186        1.5163779857        0.9025716674
 H         -1.1751775546        0.3704655599       -1.5100623973
 H          2.8274539830        2.3455190578        1.0330355726
 H          2.1933067357        0.7751274213        1.6384366738
 H         -0.4291349633        4.0055929306        0.3068179965
 H         -2.5116789458        2.3883297636       -1.1736515346
 H          2.9645582522       -0.8807491855       -2.4060265486
 H          5.2300147917       -1.2679063470        0.2164868401
