34
imidazole_2_carboxylic_acid_ribose_phosphate  charge=0 mult=1  seed=1_b3lyp_pcm
O     -4.14544300     0.70797300    -1.13050200
O     -5.63935900    -0.86186900    -0.54377100
N     -2.04145900    -0.79234500     0.06477100
N     -3.54770300    -2.29293200     0.73696900
C     -3.37235000    -1.16158200     0.07040100
C     -1.37452700    -1.75605300     0.76374000
C     -2.31914900    -2.66832600     1.17005700
C     -4.50082600    -0.45298900    -0.55053800
H     -0.31017600    -1.73283700     0.89060400
H     -2.16198400    -3.56676300     1.74219600
H     -4.93736000     1.11104100    -1.51715500
P      4.20655500    -0.69263800    -0.21903300
O     -0.01625600     0.12272800    -0.68278200
O      0.20562700     3.08023200     1.29105500
O     -1.67157500     2.76172000    -0.62232500
O      2.89168900     0.14464700    -0.50223600
O      4.74225800    -0.97561600    -1.68723600
O      5.21324200     0.42260200     0.30248600
O      4.05153400    -1.86963500     0.65254600
C     -0.18556700     1.75027400     1.00513800
C      0.76299900     1.13450800    -0.02563700
C     -1.54034700     1.67286400     0.27132000
C     -1.39947700     0.38671100    -0.56109500
C      2.00922100     0.53472200     0.57375600
H     -0.21644700     1.14913100     1.91493300
H      1.04658100     1.90121900    -0.75138900
H     -2.38730200     1.62295600     0.95573200
H     -1.84295800     0.52110200    -1.54176100
H      2.50518500     1.28593500     1.18912500
H      1.77568200    -0.33677500     1.18360700
H     -0.09506300     3.32214700     2.17303800
H     -1.23264200     3.51979500    -0.21140200
H      4.39142200    -1.78392600    -2.08150200
H      5.95727200     0.07046500     0.80656100
