37
calc_b1a6defdb4efbf2c; angstrom; atom order from source job; failed
P -2.857199 -1.908942 -0.424498
O -0.998939 1.079259 1.550170
O 0.420016 2.716662 -1.319643
O -1.595697 3.789922 0.128063
O -2.783480 -0.320901 -0.454525
O -1.394010 -2.457818 -0.135764
O -3.016781 -2.269273 -1.967456
O -3.850424 -2.453340 0.511470
N 1.141174 0.437261 0.896135
N 2.295754 -1.322543 1.685149
N 2.618587 1.065625 -0.949695
N 4.519840 -0.381874 -1.126595
N 4.907456 -2.166999 0.299369
C -0.370542 1.817021 -0.584165
C -1.738517 2.431593 -0.271417
C 0.138974 1.503690 0.837041
C -2.204791 1.607950 0.934781
C -3.186720 0.481891 0.687044
C 2.253438 0.312774 0.099047
C 1.236680 -0.565188 1.836643
C 2.950889 -0.782649 0.597384
C 4.140720 -1.128827 -0.071457
C 3.759183 0.649265 -1.499375
H -0.517120 0.877789 -1.120140
H -2.421670 2.353666 -1.118819
H 0.570076 2.399904 1.293098
H -2.689256 2.278107 1.646995
H -4.168456 0.894906 0.462484
H -3.261349 -0.139887 1.575552
H 1.310666 2.308884 -1.407447
H -0.948088 4.192128 -0.466499
H 0.485309 -0.685379 2.596569
H 4.111556 1.215379 -2.352964
H 4.652025 -2.741956 1.082105
H 5.750326 -2.374058 -0.207364
H -0.723107 -2.131699 -0.751637
H -3.793973 -1.875142 -2.386690
