37
calc_b1a6defdb4efbf2c; angstrom; first printed source-job orientation; unoptimized start
P 1.235256 2.629846 0.271746
O 1.447330 -0.007611 1.106065
O 1.126704 -2.605461 -1.280396
O 3.577793 -1.891697 -0.860416
O 2.682728 2.102183 -0.197554
O 0.166240 1.853222 -0.592250
O 1.194886 4.041796 -0.447108
O 1.028975 2.667900 1.725703
N -0.704256 -0.743245 0.654287
N -2.607023 0.254173 1.258138
N -1.614279 -2.378936 -0.917615
N -3.983985 -2.231933 -1.110625
N -5.286619 -0.717907 0.039642
C 1.197861 -1.283041 -0.856901
C 2.676250 -0.828879 -0.767497
C 0.689816 -1.067669 0.591349
C 2.774754 -0.161462 0.626343
C 3.407277 1.221962 0.635806
C -1.699490 -1.366632 -0.041671
C -1.318543 0.218109 1.410416
C -2.889076 -0.736739 0.347790
C -4.083469 -1.215629 -0.233220
C -2.799398 -2.735439 -1.391906
H 0.635600 -0.614232 -1.520100
H 2.899583 -0.094350 -1.551478
H 0.879587 -1.990939 1.172637
H 3.339556 -0.832791 1.288440
H 4.423809 1.187121 0.244530
H 3.387557 1.599673 1.661373
H 0.178342 -2.856787 -1.334541
H 3.096397 -2.666135 -1.204320
H -0.752810 0.874018 2.040090
H -2.793003 -3.547860 -2.105109
H -5.366130 0.037650 0.697633
H -6.092988 -1.115539 -0.410993
H -0.006623 2.315276 -1.423111
H 1.670721 4.749795 -0.000265
