  30
        -55.07794185
 O         -1.3207890970        0.6882993065       -1.3044486950
 O         -1.6348082227       -2.2388196102        0.5678562913
 O         -3.7266720828       -0.8640162394       -0.2442701503
 O         -1.0078914861        1.9663155980        1.3543435526
 O          1.0358393561       -2.2956324624        0.0791028297
 N          0.7473435822       -0.1143171040       -0.4958004223
 N          2.8343889944       -0.9415422232        0.2215975319
 N          4.6413223863        0.4302042163        0.3778448747
 C         -1.4028115958       -0.8647266064        0.5015242685
 C         -2.7410322231       -0.1106326978        0.4059655483
 C         -0.6534918522       -0.4163124816       -0.7799168892
 C         -2.3790682800        1.1127328503       -0.4424277317
 C         -1.9864533170        2.3291409474        0.4022877349
 C          1.2664312588        1.1171916794       -0.6675586813
 C          1.5564246788       -1.1812433573       -0.0451770395
 C          2.5680910754        1.3674705499       -0.3918567201
 C          3.3551701105        0.2747220852        0.0753138499
 H         -0.8423971854       -0.5098952465        1.3778891709
 H         -3.0921668427        0.1842429048        1.4029577397
 H         -0.6634614782       -1.2347406370       -1.5174128129
 H         -3.2153918515        1.3813952117       -1.0934084511
 H         -1.6007791260        3.1041416073       -0.2715370387
 H         -2.8935423159        2.6965365923        0.8943854381
 H         -0.7664670305       -2.6822924445        0.4948532974
 H         -3.5646427312       -1.8015407241       -0.0440386193
 H          0.5813376485        1.8606129242       -1.0433377985
 H         -0.8590887270        2.7148109133        1.9505678124
 H          2.9920140232        2.3454919656       -0.5266494944
 H          5.0873720597        1.3254505410        0.2790839665
 H          5.1590709036       -0.3714636016        0.6955148672
