30
cytosine_ribose  charge=0 mult=1  seed=1_b3lyp_pcm
O     -1.12909100     0.75475700    -0.56803400
O     -0.93995800    -2.43908900     1.06915200
O     -3.33889500    -1.80992600     0.03879300
O     -3.02878900     2.87256600    -0.72511300
O      1.63274300    -1.53665000    -1.78772400
N      0.98145500    -0.13027000    -0.09801300
N      3.26772900    -0.38793400    -0.70186200
N      4.89571600     0.78064800     0.39590300
C     -1.15954400    -1.06290700     0.89096800
C     -2.63729600    -0.70073600     0.59199700
C     -0.41785100    -0.45095100    -0.31055300
C     -2.53233100     0.51086000    -0.35826600
C     -3.16218100     1.78318300     0.17837600
C      1.32978300     0.78222600     0.85165200
C      1.97475000    -0.73250600    -0.92152300
C      2.61664900     1.12656100     1.06299300
C      3.59440900     0.49014800     0.23617600
H     -0.84495200    -0.55285000     1.80197600
H     -3.16493900    -0.45248500     1.51024100
H     -0.44459500    -1.12773400    -1.16346200
H     -2.99142000     0.26159600    -1.32143600
H     -4.23057400     1.62132300     0.31600200
H     -2.72239200     2.02725400     1.15044100
H     -1.67108000    -2.90115600     0.63331300
H     -3.25162400    -1.82283400    -0.92090900
H      0.51854500     1.22239800     1.41064800
H     -2.09009000     3.05197200    -0.84551800
H      2.88563400     1.85114900     1.81427700
H      5.20668800     1.44063700     1.08555900
H      5.58009400     0.33509600    -0.19083000
