36
calc_41c59badfb206e78; angstrom; atom order from source job; valid
P -3.365355 1.471211 -0.118832
O 0.157029 -0.803031 -1.178462
O 1.088946 -3.672367 0.117765
O -1.428212 -3.237428 0.886009
O -2.244983 0.357402 -0.071794
O 1.120857 0.357572 1.590249
O 4.654945 2.886559 0.379173
O -2.922519 2.446206 1.051522
O -4.649027 0.668455 0.389568
O -3.551297 2.199347 -1.382734
N 2.274604 -0.350960 -0.256738
N 3.015638 1.464961 1.017423
C 1.327216 -1.392195 -0.595226
C 0.840032 -2.334223 0.532272
C -0.678043 -2.064269 0.601544
C -0.986431 -1.570779 -0.814187
C -2.244605 -0.757149 -0.992459
C 3.534996 -0.264428 -1.011361
C 2.059433 0.458280 0.814575
C 3.969484 1.182347 -1.188318
C 3.948215 1.930800 0.118377
H 1.821917 -2.016865 -1.338112
H 1.338846 -2.132278 1.477442
H -0.878842 -1.280805 1.326289
H -1.088800 -2.443898 -1.471469
H -3.109463 -1.389035 -0.791861
H -2.304272 -0.379579 -2.012358
H 3.377361 -0.724409 -1.982186
H 4.313214 -0.832451 -0.495890
H 3.293096 1.704246 -1.870275
H 4.970527 1.239000 -1.608269
H 0.349644 -4.205006 0.444529
H -1.639001 -3.262647 1.824368
H 2.885643 1.999121 1.865737
H -2.822962 2.033715 1.918878
H -5.485970 1.072698 0.129198
