31
calc_7415e77ee687e04b; angstrom; atom order from source job; valid
O 1.070060 0.730740 0.761464
O 1.633717 -2.501422 0.802055
O 3.453328 -1.408802 -0.801134
O 3.122603 2.790654 0.633792
O -0.591984 0.110269 -1.788151
O -4.927811 0.487475 -0.588206
N -1.058704 -0.240059 0.428512
N -2.721361 0.425783 -1.078915
C 0.321384 -0.492546 0.786239
C 1.099329 -1.514485 -0.071673
C 2.236611 -0.679222 -0.703012
C 2.393889 0.482633 0.279854
C -2.003080 0.071414 1.513071
C 2.938216 1.756790 -0.329525
C -3.420184 -0.313492 1.118928
C -1.378336 0.093836 -0.853780
C -3.790915 0.240303 -0.231649
H 0.299139 -0.877183 1.805173
H 0.466164 -1.981464 -0.823181
H 1.920740 -0.313355 -1.677148
H 3.041295 0.167310 1.106591
H -1.952281 1.135200 1.758986
H -1.697872 -0.487468 2.392946
H 3.919435 1.555802 -0.757824
H 2.271735 2.088958 -1.131241
H -4.139287 0.043154 1.852020
H -3.518074 -1.400600 1.059947
H 2.511567 -2.725312 0.460276
H 3.540734 -1.766430 -1.690074
H -2.927110 0.714319 -2.025671
H 2.263485 3.004317 1.012737
