  36
        -72.17118999
 P         -0.2975143371        2.4049588456        0.1432035377
 O          1.1906907070        0.1637877433        0.8570264490
 O          2.6562946326       -2.7239181770        1.0362780838
 O          4.0072079989       -1.1561822416       -0.5412797743
 O          1.1717578634        2.4984189284       -0.5060478021
 O         -0.0867325176       -1.1776276503       -1.7281706983
 O         -4.4561783970       -1.2693445769       -0.6745849831
 O         -0.7717422884        3.9102044744       -0.0228971444
 O         -0.1945167894        2.3001996636        1.7018913919
 O         -1.1774832031        1.4045716181       -0.4811248260
 N         -0.5832582283       -1.3736957616        0.4886710236
 N         -2.2545243635       -1.2125127197       -1.1309432818
 C          0.7877434548       -1.1882966329        0.9243585524
 C          1.8294122749       -2.0274902378        0.1514328222
 C          2.6247002547       -0.9883263970       -0.6880822399
 C          2.2200690745        0.3724491221       -0.0955380532
 C          1.7131435948        1.3594929079       -1.1451669268
 C         -1.6100510922       -1.1049081456        1.4911676935
 C         -0.9020124349       -1.2193935543       -0.8175246052
 C         -2.9096679424       -1.7917292297        1.1047806893
 C         -3.3100828301       -1.3844650080       -0.2863072816
 H          0.8142269398       -1.4846444432        1.9801258128
 H          1.3252978438       -2.7569775653       -0.4869783248
 H          2.3109428597       -1.0432577945       -1.7322271479
 H          3.0743475985        0.8104275459        0.4372822991
 H          0.9368611291        0.8724022195       -1.7424310146
 H          2.5266014271        1.7150499100       -1.7775214301
 H         -1.7534567921       -0.0208941000        1.5709665419
 H         -1.2522071287       -1.4877828518        2.4465780955
 H         -3.7082469724       -1.5394491932        1.8000080692
 H         -2.7791904928       -2.8767917418        1.1022979975
 H          3.5206019355       -2.2695512997        1.0652049630
 H          4.3375753743       -1.8050175002       -1.1805457786
 H         -2.4604104504       -0.9742409583       -2.0953479590
 H         -1.0176501986        4.1795286996       -0.9130248286
 H          0.2876979446        3.0179948764        2.1315104630
