36
dihydrouracil_ribose_phosphate  charge=0 mult=1  seed=1_b3lyp_pcm
P     -4.25807800    -1.02985200     0.02419400
O     -0.05142000     0.23681500     0.32780700
O      1.93704300     3.10361400    -0.51550900
O     -0.60205900     3.66954300     0.12466200
O     -2.84235500    -0.38396100     0.35044900
O      3.04656200     0.13679200     2.28912400
O      5.41272400    -2.52117500    -0.48300400
O     -4.55036800    -1.86076000     1.34575800
O     -4.02650800    -2.17763300    -1.04808100
O     -5.28958700    -0.08478000    -0.42712100
N      2.26596000    -0.03028800     0.13144000
N      4.07989900    -1.30216500     0.87693700
C      1.20793800     0.91570900     0.35954800
C      1.04797700     2.02713800    -0.69072100
C     -0.44764700     2.42531600    -0.54544900
C     -1.07319700     1.22799000     0.21138800
C     -2.27751500     0.64696200    -0.48943300
C      2.22893800    -0.89496100    -1.05633900
C      3.09649200    -0.34843500     1.16945500
C      3.63959200    -1.24089000    -1.50576000
C      4.46516300    -1.76786100    -0.36165400
H      1.38619800     1.36014100     1.33901900
H      1.20748400     1.61724800    -1.68719100
H     -0.89898400     2.56645400    -1.52478800
H     -1.37182100     1.55598500     1.21459700
H     -1.98753100     0.21324300    -1.44676000
H     -3.02008000     1.42699800    -0.65199100
H      1.70077100    -0.37572300    -1.84883600
H      1.66614900    -1.80306300    -0.83178900
H      4.14797400    -0.35355700    -1.89192000
H      3.62620300    -1.98505600    -2.29821000
H      1.43920300     3.81747700    -0.09045100
H     -0.63196800     3.54028400     1.07936800
H      4.65686200    -1.56150200     1.66537500
H     -4.73726500    -1.32439800     2.12639900
H     -3.33173400    -2.81304500    -0.83325100
