  30
        -55.54776811
 O         -1.3661718836       -0.1236079671        1.3459888682
 O         -1.2849303296        1.8721719455       -1.6045151489
 O         -3.2598466557        1.9979567018        0.1560034403
 O         -2.5579687215       -2.1108710123       -0.5815427990
 N          0.5614285871       -0.2239675834        0.0429743413
 N          1.8278560359       -1.9619895241       -0.5917209845
 N          2.3361682560        1.3580476345        0.5523201152
 N          4.5050365213        0.4518387670        0.1703730463
 C         -1.5478151160        0.7218884757       -0.8742979694
 C         -0.6205484071        0.5350302847        0.3550608337
 C         -2.9475895817        0.6846498106       -0.2305524665
 C         -2.7386099613       -0.2563338453        0.9663726250
 C         -3.1048164172       -1.7135048186        0.6592407183
 C          1.8529369165        0.1890840331        0.1550842191
 C          0.6245342995       -1.5156069195       -0.4035874507
 C          2.6503447822       -0.9149576866       -0.2544512291
 C          4.0218490070       -0.7174556008       -0.2266729441
 C          3.6587881097        1.4070084703        0.5317221317
 H         -1.4249110813       -0.1313354218       -1.5475095049
 H         -0.2694592800        1.5080507746        0.7275297731
 H         -3.6878214772        0.2847451638       -0.9287936525
 H         -3.3242007218        0.0692227808        1.8325171223
 H         -2.7096923916       -2.3357679396        1.4712410831
 H         -4.1974571351       -1.7908974551        0.6402026668
 H         -1.7251330750        2.6204681629       -1.1635352432
 H         -4.1970821722        2.0719569368        0.3815460869
 H         -0.2664119506       -2.0890589360       -0.5713402848
 H         -2.9119639308       -2.9814056744       -0.8139425520
 H          4.7381625308       -1.4734062069       -0.5132843102
 H          4.1022015173        2.3400020276        0.8484122003
