30
purine_ribose  charge=0 mult=1  seed=1_b3lyp_pcm
O     -1.25503500     0.22046500    -1.16627900
O     -1.48749600    -2.15628600     1.52188600
O     -3.73680600    -1.16295000     0.36164400
O     -1.71338200     3.00196800    -1.12443400
N      0.67937400    -0.94694100    -0.54428500
N      2.73053700    -1.63799800    -1.18385500
N      1.35385600     0.95461300     0.83752000
N      3.73319000     1.23819800     0.91564300
C     -1.37831700    -0.89312800     0.91714800
C     -0.76795000    -0.93165000    -0.49896300
C     -2.73042200    -0.19800900     0.66505400
C     -2.41767900     0.76091200    -0.48490200
C     -2.10674700     2.18117300    -0.03224000
C      1.57920900    -0.08559900     0.04757800
C      1.44459700    -1.83866800    -1.26731400
C      2.84989000    -0.53270100    -0.35971400
C      3.93460000     0.18622100     0.11709400
C      2.47273400     1.56516000     1.23184200
H     -0.75977400    -0.26772600     1.55687300
H     -1.08875300    -1.83966700    -1.01605600
H     -3.07905200     0.32436900     1.55299100
H     -3.23754700     0.78571900    -1.20519800
H     -3.00700400     2.62817800     0.38774200
H     -1.33045000     2.16781800     0.73762700
H     -2.33044600    -2.53771600     1.23733800
H     -3.74128000    -1.36619300    -0.58013100
H      0.97387400    -2.62459500    -1.83666800
H     -0.91977400     2.61644400    -1.51215700
H      4.95627600    -0.07202100    -0.13455200
H      2.34750300     2.42246100     1.88097600
