  15
        -27.41966972
 O          2.2621038361       -1.1048438640       -0.1508201206
 N         -0.5333846415       -1.4624852828        0.0427798816
 N         -2.1479504463        0.0356292676        0.0105109436
 N         -0.9046042508        2.0631950981       -0.0628356716
 N          2.0330658824        1.1302808484        0.1558743035
 C          0.0882897891       -0.2279370328       -0.0030478558
 C         -0.9576909869        0.6937523470       -0.0368280115
 C         -1.8523358323       -1.2435989121        0.0615082157
 C          1.5314401564       -0.1159166382        0.0014362370
 H         -0.0312508879       -2.3359428544        0.0640650394
 H         -2.5861052795       -2.0223433925        0.1088407593
 H         -1.8163916115        2.4712938866       -0.2116815573
 H         -0.1905589931        2.4518897796       -0.6612342496
 H          1.4481115437        1.8574893424        0.5317447202
 H          3.0320039870        1.2150500602        0.2539530787
