  15
        -27.41966972
 O          2.2621038361       -1.1048438640       -0.1508201206
 N         -0.5333846415       -1.4624852828        0.0427798816
 N         -2.1479504463        0.0356292676        0.0105109436
 N         -0.9046042508        2.0631950981       -0.0628356716
 N          2.0330658824        1.1302808484        0.1558743035
 C          0.0882897891       -0.2279370328       -0.0030478558
 C         -0.9576909869        0.6937523470       -0.0368280115
 C         -1.8523358323       -1.2435989121        0.0615082157
 C          1.5314401564       -0.1159166382        0.0014362370
 H         -0.0312508879       -2.3359428544        0.0640650394
 H         -2.5861052795       -2.0223433925        0.1088407593
 H         -1.8163916115        2.4712938866       -0.2116815573
 H         -0.1905589931        2.4518897796       -0.6612342496
 H          1.4481115437        1.8574893424        0.5317447202
 H          3.0320039870        1.2150500602        0.2539530787
  15
        -27.41912781
 O          1.9333163728        1.1683012186        0.0231099672
 N         -0.5610428704       -1.4879381260        0.0691787736
 N         -2.1575475738        0.0449514489        0.0297055570
 N         -0.8365766093        2.0167631876       -0.1845916325
 N          2.3435349066       -1.0506271773        0.0144393940
 C          0.0834964761       -0.2600388677       -0.0100090228
 C         -0.9539828476        0.6801590013       -0.0370089530
 C         -1.8770801872       -1.2356856217        0.0937944235
 C          1.4957468528        0.0059466327       -0.0040322063
 H         -0.1289061914       -2.3939546864        0.1368483534
 H         -2.6242198776       -2.0006446470        0.1583582305
 H         -1.6340069790        2.5786739658        0.0564827666
 H          0.0908040223        2.3834390601       -0.0301162124
 H          2.0339144898       -1.9871573412       -0.1687756532
 H          3.3282869867       -0.8512242039       -0.0386112910
