15
5_amino_4_imidazolecarboxamide  charge=0 mult=1  seed=1_b3lyp_pcm
O      2.19015500    -1.25772400    -0.14045000
N     -0.60797300    -1.45766100     0.01698200
N     -2.15406100     0.11808200     0.03591700
N     -0.79955600     2.09176000    -0.03600100
N      2.11401700     1.00017300     0.12688200
C      0.07502900    -0.25055100    -0.02079600
C     -0.92683100     0.71293400    -0.02366700
C     -1.91774400    -1.18674600     0.06234000
C      1.52667300    -0.22263700    -0.01137300
H     -0.16632100    -2.36314600     0.01755600
H     -2.67102000    -1.95461500     0.10964000
H     -1.68735100     2.55910100    -0.15133400
H     -0.11632400     2.45629600    -0.68453000
H      1.59804700     1.76908600     0.52372500
H      3.11198600     1.01058600     0.26307400
