34
unoptimized sampling seed; angstrom
O 3.408189 1.456361 1.897405
O 1.627594 -1.038252 -1.516519
O 5.958700 -1.617113 -0.266347
N 2.447168 0.273441 0.171841
N 4.677875 -0.065318 0.807489
N 3.786225 -1.325680 -0.896721
C 3.501657 0.619374 1.028578
C 2.550255 -0.721908 -0.799286
C 4.897500 -1.050456 -0.130651
H 5.452792 0.176813 1.408331
H 3.878168 -2.044686 -1.600171
P -4.347427 -0.592278 0.181809
O 0.257003 0.000515 0.974012
O -1.931265 1.489939 -1.419150
O 0.160652 2.888486 -0.532752
O -2.960033 -1.258928 -0.228998
O -4.489863 -0.722978 1.764434
O -4.145725 0.968645 0.052431
O -5.448989 -1.184980 -0.592766
C -0.817375 0.693742 -0.998899
C -1.047140 0.160927 0.419906
C 0.468346 1.540317 -0.849147
C 1.159123 0.934250 0.389322
C -1.727586 -1.200903 0.515573
H -0.650591 -0.119896 -1.697469
H -1.602425 0.909726 0.993364
H 1.093727 1.490078 -1.738847
H 1.368685 1.737434 1.088107
H -1.084762 -1.954546 0.068013
H -1.913522 -1.461971 1.555692
H -2.035715 1.425152 -2.375148
H -0.661923 3.114581 -0.987153
H -4.989171 -1.502648 2.036956
H -3.421510 1.231413 -0.563446
