36
DFT refinement start; not an optimized result
P -3.458954 -3.110670 0.338995
O 0.149498 -0.587996 0.756330
O -1.083798 2.034081 -1.356379
O -2.786364 0.626245 0.079488
O -2.154439 -3.109170 -0.580604
O -2.970532 -3.874320 1.639974
O -4.395935 -4.068334 -0.467907
O 5.775714 2.927983 -0.662525
O -4.093342 -1.808431 0.604552
N 1.641264 0.952289 -0.117221
N 3.655094 0.663486 -1.034175
N 1.977078 3.126838 0.921874
N 4.132701 3.956866 0.517049
C -0.676788 0.757739 -1.005875
C -1.819502 -0.170882 -0.547201
C 0.270669 0.710505 0.223121
C -1.122693 -1.137811 0.430215
C -0.931771 -2.537327 -0.154071
C 2.369825 2.057150 0.193906
C 2.471518 0.156904 -0.855122
C 3.629103 1.870532 -0.388916
C 4.628646 2.888512 -0.238912
C 2.890547 4.030900 1.045562
H -0.153800 0.330938 -1.868378
H -2.259116 -0.717850 -1.388920
H -0.020344 1.479222 0.954081
H -1.716527 -1.212526 1.349808
H -0.462968 -3.176419 0.597916
H -0.299337 -2.492826 -1.043792
H -1.861951 2.264428 -0.817559
H -3.534146 0.055810 0.330314
H 2.167732 -0.801538 -1.222541
H 2.647398 4.914878 1.614607
H 4.786034 4.720406 0.661763
H -3.532645 -3.778022 2.416684
H -4.020358 -4.914812 -0.743346
