36
DFT refinement start; not an optimized result
P -1.452112 -3.261318 0.657919
O -1.223607 -0.340166 0.619834
O -2.380854 2.475692 0.515883
O -2.994354 1.493220 -1.915689
O -2.572861 -2.668533 -0.338568
O -1.974545 -4.741821 0.842904
O -1.683343 -2.657814 2.083166
O 5.181800 1.724598 -0.953359
O -0.083047 -3.120707 0.140974
N 0.832204 0.743401 0.242360
N 2.719296 -0.151886 -0.538008
N 1.558111 3.060089 0.479838
N 3.793364 3.339798 -0.172700
C -1.308613 1.893664 -0.166191
C -1.904685 0.962732 -1.243577
C -0.538097 0.877700 0.709874
C -2.223758 -0.285962 -0.397829
C -2.219557 -1.588743 -1.179624
C 1.737914 1.756698 0.157277
C 1.487399 -0.377045 -0.184822
C 2.916397 1.186413 -0.336026
C 4.069774 2.016344 -0.535587
C 2.608989 3.789277 0.297194
H -0.634125 2.645241 -0.582840
H -1.146544 0.716599 -1.993935
H -0.508682 1.186022 1.763367
H -3.200913 -0.161131 0.088700
H -1.220948 -1.763892 -1.590770
H -2.965983 -1.553192 -1.974564
H -2.082987 3.232940 1.039140
H -3.543882 1.979644 -1.275574
H 1.024121 -1.343365 -0.191165
H 2.537337 4.838986 0.536506
H 4.568866 3.985839 -0.283646
H -1.803062 -5.342449 0.110253
H -2.526256 -2.895286 2.491085
