34
calc_c379ce33a86930c1; angstrom; atom order from source job; valid
O -5.696400 -0.778154 -0.184561
O -3.746751 -1.778607 0.297182
N -2.463652 0.832625 0.147643
N -4.408806 1.632399 -0.587783
C -3.783231 0.556747 -0.132247
C -2.268147 2.146729 -0.152978
C -3.479676 2.620794 -0.605685
C -4.375329 -0.771591 0.019492
H -1.318297 2.624794 -0.009705
H -3.711474 3.618926 -0.935947
H -6.009130 -1.690529 -0.087205
P 4.243088 0.275251 -0.248861
O -0.376789 0.683051 1.170509
O 1.431498 -1.752352 -0.790109
O -0.912774 -2.415086 0.163053
O 3.238299 0.371675 0.988161
O 5.677590 0.214408 0.425059
O 4.050830 -1.182996 -0.830160
O 4.139711 1.389597 -1.204924
C 0.574519 -0.669899 -0.468619
C 0.848404 -0.001724 0.889454
C -0.897969 -1.095051 -0.341257
C -1.462044 -0.086688 0.694955
C 1.961338 1.034229 0.941648
H 0.676945 0.066201 -1.264757
H 1.038414 -0.770145 1.646004
H -1.429858 -1.031663 -1.289199
H -1.926754 -0.634448 1.512471
H 1.917611 1.712389 0.090787
H 1.876677 1.610734 1.859820
H 1.073073 -2.554581 -0.383028
H -1.837818 -2.684152 0.242473
H 5.856048 -0.584046 0.937242
H 3.106532 -1.480983 -0.847320
