  15
        -27.80402093
 O         -1.4943345291        1.7935081915        0.0001288086
 O          2.7856021572        0.2990489436        0.0002196140
 N          0.6250328043        1.0130908540       -0.0002030495
 N          1.1132848183       -1.2355179850       -0.0000717101
 C         -1.1698751242       -0.5674744952       -0.0000525607
 C         -0.7484777251        0.8240282727       -0.0001265957
 C         -0.2208820688       -1.5262824830       -0.0000880332
 C         -2.6352813304       -0.8542918975        0.0001258876
 C          1.5926751605        0.0411575387       -0.0000976565
 H         -0.4739769696       -2.5747926207        0.0006349312
 H          0.9520124876        1.9742433785       -0.0000133648
 H          1.8004846900       -1.9790979427        0.0003098916
 H         -3.0982510989       -0.3981019526        0.8730156110
 H         -3.0973602967       -0.4048568156       -0.8767691611
 H         -2.8207648639       -1.9227455092        0.0039570680
