15
thymine  charge=0 mult=1  seed=1_b3lyp_pcm
O     -1.36913700     1.89402000    -0.00000100
O      2.86965900     0.22249100    -0.00000000
N      0.72684400     1.02495600     0.00000100
N      1.11144800    -1.23918900    -0.00000100
C     -1.15343000    -0.47836700     0.00000000
C     -0.66376500     0.89213800    -0.00000000
C     -0.24114500    -1.47193600    -0.00000000
C     -2.63172400    -0.71752200     0.00000100
C      1.66576400     0.01710800     0.00000000
H     -0.52191500    -2.51489800    -0.00000000
H      1.09104000     1.96794400     0.00000200
H      1.75810700    -2.01236000     0.00000100
H     -3.10131400    -0.26917800     0.87663000
H     -3.10131400    -0.26918100    -0.87663100
H     -2.85101900    -1.78331100     0.00000200
