34
DFT refinement start; not an optimized result
O -5.346687 -0.443884 0.805390
O -3.927351 1.093096 0.031129
N -2.016919 -1.027988 -0.463066
N -3.447155 -2.415833 0.514622
C -3.247317 -1.167647 0.128318
C -1.436450 -2.248812 -0.436472
C -2.339391 -3.092139 0.170675
C -4.188023 -0.070099 0.308819
H -0.466678 -2.420753 -0.852505
H -2.245907 -4.138169 0.376643
H -5.962560 0.307275 0.929752
P 3.701551 0.086310 0.577506
O -0.334623 -0.087212 -1.785267
O 1.170953 2.119364 0.590767
O -1.297274 2.498868 -0.210857
O 3.203095 0.219723 -0.955664
O 5.201862 -0.343074 0.447888
O 3.816276 1.564313 1.107958
O 2.890500 -0.858126 1.361058
C 0.493016 0.975874 0.174336
C 0.829026 0.547091 -1.267869
C -1.035906 1.168103 0.119911
C -1.463251 0.194863 -1.004230
C 2.010537 -0.419950 -1.351711
H 0.751068 0.169854 0.868561
H 1.052490 1.439395 -1.869472
H -1.511122 0.895173 1.068505
H -2.232592 0.661386 -1.635559
H 1.825648 -1.282900 -0.704909
H 2.146063 -0.747639 -2.384314
H 0.665856 2.895436 0.282663
H -2.253351 2.655078 -0.166689
H 5.770760 0.281598 -0.020646
H 2.958810 2.016885 1.176554
