34
DFT refinement start; not an optimized result
O -2.068214 -2.862295 -1.437847
O -1.229163 -0.882533 -2.012089
N -1.510123 -0.069195 0.779519
N -2.105975 -2.169918 1.193289
C -1.801285 -1.301496 0.251347
C -1.613570 -0.208970 2.128241
C -1.989662 -1.507629 2.358956
C -1.668054 -1.642398 -1.160113
H -1.429903 0.586438 2.817458
H -2.179551 -1.999058 3.290779
H -1.932189 -3.096520 -2.378922
P 1.951639 -1.109976 -0.807871
O 0.135572 1.062752 -0.489304
O 0.637035 3.918202 1.292372
O -1.677100 3.497901 0.041122
O 2.680448 0.047527 0.044158
O 1.562388 -0.506030 -2.216964
O 3.184763 -2.015942 -1.165639
O 0.904959 -1.825875 -0.064545
C 0.191578 2.596998 1.350998
C 1.032098 1.753666 0.373732
C -1.264138 2.423299 0.826394
C -1.176281 1.114538 0.011335
C 1.952077 0.735185 1.041377
H 0.283482 2.191673 2.366854
H 1.642235 2.411327 -0.256619
H -2.005358 2.349797 1.623239
H -1.843346 1.141803 -0.858279
H 2.689296 1.225362 1.678428
H 1.358430 0.012159 1.610829
H 0.128753 4.474676 1.901994
H -0.972910 3.758578 -0.572956
H 0.612334 -0.351832 -2.326097
H 3.873301 -1.589864 -1.691761
