34
DFT refinement start; not an optimized result
O -4.902526 -1.136737 -0.540051
O -3.591388 0.555977 -1.162136
N -1.383800 -0.772181 0.200026
N -2.862010 -2.283220 0.881493
C -2.694014 -1.185210 0.163958
C -0.719623 -1.659660 0.973726
C -1.654433 -2.585357 1.382971
C -3.748986 -0.504642 -0.570423
H 0.336088 -1.596036 1.138877
H -1.515188 -3.441936 2.009399
H -5.602156 -0.663304 -1.035233
P 3.138533 -0.867960 -0.258522
O 0.559753 0.371202 -0.404990
O -0.002629 3.594182 1.079274
O -1.688129 2.671372 -0.743941
O 3.283836 0.730272 -0.095592
O 2.463683 -1.179015 -1.636071
O 4.640691 -1.274271 -0.544646
O 2.508588 -1.516433 0.900959
C -0.057929 2.217185 0.927824
C 1.053512 1.628974 0.036081
C -1.324089 1.712962 0.203311
C -0.844003 0.392305 -0.460151
C 2.371874 1.394820 0.754871
H 0.006651 1.773270 1.926488
H 1.212821 2.280150 -0.835255
H -2.145017 1.516378 0.902572
H -1.175178 0.370466 -1.510062
H 2.827454 2.345519 1.033036
H 2.193307 0.775127 1.638437
H -0.429135 4.005593 0.306818
H -2.511679 2.388330 -1.173652
H 2.964558 -0.880749 -2.406027
H 5.230015 -1.267906 0.216487
