34
DFT refinement start; not an optimized result
O -1.543616 -1.862375 2.305112
O -1.086456 0.263906 1.835467
N -1.570919 -0.466118 -1.029267
N -2.393586 -2.345521 -0.185959
C -1.775913 -1.216201 0.100547
C -2.074312 -1.195627 -2.060815
C -2.586991 -2.343543 -1.519130
C -1.406628 -0.855365 1.469516
H -2.038455 -0.846199 -3.071121
H -3.080883 -3.160358 -2.003350
H -1.323384 -1.611177 3.224365
P 2.237422 -1.082148 0.224121
O 0.451511 0.654510 -0.789741
O -0.152064 3.982956 -0.079320
O -2.111463 2.875748 -1.371371
O 2.732171 0.424432 0.520809
O 2.126587 -1.303128 -1.322610
O 3.577971 -1.874160 0.535048
O 1.072652 -1.508538 1.013731
C -0.323447 2.644533 0.293015
C 0.905983 1.833604 -0.151813
C -1.514981 1.994672 -0.472378
C -0.883215 0.784152 -1.210706
C 1.800430 1.375546 0.995641
H -0.472524 2.526709 1.366543
H 1.484809 2.429604 -0.872698
H -2.281400 1.644758 0.223928
H -0.909748 0.994711 -2.292349
H 2.380241 2.200803 1.408243
H 1.167616 0.912049 1.757530
H -0.615278 4.568317 0.537713
H -1.499012 3.627274 -1.506414
H 2.961119 -1.200746 -1.798378
H 3.778295 -2.012100 1.466295
