34
DFT refinement start; not an optimized result
O -4.145443 0.707973 -1.130502
O -5.639359 -0.861869 -0.543771
N -2.041459 -0.792345 0.064771
N -3.547703 -2.292932 0.736969
C -3.372350 -1.161582 0.070401
C -1.374527 -1.756053 0.763740
C -2.319149 -2.668326 1.170057
C -4.500826 -0.452989 -0.550538
H -0.310176 -1.732837 0.890604
H -2.161984 -3.566763 1.742196
H -4.937360 1.111041 -1.517155
P 4.206555 -0.692638 -0.219033
O -0.016256 0.122728 -0.682782
O 0.205627 3.080232 1.291055
O -1.671575 2.761720 -0.622325
O 2.891689 0.144647 -0.502236
O 4.742258 -0.975616 -1.687236
O 5.213242 0.422602 0.302486
O 4.051534 -1.869635 0.652546
C -0.185567 1.750274 1.005138
C 0.762999 1.134508 -0.025637
C -1.540347 1.672864 0.271320
C -1.399477 0.386711 -0.561095
C 2.009221 0.534722 0.573756
H -0.216447 1.149131 1.914933
H 1.046581 1.901219 -0.751389
H -2.387302 1.622956 0.955732
H -1.842958 0.521102 -1.541761
H 2.505185 1.285935 1.189125
H 1.775682 -0.336775 1.183607
H -0.095063 3.322147 2.173038
H -1.232642 3.519795 -0.211402
H 4.391422 -1.783926 -2.081502
H 5.957272 0.070465 0.806561
