30
calc_a11e13b4f9762b56; angstrom; first printed source-job orientation; unoptimized start
O 1.690334 2.087754 1.477315
O 4.588043 -1.186853 -0.185813
O 0.205574 -1.277553 -1.184765
N 0.918420 0.474485 0.085097
N 2.397790 -1.169804 -0.699290
C 3.338489 0.780628 0.374270
C 1.931558 1.175439 0.721347
C 3.529517 -0.603719 -0.168005
C 1.112675 -0.690201 -0.640471
H 3.982056 0.938395 1.243385
H 3.693871 1.485777 -0.387874
H 2.499268 -2.078427 -1.147381
O -1.115758 -0.145305 1.043682
O -3.643209 0.706468 -1.221603
O -1.766498 2.494448 -0.920900
O -2.779368 -2.398830 1.857723
C -2.398016 0.129861 -0.951676
C -2.395952 -0.421055 0.482034
C -1.264844 1.192721 -0.944947
C -0.465412 0.879024 0.341982
C -2.649769 -1.928172 0.541109
H -2.148274 -0.671488 -1.650980
H -3.163448 0.105079 1.067464
H -0.617680 1.095617 -1.822554
H -0.398843 1.786070 0.958624
H -3.594930 -2.151902 0.043492
H -1.828602 -2.437234 0.019183
H -3.807240 0.724482 -2.175557
H -2.734540 2.441685 -0.794312
H -1.985016 -2.153400 2.352742
