29
DFT refinement start; not an optimized result
O -1.337142 0.731263 -1.299528
O -1.812767 -2.229905 0.436348
O -3.806440 -0.652334 -0.231674
O -0.770335 1.828476 1.391844
O 0.957866 -2.305995 0.163272
O 4.591474 0.381195 0.370323
N 0.710290 -0.149841 -0.522631
N 2.750895 -0.927992 0.245958
C -1.471242 -0.878634 0.451480
C -2.748636 -0.016834 0.429826
C -0.710591 -0.408805 -0.819331
C -2.307758 1.215024 -0.368189
C -1.760000 2.337054 0.519250
C 1.442525 -1.198350 -0.024004
C 1.279690 1.061004 -0.755094
C 2.574074 1.316286 -0.483231
C 3.411235 0.283730 0.069208
H -0.875681 -0.620803 1.336476
H -3.051240 0.253333 1.449313
H -0.742468 -1.193351 -1.589385
H -3.138831 1.597963 -0.965238
H -1.338492 3.115892 -0.127570
H -2.601228 2.753915 1.083128
H -0.991814 -2.752356 0.438874
H -3.725551 -1.608494 -0.077427
H 0.613704 1.792467 -1.185449
H -0.532901 2.517244 2.028394
H 3.297970 -1.698765 0.619126
H 3.014490 2.278672 -0.670861
