29
DFT refinement start; not an optimized result
O -1.167157 0.632707 -1.210940
O -1.551732 -1.819357 1.365843
O -3.593859 -0.971760 -0.115771
O -1.453880 2.489470 1.084314
O 1.224239 -2.348085 -1.158092
O 4.721259 0.129760 0.283452
N 0.762815 -0.292126 -0.276004
N 2.938404 -1.072636 -0.416923
C -1.464571 -0.540569 0.834084
C -2.814855 0.070907 0.413216
C -0.663212 -0.459321 -0.489964
C -2.397620 1.101204 -0.649624
C -2.242288 2.518365 -0.086979
C 1.612537 -1.309192 -0.652901
C 1.235866 0.861291 0.273137
C 2.546704 1.078471 0.488652
C 3.509263 0.065324 0.138077
H -0.986666 0.092727 1.586738
H -3.310658 0.549740 1.261995
H -0.779820 -1.390895 -1.063066
H -3.123263 1.131619 -1.469686
H -1.765947 3.134899 -0.858258
H -3.242156 2.911420 0.127710
H -2.240397 -2.307534 0.882324
H -4.513781 -0.691264 -0.212671
H 0.477478 1.591245 0.517980
H -1.441949 3.372599 1.480263
H 3.573394 -1.819187 -0.684628
H 2.908979 1.993377 0.921167
