35
calc_0f03edb9079554fe; angstrom; atom order from source job; valid
O 2.817416 -0.209350 2.508812
O 1.118746 -0.356525 -1.915979
O 5.322994 -1.713923 -0.946045
N 4.027093 -0.997974 0.779495
N 3.180343 -1.098355 -1.393514
C 1.637434 -0.499673 0.430001
C 2.862064 -0.527303 1.341240
C 1.933033 -0.617894 -1.058191
C 4.253915 -1.307489 -0.548622
H 1.107793 -1.428241 0.676982
H 4.824902 -1.096807 1.393753
H 3.360565 -1.257759 -2.376330
P -3.559609 -1.284568 0.059519
O -0.662423 0.271663 0.466179
O -0.692243 3.589446 -0.826790
O 0.982372 3.007136 1.163304
O -3.543165 0.285582 -0.228052
O -4.980036 -1.512790 0.722708
O -2.540848 -1.519383 1.254449
O -3.370639 -2.133897 -1.127202
C -0.299595 2.229611 -0.760137
C -1.375640 1.401543 -0.056482
C 0.937720 2.018615 0.147943
C 0.688131 0.650111 0.807376
C -2.481512 0.926136 -0.971066
H -0.099481 1.826936 -1.750764
H -1.800851 1.987227 0.764573
H 1.862805 2.038223 -0.431686
H 0.755244 0.778561 1.885358
H -2.936297 1.784381 -1.459832
H -2.093812 0.244974 -1.727819
H -0.352058 3.983560 -1.636188
H 0.605070 3.814723 0.785560
H -5.114682 -1.063846 1.566663
H -1.727801 -0.974723 1.151632
