38
calc_1c2488b3474f84f1; angstrom; atom order from source job; valid
P 4.948001 -0.658121 -0.295122
O 0.221666 0.324341 -0.988376
O 0.394167 2.727514 1.151168
O 2.607116 1.278847 1.561287
O 3.817120 -0.122422 -1.278537
O 5.003789 0.359497 0.909188
O 6.292620 -0.408985 -1.090856
O -5.700683 -2.358090 0.587160
O 4.817375 -2.084077 0.074286
N -1.706238 -0.108869 0.276177
N -2.654588 -2.002078 1.016636
N -3.648493 1.009631 -0.659861
N -5.597065 -0.297948 -0.398682
N -5.696485 1.791092 -1.393325
C 0.168920 1.324774 1.184491
C 1.512975 0.633101 0.928693
C -0.683643 0.872429 -0.024256
C 1.580244 0.583986 -0.604943
C 2.426776 -0.518240 -1.226134
C -3.042021 -0.015074 -0.035262
C -1.543038 -1.328645 0.905046
C -3.612546 -1.191437 0.431538
C -5.005448 -1.389127 0.252103
C -4.944687 0.830426 -0.822017
H -0.280829 1.031452 2.130083
H 1.478491 -0.382254 1.319587
H -1.196645 1.732809 -0.446519
H 1.906912 1.552867 -0.995120
H 2.121265 -0.666260 -2.258940
H 2.320065 -1.456156 -0.683842
H -0.325880 3.171072 1.613035
H 2.502622 2.235204 1.451966
H -0.576380 -1.657033 1.247761
H -6.595130 -0.369691 -0.557272
H -5.216772 2.549694 -1.849432
H -6.637143 1.588260 -1.691624
H 4.115626 0.733506 1.174675
H 6.513305 0.519390 -1.252237
