43
UNCONVERGED matched split-site microsolvation start
P  -2.438546000  2.031129000  0.212587000
O  -0.760314000 -1.040624000 -1.217839000
O   0.071510000 -3.036781000  1.650306000
O  -2.218895000 -3.607037000  0.348197000
O  -2.888861000  0.501939000  0.261138000
O  -3.511397000  2.783844000 -0.702923000
O  -1.139674000  2.118609000 -0.657502000
O  -2.405800000  2.557417000  1.587530000
N   1.476997000 -1.229666000 -0.529408000
N   3.727077000 -1.263823000 -0.569120000
N   1.173295000  1.134188000  0.123355000
N   3.263554000  2.257110000  0.465648000
N   5.316384000  1.233883000  0.151174000
C  -0.478949000 -2.001031000  0.881686000
C  -1.962586000 -2.211841000  0.501693000
C   0.162991000 -1.834176000 -0.507679000
C  -2.084464000 -1.497904000 -0.865116000
C  -3.048074000 -0.332916000 -0.901572000
C   1.890795000  0.037369000 -0.172334000
C   2.633829000 -1.949786000 -0.754299000
C   3.282279000 -0.011615000 -0.200049000
C   3.979085000  1.163509000  0.139579000
C   1.937405000  2.186569000  0.432189000
H  -0.365972000 -1.070793000  1.436636000
H  -2.629346000 -1.785174000  1.244582000
H   0.282229000 -2.819736000 -0.970231000
H  -2.412823000 -2.231800000 -1.605462000
H  -4.069492000 -0.709527000 -0.885740000
H  -2.901355000  0.236990000 -1.817652000
H  -0.363396000 -3.856658000  1.374712000
H  -2.826540000 -3.898397000  1.033757000
H   2.586534000 -2.984939000 -1.050304000
H   1.404535000  3.097170000  0.676746000
H   5.876171000  0.433138000 -0.082311000
H   5.771274000  2.093437000  0.405778000
H  -3.212511000  2.973167000 -1.599700000
H  -0.746692488  3.048843268 -0.827829529
O  -0.075159098  4.638443166 -1.118888063
H   0.851323165  4.885788063 -1.164177348
H  -0.550579221  5.458816332 -1.269099831
O   6.410363384 -2.040578228 -0.377742110
H   5.490379481 -1.774262150 -0.443357386
H   6.869316889 -1.475852573 -1.003878368
