  29
        -60.10947033
 O         -0.2750591812        1.8338537865       -0.4722173536
 O         -1.5666974656       -2.3401699926        0.8502851068
 O         -4.6640625002        0.7673658789       -0.2627404405
 N         -0.8443799800       -0.2761903098        0.1899933422
 N         -2.4598248844        1.3082049683       -0.3538508769
 N         -3.1128017679       -0.7992128867        0.2866545739
 C         -1.1264193883        1.0104581426       -0.2257287431
 C         -1.8208080640       -1.2218261804        0.4724209217
 C         -3.5089316165        0.4512767931       -0.1221339386
 H         -2.6862380395        2.2518513646       -0.6594076463
 H         -3.8430427258       -1.4813349655        0.4772865309
 O          1.1738643183        0.2176202008        1.2636233858
 O          3.3204090437       -1.7650744261       -0.0910051754
 O          1.2151943120       -1.8175752933       -1.6857727374
 O          2.5666223498        2.3709439019       -0.4497731741
 C          2.8045097337       -0.4838984431       -0.3507147678
 C          2.5661255940        0.3349122177        0.9336778190
 C          1.3828980956       -0.6726994368       -0.9191806397
 C          0.5460289061       -0.6693896869        0.3817167205
 C          2.9493629835        1.8159951370        0.7822142758
 H          3.4334262093        0.0717285612       -1.0512411970
 H          3.1313333137       -0.0978184782        1.7679687321
 H          1.1059197150        0.1842534400       -1.5380588307
 H          0.5136202661       -1.6869006776        0.7999255779
 H          4.0363966835        1.9089664235        0.8258565923
 H          2.5056117920        2.3661724857        1.6195598840
 H          4.2835239903       -1.7329580155       -0.0146864258
 H          1.8007997362       -2.5099849240       -1.3296262941
 H          1.5964803017        2.3961101572       -0.4971199742
