29
cyanuric_acid_Nlink_ribose  charge=0 mult=1  seed=1_b3lyp_pcm
O     -0.42963500    -1.74212500     0.90064300
O     -1.77189800     2.11651200    -1.20667800
O     -4.83803000    -0.93468900     0.17025100
N     -1.00460000     0.23659300    -0.11793300
N     -2.62202200    -1.33291100     0.53556900
N     -3.29212100     0.60067600    -0.50454600
C     -1.28250800    -0.99965500     0.46951700
C     -2.00147500     1.06387900    -0.65418400
C     -3.68182300    -0.58547700     0.07647400
H     -2.83680900    -2.22015100     0.96758900
H     -4.02177600     1.19334200    -0.87356100
O      1.06453000    -0.18651200    -1.16503300
O      3.04533600     1.91814200     0.03645900
O      1.02875400     1.90964400     1.76553100
O      4.15484700    -1.92891100    -0.39129000
C      2.65158900     0.60351800     0.43119800
C      2.44781800    -0.32549500    -0.77188500
C      1.23521000     0.73868200     1.01261800
C      0.38655600     0.67812100    -0.27299600
C      2.73808000    -1.79370700    -0.49311500
H      3.35858300     0.19138000     1.14886400
H      3.07506500     0.00702800    -1.60079000
H      1.01638500    -0.10914200     1.65181100
H      0.31031800     1.67825700    -0.69308800
H      2.34424800    -2.38878200    -1.32096900
H      2.24303100    -2.11655700     0.42480600
H      4.00370800     1.96401200    -0.02649200
H      1.58433800     2.59939200     1.37633800
H      4.36218500    -2.82498500    -0.11096100
