20
calc_73513eb6dbf3d59a; angstrom; atom order from source job; valid
O -0.375785 0.925888 -0.735884
O 0.639013 -2.238952 0.591750
O 2.244963 -0.574342 -0.949005
O 0.745307 2.209134 0.858902
O -3.143648 0.009142 -0.453213
C 0.399768 -0.852678 0.626323
C -0.740960 -0.389102 -0.290200
C 1.578826 0.007615 0.154800
C 0.880863 1.314503 -0.215836
C -2.079227 -0.355129 0.409197
H 0.168573 -0.602152 1.662884
H -0.797700 -1.039244 -1.167721
H 2.328057 0.155148 0.926880
H 1.414430 1.861293 -0.990091
H -2.303494 -1.354436 0.783160
H -2.022181 0.328474 1.262209
H 1.072865 -2.442025 -0.243737
H 1.669236 -0.582190 -1.719606
H 0.358257 1.761480 1.617265
H -3.002458 0.915440 -0.737347
