29
calc_cfc9a2caa663a672; angstrom; first printed source-job orientation; unoptimized start
O -4.172135 0.600904 -0.269501
O -2.343208 1.797685 -0.696445
N -0.775308 -0.618716 -0.036687
N -2.729155 -1.606928 0.315109
C -2.137668 -0.475916 -0.032633
C -0.521191 -1.898761 0.327057
C -1.742215 -2.492201 0.536541
C -2.863470 0.744194 -0.362116
H 0.479870 -2.269281 0.402915
H -1.962391 -3.497071 0.832472
H -4.648925 1.426448 -0.490378
O 1.122540 -0.161502 -1.298277
O 2.480088 2.358669 -0.082066
O 0.573134 1.760125 1.666618
O 2.752158 -1.814936 0.582600
C 2.465110 1.002781 0.284817
C 2.485751 0.055583 -0.925660
C 1.087692 0.715385 0.912190
C 0.237918 0.358606 -0.336024
C 3.202447 -1.269478 -0.639594
H 3.269403 0.769741 0.987939
H 2.969967 0.530661 -1.786090
H 1.150351 -0.160890 1.564130
H -0.263092 1.255853 -0.723347
H 4.279557 -1.072121 -0.600822
H 2.986257 -1.952316 -1.469971
H 3.381624 2.646617 -0.280200
H 0.821472 2.596715 1.236119
H 3.299509 -2.581823 0.804351
