37
calc_cded447bd0a49de6; angstrom; first printed source-job orientation; unoptimized start
O 0.257233 -1.000711 -1.821918
O -0.578463 -1.816437 2.580258
N -1.723714 -1.929044 -1.260618
N -0.104089 -1.483467 0.373032
C -0.489409 -1.421870 -0.950862
C -2.571143 -2.365464 -0.302337
C -2.176178 -1.841363 -2.636196
C -2.227031 -2.391059 0.998784
C -0.951564 -1.889390 1.415845
H -3.538556 -2.698592 -0.646544
H -2.769087 -2.719698 -2.875468
H -1.302893 -1.788503 -3.282494
H -2.770392 -0.937321 -2.770850
H -2.897052 -2.733937 1.766324
P -1.226812 2.125268 0.298710
O 1.020650 0.551176 0.822635
O 4.065934 0.482954 -0.624814
O 3.438007 -1.638670 0.734908
O 0.030473 2.759654 -0.478100
O -2.304954 3.250792 0.123098
O -0.924364 2.240210 1.849707
O -1.695795 0.830156 -0.216101
C 2.727505 0.120564 -0.814130
C 1.831918 1.185555 -0.159857
C 2.382796 -1.201734 -0.067293
C 1.146116 -0.852649 0.785991
C 0.934598 1.913868 -1.160449
H 2.473604 0.023373 -1.871575
H 2.456357 1.915980 0.369343
H 2.147943 -2.008837 -0.764231
H 1.301550 -1.201883 1.816383
H 0.377585 1.177625 -1.745001
H 1.525730 2.558547 -1.811121
H 4.631402 0.027791 -1.266401
H 4.033655 -0.882256 0.898780
H -2.056173 4.123019 0.454294
H -0.275109 1.616972 2.188409
