37
calc_8b99c043436f854f; angstrom; atom order from source job; valid
N 3.022092 -0.388942 -1.158149
N 1.499593 -0.267759 0.667253
N 3.618478 0.821727 0.806015
N 1.004740 -1.445408 -1.282966
N 5.053985 0.667559 -0.980617
N 2.134882 0.873368 2.557229
C 1.862218 -0.670196 -0.550215
C 3.860364 0.362630 -0.430760
C 2.427774 0.470644 1.303528
H 1.327233 -1.641701 -2.215653
H 5.225136 0.443237 -1.944280
H 5.658075 1.320973 -0.515373
H 1.203050 0.746010 2.908894
H 2.739668 1.532914 3.013350
P -1.699724 2.480540 -0.169475
O -1.239409 -0.753913 -0.943538
O -2.805822 -3.335992 0.000847
O -0.199548 -3.930996 0.285249
O -2.769243 1.385444 0.282087
O -2.609379 3.641817 -0.753570
O -0.965889 1.871535 -1.435860
O -0.824090 2.981251 0.901978
C -2.034996 -2.337908 0.654277
C -2.319987 -0.986022 -0.006091
C -0.532918 -2.556757 0.396955
C -0.314258 -1.867325 -0.955571
C -2.407526 0.169517 0.974711
H -2.261932 -2.325081 1.722873
H -3.250778 -1.048995 -0.570280
H 0.058147 -2.064093 1.162370
H -0.613690 -2.557778 -1.745140
H -3.205801 -0.017945 1.689305
H -1.470889 0.309885 1.513320
H -2.312045 -4.164523 0.076151
H 0.175994 -4.237520 1.116055
H -3.111293 3.407395 -1.544043
H -0.938389 0.884635 -1.405331
