37
calc_8b99c043436f854f; angstrom; first printed source-job orientation; unoptimized start
N 2.172145 1.484581 1.027793
N 0.747723 1.311661 -0.850721
N 3.100000 1.144034 -1.125967
N -0.071327 1.607812 1.322385
N 4.440277 1.382806 0.716179
N 1.692444 1.058781 -2.924827
C 0.972591 1.428614 0.455030
C 3.205559 1.318278 0.195050
C 1.855249 1.158132 -1.595981
H 0.257880 1.534633 2.275587
H 4.524885 1.350456 1.716659
H 5.206939 1.100423 0.131338
H 0.765410 0.941699 -3.292005
H 2.496228 0.819778 -3.477480
P 0.285783 -2.442930 0.416461
O -1.531331 -0.249981 0.978000
O -4.260791 0.684736 -0.061280
O -2.872414 2.911577 0.144766
O -0.754658 -2.395548 -0.808685
O 0.953191 -3.840435 0.179481
O -0.550454 -2.706955 1.737839
O 1.256914 -1.341184 0.451642
C -2.992245 0.655559 -0.654312
C -2.252605 -0.604999 -0.197585
C -2.085160 1.791101 -0.144104
C -1.418363 1.172246 1.106296
C -1.285178 -1.157503 -1.241944
H -3.089882 0.687638 -1.746955
H -2.970471 -1.381987 0.086750
H -1.308272 2.004061 -0.882545
H -1.990610 1.462437 1.998425
H -1.794451 -1.367776 -2.182567
H -0.472278 -0.436143 -1.377731
H -4.524193 1.615354 0.041734
H -2.316415 3.691637 0.270159
H 0.348443 -4.593789 0.188237
H -0.964477 -1.912986 2.094816
