37
calc_3e28efc611b0ffcd; angstrom; atom order from source job; valid
P -2.600161 -1.945273 0.371773
O -0.988236 0.836502 0.556913
O 0.519881 3.805477 -0.776743
O -2.146393 3.860139 -0.397846
O -3.430374 -0.621946 0.081087
O 5.242743 -1.166371 0.266038
O -3.703502 -3.088555 0.328769
O -2.215314 -1.945226 1.906641
O 1.555783 -2.782929 -1.864197
O -1.417607 -2.125878 -0.487750
N 1.314892 1.147640 0.789449
N 1.254988 -0.890226 -0.615568
N 3.478342 1.080577 1.375061
N 3.363530 -1.891518 -0.805581
C -0.113538 2.556479 -0.748139
C 0.036764 1.800356 0.586953
C -1.655781 2.623688 -0.902255
C -2.156645 1.462344 -0.014563
C -2.948388 0.429462 -0.782374
C 1.851558 0.042241 0.187817
C 2.357931 1.727421 1.499409
C 3.182991 0.015544 0.550327
C 4.049398 -1.012655 0.046070
C 2.020181 -1.914629 -1.144663
H 0.311197 1.948181 -1.545964
H -0.083973 2.497644 1.422061
H -1.949517 2.499541 -1.942304
H -2.761577 1.878205 0.793718
H -2.351322 -0.004254 -1.582229
H -3.835927 0.893832 -1.205562
H -0.093228 4.448064 -0.391232
H -2.438701 4.412859 -1.128579
H 2.198414 2.622912 2.076030
H 0.243317 -1.028018 -0.649836
H 3.912010 -2.639447 -1.207017
H -4.160645 -3.178540 -0.516837
H -2.952571 -1.848400 2.522850
