  31
        -56.74935565
 O         -1.1541487877        0.2669107493       -1.3072868422
 O         -1.1761900637       -2.1001221303        1.3761103248
 O         -3.3392758612       -1.7157300572       -0.0678808752
 O         -2.2681211251        2.2755516825        0.7784112820
 O          0.4836830744        1.6121629050        0.5866366786
 O          4.7923917605        0.4230999021        0.2694909469
 N          0.8889769432       -0.4145399632       -0.3762772503
 N          2.6238668480        1.0208839414        0.1921676211
 C         -0.5106723956       -0.7280949797       -0.5464892779
 C         -1.2998028638       -0.8501062853        0.7799877224
 C         -2.7307631482       -0.5083954676        0.3200582107
 C         -2.5021392606        0.4515055185       -0.8628317992
 C          1.8887390402       -1.2603075764       -1.0151279496
 C         -2.7508532659        1.9235372063       -0.4930838331
 C          3.1529158373       -1.2963198966       -0.1697378283
 C          1.2547925387        0.7676703572        0.1491711382
 C          3.6326407813        0.1023746493        0.1059916173
 H         -0.5632600205       -1.6908520503       -1.0754321505
 H         -0.9388119960       -0.1019147307        1.4893355619
 H         -3.2910339822       -0.0111850729        1.1163092008
 H         -3.1543608084        0.1839292003       -1.7034414415
 H          2.1082208607       -0.8734080397       -2.0167697478
 H          1.4762857039       -2.2645116057       -1.1060383672
 H         -2.2996148351        2.5474890568       -1.2733730186
 H         -3.8271317424        2.1071144615       -0.4628704334
 H          3.9419766561       -1.8599688824       -0.6642716212
 H          2.9490659909       -1.7660242262        0.7961852609
 H         -1.8521280663       -2.6846245876        0.9871521843
 H         -4.2988965915       -1.6114294127       -0.1120177006
 H          2.8730157109        1.9603362206        0.4856405177
 H         -1.2965287637        2.2059461959        0.7769067222
