31
dihydrouracil_ribose  charge=0 mult=1  seed=1_b3lyp_pcm
O     -1.19814000     0.71616200    -0.63010100
O     -0.89352900    -2.42768800     1.09538100
O     -3.27260700    -1.90426800    -0.05528900
O     -3.05205200     2.85408900    -0.58134300
O      1.60987800    -1.19714600    -2.05196500
O      4.88343700     0.64021400     0.44854700
N      0.93656900    -0.11156400    -0.13859700
N      3.17101500    -0.10709800    -0.82446800
C     -0.44595400    -0.46168200    -0.33232000
C     -1.17045100    -1.06517600     0.88177600
C     -2.65449000    -0.77425300     0.55675600
C     -2.58987900     0.47038400    -0.35109100
C      1.29365600     0.94376600     0.81937700
C     -3.17979900     1.72396600     0.27193400
C      2.66975400     0.68313500     1.41120400
C      1.85312200    -0.51629300    -1.06732500
C      3.69085100     0.42806800     0.33392100
H     -0.47507200    -1.16555400    -1.16457000
H     -0.89164000    -0.52518500     1.78582300
H     -3.22481400    -0.58862000     1.46413200
H     -3.10465600     0.26495600    -1.29557100
H      0.54688900     0.96686900     1.60584300
H      1.27046900     1.91486900     0.32125800
H     -4.24641000     1.57560800     0.43629200
H     -2.70477300     1.91352500     1.23976700
H      2.65000800    -0.19882700     2.05651500
H      3.00160300     1.52516300     2.01359000
H     -1.57336800    -2.93152100     0.62488200
H     -3.13395400    -1.89143000    -1.00884000
H      3.82959800    -0.37435000    -1.54322900
H     -2.11373000     3.00273800    -0.74168000
