37
calc_ceab44138cff1b4f; angstrom; first printed source-job orientation; unoptimized start
N 3.351339 -1.469481 -0.639118
N 3.409024 0.395232 0.835383
N 5.434436 -0.681663 0.198253
N 1.421865 -0.448906 0.026577
N 5.326606 -2.446935 -1.253645
N 5.435456 1.119730 1.607990
C 2.773717 -0.497012 0.075914
C 4.683589 -1.508602 -0.539363
C 4.741414 0.247658 0.861786
H 0.989994 -1.013478 -0.689029
H 4.795932 -3.158779 -1.722702
H 6.311942 -2.582012 -1.114529
H 4.946913 1.780293 2.184959
H 6.426209 1.001551 1.719801
P -4.651929 -0.792555 0.297860
O -0.681620 0.218875 0.765021
O -1.309698 2.375628 -2.034457
O 0.133415 3.009685 0.193205
O -3.134454 -1.156981 0.103069
O -4.608486 0.469832 1.241088
O -5.155531 -1.928607 1.265922
O -5.424900 -0.618998 -0.944216
C -0.663403 1.358374 -1.310500
C -1.557180 0.662878 -0.272663
C 0.518052 1.816750 -0.459425
C 0.643788 0.658406 0.531794
C -2.300032 -0.504477 -0.871163
H -0.308780 0.632616 -2.042806
H -2.261092 1.385220 0.147071
H 1.430763 1.957634 -1.037520
H 1.076392 0.992084 1.470423
H -2.901652 -0.167231 -1.715912
H -1.597161 -1.262224 -1.212407
H -1.497025 3.099138 -1.428269
H 0.892698 3.361433 0.663558
H -5.417906 0.992875 1.237210
H -5.348861 -2.765962 0.828838
