35
calc_dcf3827d6f561cb5; angstrom; atom order from source job; valid
N 2.392805 0.717346 0.598738
N 4.531345 1.034528 1.233819
N 5.456663 -0.904101 0.112604
N 3.860625 -2.240432 -1.073547
C 3.123110 -0.318946 0.040947
C 4.453874 -0.095255 0.453051
C 2.853486 -1.434829 -0.732020
C 3.298033 1.472812 1.293661
C 5.094920 -1.936862 -0.642567
H 1.861676 -1.697965 -1.073590
H 2.980590 2.352948 1.830071
H 5.882713 -2.616246 -0.943616
P -4.247290 -0.472733 0.137639
O 0.242691 -0.125085 0.882274
O -1.748250 2.145780 -0.725573
O 0.732267 2.624604 -1.372735
O -3.003044 -1.285065 -0.398733
O -4.390312 -1.004625 1.628794
O -5.443010 -1.055042 -0.716196
O -4.186718 0.996872 0.004755
C -1.015861 0.942247 -0.862869
C -1.099221 0.056778 0.406633
C 0.484673 1.308123 -0.953331
C 0.986034 1.009542 0.475347
C -1.692871 -1.331864 0.211744
H -1.339610 0.399037 -1.751449
H -1.666521 0.607362 1.161876
H 0.985172 0.638061 -1.650451
H 0.787992 1.870870 1.119830
H -1.761030 -1.856676 1.162544
H -1.084294 -1.913127 -0.475412
H -2.676071 1.914191 -0.530826
H -0.052312 3.147149 -1.152537
H -4.863804 -0.407324 2.221792
H -5.581279 -2.008669 -0.648364
