32
calc_4a029c633b392b69; angstrom; first printed source-job orientation; unoptimized start
N -2.572986 0.683348 1.159388
N -1.778864 -0.286269 -0.864683
N -4.095198 -0.419174 -0.308226
N -0.361295 0.832216 0.592861
N -4.813130 0.546768 1.648034
N -3.276474 -1.351316 -2.240321
C -1.612345 0.382308 0.277018
C -3.795915 0.256388 0.810673
C -3.047144 -0.659910 -1.105925
H -0.272690 1.240046 1.510460
H -5.719707 0.149251 1.479883
H -4.614391 0.951929 2.544945
H -2.535353 -1.471468 -2.906762
H -4.219249 -1.571811 -2.505846
O 1.414531 -0.699454 0.392598
O 4.356073 1.199962 -0.400557
O 2.079597 2.323937 -1.246772
O 3.140226 -3.052261 0.512961
C 3.213729 0.773330 0.307690
C 2.798111 -0.678513 0.027878
C 1.929885 1.579673 -0.043812
C 0.820089 0.504824 -0.124142
C 3.535985 -1.722016 0.835994
H 3.416271 0.881281 1.375036
H 2.911734 -0.895356 -1.042067
H 1.712011 2.313962 0.727597
H 0.541286 0.337266 -1.166732
H 3.390756 -1.522814 1.902502
H 4.601066 -1.655118 0.617314
H 4.046731 1.769047 -1.120402
H 1.848244 1.782450 -2.009906
H 2.201126 -3.141661 0.706533
