37
calc_a499d55cf25108dc; angstrom; atom order from source job; valid
P 3.222320 -1.298024 -0.287500
O 0.537210 0.777873 -0.612266
O -0.692082 3.686323 -0.619665
O 0.732256 3.599765 1.630915
O 3.304176 0.207670 0.217353
O -3.429337 1.428433 -1.244777
O -4.464873 -2.666926 0.449448
O 4.740959 -1.772524 -0.223877
O 2.978483 -1.266339 -1.853799
O 2.225894 -2.133416 0.399579
N -1.730130 0.170324 -0.372297
N -3.903116 -0.632089 -0.384535
C -0.909826 2.508485 0.141429
C 0.283753 2.376745 1.102049
C 1.318199 1.640721 0.233462
C -0.780522 1.251157 -0.745846
C 2.291586 0.821656 1.045151
C -1.325596 -1.014400 0.199286
C -3.050501 0.395752 -0.708416
C -2.171454 -2.020091 0.511480
C -3.581457 -1.848553 0.218476
C -1.711847 -3.302287 1.136299
H -1.863969 2.548447 0.660274
H -0.000469 1.745943 1.944925
H -0.989330 1.506580 -1.783206
H 1.860598 2.358041 -0.388201
H 1.774214 0.050992 1.613140
H 2.824494 1.477136 1.730824
H -1.521442 3.970302 -1.016721
H 0.598626 4.273535 0.950098
H -0.263315 -1.094068 0.369066
H -4.876263 -0.480298 -0.613013
H -0.633447 -3.296241 1.279413
H -2.188004 -3.459163 2.105386
H -1.972671 -4.158077 0.511935
H 5.124889 -1.768236 0.661850
H 3.588506 -0.714171 -2.358944
