14
calc_c24a0cb0be829e84; angstrom; first printed source-job orientation; unoptimized start
O 1.896840 1.675890 0.029490
N -1.109460 1.477150 0.011040
N 1.870970 -0.609030 0.030520
N -2.157010 -0.485960 -0.015160
N -0.137470 -1.903540 -0.008270
C -0.142690 0.516530 0.009630
C -0.808180 -0.678020 -0.006080
C 1.268550 0.624620 0.024040
C -2.312540 0.822180 -0.003600
C 1.151700 -1.784700 0.011460
H -0.962540 2.478000 0.023680
H 2.879510 -0.618360 0.043920
H -3.259280 1.346400 -0.004550
H 1.793370 -2.680690 0.013930
