38
calc_5001a71b0242aa1f; angstrom; first printed source-job orientation; unoptimized start
N 3.047496 -1.409821 0.196744
N 3.976518 0.745835 0.518093
N 0.801480 -1.846841 0.286869
N 2.699410 2.565075 1.033446
N 5.308595 -1.067708 0.088921
C 1.828548 -0.924699 0.442155
C 2.758611 1.237262 0.754322
C 1.609998 0.413825 0.765904
C 4.073523 -0.560090 0.266368
H 1.158126 -2.792123 0.231091
H 0.033244 -1.720681 0.934776
H 1.847967 3.059021 0.812136
H 3.560051 3.059440 0.860534
H 6.068478 -0.420036 -0.014868
H 5.382837 -2.000909 -0.273612
P -2.256372 -1.478238 -1.335742
O -0.716014 0.084703 1.421888
O -2.558073 2.753908 0.166002
O -0.017483 3.215074 -0.009380
O -2.465912 -1.564878 0.261224
O -0.804966 -0.984121 -1.614542
O -2.196203 -3.012218 -1.698140
O -3.300809 -0.690709 -2.017941
C -1.834511 1.568959 -0.052470
C -1.985295 0.647286 1.173454
C -0.307115 1.850222 -0.120107
C 0.275783 1.036883 1.071307
C -3.002423 -0.481459 0.990629
H -2.168386 1.056454 -0.954172
H -2.299397 1.279117 2.020068
H 0.111230 1.487045 -1.064763
H 0.396110 1.736459 1.916559
H -3.274637 -0.902670 1.959902
H -3.887567 -0.088179 0.483590
H -2.944098 3.071864 -0.661311
H -0.825505 3.659484 0.317382
H -0.106372 -1.403486 -1.001569
H -3.036933 -3.481395 -1.678315
