34
calc_eef5f88f9cf1ba9c; angstrom; atom order from source job; valid
O 1.609521 -0.328201 1.363522
O 3.006247 -2.178440 -0.847110
O 3.798496 0.316978 -1.365849
O 1.368222 2.542985 0.695027
N -0.250761 -1.391523 0.420000
N -2.310191 -2.293566 0.369462
N -0.840316 0.932968 -0.089059
N -3.208314 1.214239 -0.424034
N -4.728783 -0.515247 -0.237513
N -1.750936 2.978301 -0.651906
C 1.956996 -1.225204 -0.819410
C 1.201884 -1.386604 0.516983
C 2.526469 0.206198 -0.742752
C 2.661050 0.449807 0.763566
C 2.515351 1.891250 1.215341
C -1.114873 -0.360059 0.120319
C -1.040006 -2.519331 0.558645
C -2.378333 -0.939901 0.091602
C -3.457565 -0.079862 -0.193189
C -1.938717 1.656141 -0.366174
H 1.291354 -1.367053 -1.672158
H 1.475252 -2.349132 0.950648
H 1.820158 0.909895 -1.177440
H 3.632666 0.073669 1.099821
H 2.507562 1.907122 2.310397
H 3.394108 2.447780 0.884475
H 3.762831 -1.746539 -1.269948
H 3.687972 0.637431 -2.266616
H -0.599934 -3.472997 0.800636
H 0.646032 1.894125 0.552210
H -4.944268 -1.483586 -0.082949
H -5.471612 0.123497 -0.460744
H -0.870649 3.394388 -0.398066
H -2.559776 3.574007 -0.613206
