34
calc_eef5f88f9cf1ba9c; angstrom; first printed source-job orientation; unoptimized start
O -1.638871 -0.253199 -1.385461
O -3.007565 -2.105290 0.890102
O -3.685024 0.356330 1.474714
O -1.315563 2.606121 -0.487118
N 0.161416 -1.402963 -0.471510
N 2.202526 -2.321438 -0.413351
N 0.774840 0.897714 0.065167
N 3.134581 1.159633 0.412455
N 4.653094 -0.557753 0.234762
N 1.695896 2.913510 0.643150
C -1.969341 -1.173959 0.791967
C -1.270897 -1.340067 -0.576571
C -2.482647 0.278062 0.762620
C -2.627780 0.553199 -0.746660
C -2.397809 2.012751 -1.152135
C 1.031240 -0.391750 -0.159408
C 0.939017 -2.526544 -0.610024
C 2.302746 -0.978654 -0.126467
C 3.389290 -0.128225 0.176018
C 1.876193 1.613932 0.353029
H -1.248718 -1.328426 1.608488
H -1.607070 -2.283876 -1.031478
H -1.714534 0.938384 1.180202
H -3.623250 0.226406 -1.081042
H -2.242095 2.030112 -2.239402
H -3.280177 2.609223 -0.909987
H -3.722313 -1.701402 1.413618
H -3.899413 1.279630 1.663093
H 0.509992 -3.477315 -0.854563
H -0.568116 1.960289 -0.466384
H 4.848930 -1.524204 0.046893
H 5.382867 0.099221 0.446613
H 0.794477 3.326957 0.475710
H 2.513689 3.488110 0.737714
