37
calc_9321e946d318e261; angstrom; first printed source-job orientation; unoptimized start
P 0.513759 2.526828 -0.001297
O 1.710926 0.057015 0.772903
O 2.543924 -2.998401 1.164941
O 3.393901 -2.198699 -1.170605
O 1.658070 2.081993 -1.045417
O 0.375165 4.064366 -0.364081
O 1.119167 2.612157 1.439540
O -0.722616 1.739350 -0.112331
N -0.378118 -0.945591 1.192331
N -2.423156 -0.342924 1.880616
N -0.900378 -1.385280 -1.157306
N -3.191776 -0.974855 -1.678685
N -4.766555 -0.307649 -0.132081
C 1.570245 -2.297893 0.451738
C 2.142749 -1.662928 -0.845887
C 1.053024 -1.088136 1.258996
C 2.304185 -0.172463 -0.497667
C 1.649817 0.751899 -1.523220
C -1.194291 -1.022370 0.097277
C -1.181800 -0.507013 2.211598
C -2.471857 -0.653654 0.542652
C -3.503846 -0.630612 -0.415924
C -1.950654 -1.320332 -1.959651
H 0.740623 -2.977952 0.232899
H 1.414634 -1.773674 -1.652469
H 1.315046 -1.193169 2.319529
H 3.368800 0.077268 -0.405216
H 0.615446 0.430986 -1.682856
H 2.206200 0.752525 -2.460706
H 3.402988 -2.858758 0.718765
H 3.291344 -2.977105 -1.737855
H -0.793687 -0.336470 3.195752
H -1.762472 -1.590050 -2.990752
H -4.987880 0.012390 0.794218
H -5.433782 -0.254723 -0.882475
H -0.116452 4.266066 -1.166588
H 1.858945 3.226356 1.531789
