31
calc_0e4c7aa3a97c6d8c; angstrom; atom order from source job; valid
N -1.321298 -1.488836 -0.174666
N -1.166294 -3.682635 -0.385322
C -0.531488 -1.924491 0.864072
C -1.662590 -2.583663 -0.895944
C -0.451002 -3.272010 0.720104
H -0.105129 -1.250548 1.585844
H -2.279225 -2.511424 -1.777118
H 0.078922 -3.970860 1.344792
P 2.667226 0.136203 0.040614
O -0.479803 0.555488 -0.948792
O -2.535746 2.717090 -0.686941
O -3.599593 0.559541 0.801877
O 2.010644 1.574365 0.136291
O 4.078426 0.430910 -0.587525
O 1.958607 -0.595833 -1.156241
O 2.684702 -0.601653 1.316408
C -1.726539 2.114171 0.303939
C -0.357609 1.835380 -0.292823
C -2.212571 0.700439 0.640932
C -1.645798 -0.130802 -0.516299
C 0.737319 1.806387 0.755569
H -1.666524 2.743395 1.191269
H -0.108457 2.566680 -1.059272
H -1.757560 0.389673 1.580105
H -2.363129 -0.174035 -1.337201
H 0.546153 1.049779 1.517511
H 0.802324 2.781239 1.232947
H -3.335040 3.049326 -0.270590
H -4.036482 0.843848 -0.007148
H 4.774227 0.570812 0.064380
H 1.018441 -0.322356 -1.232720
