34
calc_e02a09e5e3b01773; angstrom; atom order from source job; valid
P -3.345921 1.440057 -0.127789
O 0.182013 -0.818945 -1.204191
O -1.308814 -3.227504 0.954891
O 1.209005 -3.615522 0.179594
O -2.219515 0.332187 -0.064051
O 1.088553 0.469021 1.479287
O -2.912942 2.428452 1.034563
O -4.627324 0.635256 0.382367
O -3.528745 2.153615 -1.400266
O 4.810306 2.813389 0.337844
N 2.293540 -0.281029 -0.327836
N 2.960942 1.603464 0.868575
C -0.599318 -2.040671 0.632668
C 0.926829 -2.272910 0.546608
C -0.945835 -1.591324 -0.789235
C 1.361279 -1.365872 -0.627018
C -2.216794 -0.797812 -0.963824
C 2.039123 0.590300 0.729307
C 3.377216 -0.085270 -1.154334
C 4.260282 0.916640 -0.995517
C 4.085859 1.860540 0.081678
H -0.810567 -1.246726 1.342264
H 1.435140 -2.018389 1.473907
H -1.047117 -2.482233 -1.420987
H 1.871753 -1.996804 -1.353582
H -3.069028 -1.438617 -0.739099
H -2.296239 -0.442007 -1.990221
H -1.508951 -3.235706 1.896015
H 0.480423 -4.154674 0.520398
H 3.475747 -0.805835 -1.952017
H 2.788871 2.236836 1.637888
H 5.098700 1.030326 -1.661849
H -2.818034 2.025781 1.907083
H -5.465393 1.028814 0.109542
