37
calc_5cf0c9816a5806dc; angstrom; atom order from source job; valid
P -3.413829 -0.980133 -0.011433
O -0.079301 1.459778 1.031028
O 1.870323 3.568674 -1.092632
O -0.402474 4.493484 0.105725
O -2.236227 0.039168 0.358815
O 4.033606 -3.251004 -0.301232
O -3.566429 -1.773115 1.346980
O -2.804860 -2.041323 -0.975336
O -0.495859 -3.073009 -0.305053
O -4.612273 -0.324395 -0.539876
N 2.075239 0.800789 0.509338
N 0.597000 -1.125251 0.119361
N 4.040076 -0.240831 0.317697
N 1.767855 -3.080834 -0.304613
C 0.901490 2.634000 -0.744335
C 1.164497 1.928433 0.595948
C -0.497825 3.224894 -0.502912
C -1.150842 2.153132 0.366635
C -1.962067 1.174957 -0.462511
C 1.805525 -0.501104 0.243692
C 3.450439 0.893189 0.543616
C 3.014191 -1.135907 0.126148
C 3.058513 -2.541871 -0.165290
C 0.558307 -2.455966 -0.170560
H 0.855921 1.883950 -1.535658
H 1.606269 2.627482 1.312058
H -1.032319 3.372889 -1.438573
H -1.785224 2.591828 1.136509
H -1.410664 0.850134 -1.347707
H -2.890547 1.647310 -0.780801
H 1.643799 4.398660 -0.657993
H -0.307805 4.416082 1.057498
H 3.934060 1.835733 0.741389
H -0.270891 -0.656502 0.352629
H 1.719521 -4.064810 -0.526290
H -3.988668 -1.275468 2.052692
H -1.932611 -2.430999 -0.696682
