26
DFT refinement start; not an optimized result
N 1.544735 0.203592 0.296379
N 3.511366 0.155059 -0.705396
C 2.150704 -0.963568 0.669396
C 2.412183 0.837776 -0.528493
C 3.360183 -0.974949 0.039121
H 1.677439 -1.652378 1.335632
H 2.201242 1.790537 -0.970278
H 4.130475 -1.718046 0.070944
O -0.468879 -0.301733 1.387740
O -2.789169 1.356774 0.381225
O -0.692225 2.503263 -0.679402
O -2.252144 -2.440711 -1.030699
C -1.963886 0.433587 -0.282175
C -1.566317 -0.757362 0.601835
C -0.603641 1.125304 -0.529866
C 0.242879 0.690059 0.704066
C -1.181873 -1.986379 -0.244758
H -2.412390 0.090825 -1.219178
H -2.356103 -1.016480 1.312777
H -0.136647 0.730910 -1.438363
H 0.387019 1.544219 1.382426
H -0.383901 -1.714027 -0.940669
H -0.804146 -2.770502 0.420150
H -3.715443 1.087442 0.322266
H -1.459956 2.813916 -0.165382
H -2.899463 -2.897780 -0.474366
