26
DFT refinement start; not an optimized result
N 1.549396 0.225243 0.290795
N 3.333817 -1.045811 0.029327
C 2.428089 0.930050 -0.486289
C 2.149603 -0.953659 0.572758
C 3.520151 0.127197 -0.636852
H 2.198439 1.909897 -0.848852
H 1.689220 -1.705391 1.179466
H 4.425909 0.313519 -1.176937
O -0.455749 -0.319418 1.375958
O -2.791028 1.345236 0.402196
O -0.704861 2.515121 -0.653374
O -2.255747 -2.429947 -1.056035
C -1.964151 0.434270 -0.275975
C -1.557577 -0.766782 0.590307
C -0.608871 1.135817 -0.520025
C 0.243615 0.690651 0.706790
C -1.178212 -1.984327 -0.274946
H -2.415433 0.101225 -1.215241
H -2.342392 -1.036764 1.302780
H -0.142433 0.754146 -1.434206
H 0.380502 1.536784 1.396857
H -0.386967 -1.702138 -0.974569
H -0.792099 -2.775629 0.376259
H -3.715262 1.067382 0.351091
H -1.470961 2.816435 -0.131859
H -2.892745 -2.902771 -0.500961
