26
DFT refinement start; not an optimized result
N 1.501129 0.231278 0.212323
N 3.142364 -0.982965 -0.630085
C 2.665750 0.898021 0.476307
C 1.851864 -0.894169 -0.455010
C 3.663882 0.136618 -0.054101
H 2.680912 1.831863 0.997252
H 1.133916 -1.615377 -0.787425
H 4.719938 0.315014 -0.060063
O -0.444457 -0.360849 1.354015
O -2.722939 1.539695 0.471916
O -0.710333 2.201704 -1.105361
O -1.197856 -2.082669 -1.026235
C -2.115826 0.429247 -0.138994
C -1.748412 -0.675688 0.863969
C -0.737836 0.888152 -0.652998
C 0.174032 0.637456 0.576655
C -1.801247 -2.080472 0.250657
H -2.726437 0.037551 -0.956584
H -2.412690 -0.655222 1.734922
H -0.410935 0.244492 -1.474502
H 0.262417 1.560716 1.169084
H -1.274281 -2.761834 0.929293
H -2.853133 -2.379947 0.177646
H -3.665016 1.374741 0.612945
H -1.345536 2.716344 -0.575833
H -1.332900 -2.949769 -1.434579
