  12
        -24.61002618
 O         -2.0020882004       -1.0865346808        0.0001031811
 O         -1.9342985238        1.1491039698       -0.0001029675
 N          0.8780950996        1.0674801935        0.0001528541
 N          0.8158757529       -1.1452571251       -0.0000513711
 C          0.0874543261       -0.0428302445        0.0000152982
 C          2.1585545824        0.6414419517       -0.0000217978
 C          2.0974078597       -0.7347033417       -0.0000829511
 C         -1.3653519628        0.0673072201       -0.0000659688
 H          0.5377688783        2.0174670819        0.0002873839
 H          2.9941176445        1.3089258999       -0.0001104228
 H          2.8986601873       -1.4447151656        0.0002269758
 H         -2.9738472224       -0.9744038076        0.0000344250
