  12
        -24.61002618
 O         -2.0020882004       -1.0865346808        0.0001031811
 O         -1.9342985238        1.1491039698       -0.0001029675
 N          0.8780950996        1.0674801935        0.0001528541
 N          0.8158757529       -1.1452571251       -0.0000513711
 C          0.0874543261       -0.0428302445        0.0000152982
 C          2.1585545824        0.6414419517       -0.0000217978
 C          2.0974078597       -0.7347033417       -0.0000829511
 C         -1.3653519628        0.0673072201       -0.0000659688
 H          0.5377688783        2.0174670819        0.0002873839
 H          2.9941176445        1.3089258999       -0.0001104228
 H          2.8986601873       -1.4447151656        0.0002269758
 H         -2.9738472224       -0.9744038076        0.0000344250
  12
        -24.60911100
 O         -1.8136232044        1.2084920446       -0.0280860142
 O         -2.1197484285       -1.0054046390        0.0264024141
 N          0.8579410415        1.0157963943       -0.0180010000
 N          0.8322351992       -1.1977233315        0.0214339829
 C          0.0845473738       -0.1076857870        0.0028254778
 C          2.1449129147        0.6104708344       -0.0127879138
 C          2.1068336692       -0.7661019794        0.0115579950
 C         -1.3706597173       -0.0503248502        0.0023500651
 H          0.5101566958        1.9632363741       -0.0336001359
 H          2.9701535231        1.2905742197       -0.0258121055
 H          2.9188152641       -1.4636726772        0.0220084557
 H         -2.7894303279        1.2516952398       -0.0305942814
  12
        -24.60881344
 O         -2.0059268162       -1.0909920195        0.0000768316
 O         -1.9855414691        1.1333530021       -0.0002104727
 N          0.8957146771        1.0921647199        0.0000856669
 N          0.7789802885       -1.1172695011       -0.0002490937
 C          0.0788707453        0.0065367986        0.0000202285
 C          2.1656652342        0.6307806391        0.0000038958
 C          2.0722478491       -0.7429916890        0.0000362320
 C         -1.3794533867        0.0772102653        0.0001794985
 H          0.5844423475        2.0520595194        0.0003339706
 H          3.0185789531        1.2758436634        0.0001976024
 H          2.8556482268       -1.4724580521        0.0002618888
 H         -1.3743808111       -1.8398111523        0.0007407728
