12
imidazole_2_carboxylic_acid  charge=0 mult=1  seed=1_b3lyp_pcm
O     -2.05209600    -1.07666500     0.00000200
O     -1.95693100     1.17384700    -0.00000200
N      0.86420700     1.04170200    -0.00000200
N      0.76623000    -1.17051300    -0.00000100
C      0.05522400    -0.05384700    -0.00000000
C      2.14961600     0.60282100     0.00000100
C      2.06981500    -0.77340600    -0.00000100
C     -1.40073400     0.09439700     0.00000200
H      0.54970000     1.99976400     0.00001400
H      2.98758700     1.27582200     0.00000300
H      2.88147000    -1.48056600     0.00000100
H     -3.00313000    -0.89058000    -0.00000300
