15
calc_91cbaa5a06790e92; angstrom; atom order from source job; valid
O -0.199753 2.634458 0.001034
O -2.961992 -0.985338 0.001320
N -0.726086 -1.399712 -0.001155
N 2.139952 0.586648 -0.000249
N -1.529786 0.781797 -0.001095
N 1.697844 -1.590898 0.000459
C 0.771319 0.462684 -0.001046
C 0.544198 -0.888287 -0.000614
C -0.288435 1.420441 -0.000367
C -1.817862 -0.574432 -0.000182
C 2.638308 -0.657251 0.000897
H -0.889842 -2.393436 0.001571
H 2.667036 1.443518 -0.000102
H -2.339627 1.384058 0.000255
H 3.697759 -0.850889 0.001597
