  32
        -58.18146928
 N         -2.4057625937       -1.3653339159        0.4029514547
 N         -1.0094219829        0.4559755889       -0.1662929747
 N         -3.3669192826        0.6738919874       -0.3371996184
 N         -0.1587548187       -1.6028408036        0.5253852318
 N         -4.6749806291       -1.1116555652        0.2418560584
 N         -1.9828635350        2.4109540753       -0.8733357048
 C         -1.2091192919       -0.7958437769        0.2465148324
 C         -3.4530035915       -0.5891903288        0.0950946612
 C         -2.1280030712        1.1533548295       -0.4459314619
 H         -0.4283136081       -2.4813586186        0.9384356028
 H         -5.4714038611       -0.5603549641       -0.0205078907
 H         -4.7612576320       -2.0715361076        0.5211215011
 H         -1.0644975188        2.8194429925       -0.9206286055
 H         -2.8093820592        2.9510490770       -1.0545489922
 O          1.4493146519       -0.1668991196        1.4556728033
 O          4.1006779469       -0.6575396475       -0.2643986169
 O          2.1832904850       -1.8268405036       -1.6349508656
 O          1.0349656373        2.2804450391       -0.2122754645
 C          2.9510690294        0.1455974092       -0.3821061574
 C          2.4755038870        0.7032619031        0.9724676096
 C          1.7913517999       -0.7743872144       -0.8125363835
 C          1.2221095003       -1.2341267225        0.5529575426
 C          1.9266080758        2.1320606377        0.8604462127
 H          3.0997604825        0.9534053150       -1.1038431457
 H          3.2929150583        0.6834154921        1.7043425765
 H          1.0238788369       -0.2084012139       -1.3449197763
 H          1.7830063992       -2.1204986026        0.8862493774
 H          2.7467881429        2.8316957989        0.6836399710
 H          1.4366970587        2.3811223773        1.8110130641
 H          4.8957477909       -0.1081689764       -0.2625987622
 H          3.0826521118       -2.0931766582       -1.3719008006
 H          0.3460921563        1.5734209953       -0.1339143443
  32
        -58.18130872
 N         -2.0916171960        1.1220953465       -0.3474195063
 N         -1.7561062719       -1.1933303439        0.0244220795
 N         -3.9595879191       -0.3113399145       -0.0427212543
 N          0.0158627512        0.2396789283       -0.3537600559
 N         -4.2335173379        1.9344413690       -0.3845285075
 N         -3.5834385439       -2.5356789470        0.3376874243
 C         -1.3179103741        0.0457593755       -0.1992717480
 C         -3.4078712449        0.8864075314       -0.2619779546
 C         -3.0894277256       -1.3144502953        0.0991592139
 H          0.3181392098        1.2089998441       -0.3515020617
 H         -5.2228133603        1.7660511173       -0.4003976061
 H         -3.8458509436        2.8255322255       -0.6341514432
 H         -2.9499186335       -3.3095998362        0.4141545880
 H         -4.5788624643       -2.6576732921        0.3668948097
 O          1.6267639289       -0.3276893551        1.2896028473
 O          4.4386668726       -0.0987728306       -0.7303882850
 O          2.7565298708       -2.1485198172       -0.7841501931
 O          1.6494037922        2.5305169241        0.3518566963
 C          3.0987995074        0.2357496768       -0.5160045381
 C          2.7649214360        0.4777325816        0.9787771627
 C          2.1264304376       -0.9011137859       -0.9123457166
 C          0.9799435557       -0.7221760993        0.0937500621
 C          2.5284812849        1.9577762830        1.2981181827
 H          2.8793746616        1.1412177324       -1.0890360817
 H          3.5859140463        0.1259859508        1.6136750424
 H          1.7869693470       -0.8232211051       -1.9447565940
 H          0.4380531436       -1.6511395845        0.2927395372
 H          3.4999649338        2.4651563520        1.2701549143
 H          2.1062984895        2.0224567254        2.3074870192
 H          4.4871947061       -1.0643127036       -0.8643495844
 H          2.7979104656       -2.3907264736        0.1538249690
 H          1.4904291948        3.4554469738        0.5858673757
  32
        -58.18119608
 N         -2.1073234247        1.1245984241       -0.3189409820
 N         -1.7584447600       -1.1991013070       -0.0190295900
 N         -3.9657452452       -0.3239014208       -0.0282533662
 N          0.0053118077        0.2531911422       -0.3624173018
 N         -4.2510531881        1.9293086878       -0.3121837699
 N         -3.5794115158       -2.5635705043        0.2387890862
 C         -1.3269755207        0.0489858348       -0.2062777654
 C         -3.4215602246        0.8814742557       -0.2247687496
 C         -3.0902799350       -1.3273924387        0.0678438681
 H          0.3006648110        1.2239917840       -0.3281714703
 H         -5.2405967319        1.7624607297       -0.3090966208
 H         -3.8662671228        2.8306421186       -0.5271421532
 H         -2.9371493536       -3.3156647162        0.4089204898
 H         -4.5648933740       -2.6698945169        0.3970363365
 O          1.6028658428       -0.3097988933        1.2876930803
 O          4.4546722044       -0.1115892661       -0.7023526890
 O          2.7671540942       -2.1000412133       -0.8354812354
 O          1.6862835903        2.5306159589        0.4073101348
 C          3.1196290060        0.2315620983       -0.4907057769
 C          2.7697359668        0.4561525988        1.0034367538
 C          2.1202417800       -0.8584615079       -0.9374947432
 C          0.9788089679       -0.7047084240        0.0859623760
 C          2.5695594686        1.9384295887        1.3380330546
 H          2.9361539106        1.1550693951       -1.0462746972
 H          3.5701973410        0.0665549094        1.6421745207
 H          1.7544823825       -0.6799377409       -1.9532871383
 H          0.4484787632       -1.6402798774        0.2826593883
 H          3.5497869845        2.4277108618        1.2992432669
 H          2.1618769714        2.0044086231        2.3532194375
 H          4.5375063200       -1.0749711942       -0.5969951030
 H          2.2058460149       -2.7995171313       -1.1956119755
 H          1.5521062423        3.4588345300        0.6449040540
  32
        -58.18110696
 N         -2.1141066462        1.1412385598       -0.2189732473
 N         -1.7557092091       -1.1982804400       -0.1064760320
 N         -3.9682594550       -0.3367105640       -0.0961847416
 N          0.0039268169        0.2846502838       -0.2929405447
 N         -4.2654083418        1.9288100970       -0.1974883063
 N         -3.5726523622       -2.5880849329       -0.0085491241
 C         -1.3292306968        0.0635009949       -0.1806362611
 C         -3.4284190827        0.8839479866       -0.1755513082
 C         -3.0883625215       -1.3403652182       -0.0651675932
 H          0.2972163631        1.2504380607       -0.1854720260
 H         -5.2535866351        1.7549564348       -0.2103546507
 H         -3.8860180730        2.8514430709       -0.3027813441
 H         -2.9304002443       -3.3538645533        0.0778673589
 H         -4.5636331808       -2.7155172395        0.0836728404
 O          1.6259984549       -0.3760776292        1.2926617769
 O          4.4297814114       -0.0418644161       -0.7610262507
 O          2.7576103963       -2.0479989698       -0.9245037285
 O          1.6991699124        2.5090251493        0.6012090207
 C          3.0979954436        0.2685235245       -0.4885299919
 C          2.7917501766        0.3987936216        1.0262578779
 C          2.0997061949       -0.8084861988       -0.9654538893
 C          0.9771381969       -0.7036054962        0.0844421833
 C          2.6125642035        1.8574177443        1.4604756951
 H          2.8841331696        1.2199045414       -0.9829001738
 H          3.6068256153       -0.0367143140        1.6151969754
 H          1.7157211467       -0.5926599852       -1.9674942985
 H          0.4433666614       -1.6451502632        0.2397042066
 H          3.5935859577        2.3448233861        1.4159309473
 H          2.2423894254        1.8621176650        2.4919186651
 H          4.5281894626       -1.0079375141       -0.7073016649
 H          2.1853818981       -2.7398968287       -1.2820567625
 H          1.5692444979        3.4170712159        0.9084842806
  32
        -58.18082323
 N         -1.0086258199        0.4002014309       -0.2879496298
 N         -2.4067819821       -1.2677822343        0.6310876566
 N         -3.3610758553        0.7109159133       -0.2643251517
 N         -0.1664206600       -1.6087879223        0.5566885695
 N         -1.9735004909        2.2966698294       -1.1509049013
 N         -4.6717085690       -0.9360360335        0.6326200883
 C         -1.2139893762       -0.7766696138        0.2985799993
 C         -2.1229964146        1.1145645540       -0.5462259823
 C         -3.4524209541       -0.4862087288        0.3248085487
 H         -0.4327066256       -2.3630254530        1.1728119559
 H         -2.7890299853        2.8695061057       -1.2754716738
 H         -1.0487060445        2.6748998468       -1.2750319998
 H         -4.7615410018       -1.8260552140        1.0873741138
 H         -5.4680491015       -0.3629167109        0.4212293684
 O          1.4053464380       -0.0622843744        1.3840887048
 O          4.1416069852       -0.6212746314       -0.1634216333
 O          2.3098122611       -1.9761964446       -1.4923705226
 O          1.0376745106        2.2331480713       -0.4552458374
 C          2.9558368075        0.0792170773       -0.4294348189
 C          2.4584341449        0.7501161014        0.8598393330
 C          1.8020306657       -0.8680558830       -0.8054427175
 C          1.2112467136       -1.2129671056        0.5807158385
 C          1.9310364437        2.1699984058        0.6252646183
 H          3.1256518665        0.8264608436       -1.2156382286
 H          3.2733652760        0.7721776493        1.5931223891
 H          1.0534906764       -0.3283711099       -1.3940769568
 H          1.7855749573       -2.0544520043        0.9985340026
 H          2.7621909990        2.8368647945        0.3876871546
 H          1.4447757708        2.5087195085        1.5498651924
 H          4.2227419627       -1.3308380551       -0.8223060083
 H          1.5847323526       -2.5279200668       -1.8135272094
 H          0.3573988807        1.5268056583       -0.3254090714
  32
        -58.18062926
 N         -1.0007819224        0.4119369390       -0.2599603447
 N         -2.4101456037       -1.2756806477        0.6066913879
 N         -3.3559290741        0.6987463263       -0.3085893894
 N         -0.1659024242       -1.5919547020        0.5950173024
 N         -1.9568104755        2.2968561141       -1.1558056311
 N         -4.6761960837       -0.9595507229        0.5529251634
 C         -1.2115667937       -0.7735657981        0.3104143736
 C         -2.1138015096        1.1141613179       -0.5523367381
 C         -3.4525005732       -0.5005876934        0.2762935124
 H         -0.4332581047       -2.3821665074        1.1615316105
 H         -2.7727442617        2.8648566387       -1.2985298809
 H         -1.0324916507        2.6861382122       -1.2430221759
 H         -4.7705490110       -1.8538815421        0.9981645182
 H         -5.4714274998       -0.3934693220        0.3198205478
 O          1.4436789559       -0.0900934498        1.4178811326
 O          4.1395009501       -0.5860987290       -0.3009925341
 O          2.2304552618       -2.0178525411       -1.4394714907
 O          1.0346586732        2.2618025022       -0.3479022855
 C          2.9285240634        0.1062905722       -0.4519003859
 C          2.4826573087        0.7327207895        0.8804737933
 C          1.7722275862       -0.8587759687       -0.7996511362
 C          1.2148952043       -1.2169315843        0.5935213905
 C          1.9524951156        2.1608622337        0.7093665283
 H          3.0491721509        0.8853235161       -1.2152504797
 H          3.3227014307        0.7299663070        1.5854668137
 H          0.9976903678       -0.3401136389       -1.3673159216
 H          1.7819811771       -2.0801390889        0.9736514751
 H          2.7787696896        2.8352033778        0.4755544672
 H          1.4888599911        2.4676526157        1.6562700489
 H          4.0288950248       -1.4659964896       -0.7086270762
 H          2.1635308074       -1.9186846938       -2.3995834961
 H          0.3559909227        1.5520238526       -0.2291654981
  32
        -58.18055530
 N         -2.2188163676        1.0322255525       -0.4210227835
 N         -1.6630381832       -1.1887748701        0.1916614372
 N         -3.9355508453       -0.4995927064        0.1627634603
 N         -0.0491154259        0.3319294064       -0.4601273075
 N         -4.4202117512        1.6651615481       -0.4000383453
 N         -3.3488194420       -2.6260375598        0.7704122624
 C         -1.3461878131        0.0449515406       -0.2012422316
 C         -3.5018778372        0.7052684075       -0.2213270313
 C         -2.9746728107       -1.4067408423        0.3580225807
 H          0.1636751266        1.3071856445       -0.6318902272
 H         -5.3906981733        1.4194414115       -0.3302857077
 H         -4.1248791804        2.5489708532       -0.7718909044
 H         -2.6527467394       -3.3457648580        0.8354570395
 H         -4.3291603558       -2.8357392059        0.8177607356
 O          1.5297733573       -0.0243343507        1.2573977590
 O          4.1955945341       -1.0569921402        0.2860265111
 O          2.4765549618       -1.6362456791       -1.6285124038
 O          1.9333308299        2.4723994380       -0.4282196393
 C          3.4213893967        0.0439201933       -0.1119203939
 C          2.7228856209        0.7276432949        1.0692766984
 C          2.2335428081       -0.4164271287       -0.9936236010
 C          1.0403482675       -0.4721114837       -0.0009980166
 C          2.4784936446        2.2269295483        0.8512800624
 H          4.0925763656        0.7127058565       -0.6504987811
 H          3.2983983270        0.6171218157        1.9936105323
 H          2.0129460146        0.3328106663       -1.7597940050
 H          0.6569190616       -1.4880469209        0.1306005178
 H          3.4413838858        2.7383697147        0.9612177110
 H          1.7914123576        2.5708865664        1.6346093867
 H          3.7171219466       -1.5550193031        0.9666254144
 H          3.2831427759       -2.0212654709       -1.2339237364
 H          1.8912792406        3.4288284207       -0.5717128940
  32
        -58.18052273
 N         -1.8360104957       -0.8902688621        0.1354491242
 N         -2.0068531221        1.3587731274       -0.5907658052
 N         -3.9702800700        0.1316648413       -0.0658336081
 N          0.0283207089        0.3369220033       -0.4625914871
 N         -3.7507089626       -2.0276770099        0.6620459793
 N         -4.0817428348        2.3164174415       -0.7409334436
 C         -1.3104500484        0.2621843612       -0.2798599943
 C         -3.1727206820       -0.8994002310        0.2265876733
 C         -3.3345680726        1.2377931136       -0.4654270292
 H          0.4013069203        1.2589448950       -0.6529657267
 H         -4.7524559201       -2.0876389359        0.6556996677
 H         -3.1753945484       -2.8379993344        0.8007702467
 H         -3.6308630030        3.1222193506       -1.1337644556
 H         -5.0805045900        2.2184421558       -0.7443739380
 O          1.4380238048       -0.2090169049        1.3509140042
 O          3.9203682912       -1.7306830717        0.5672508869
 O          2.2434110348       -2.0502934002       -1.4474449398
 O          2.3565644501        2.1125894293       -0.3733689728
 C          3.3831047736       -0.5224853741        0.0962284307
 C          2.7534431294        0.3160623907        1.2144556980
 C          2.1832633709       -0.7919028446       -0.8453426085
 C          0.9474895972       -0.6150317027        0.0786609796
 C          2.7878516561        1.8255274212        0.9403628218
 H          4.1942020253       -0.0044972842       -0.4152305760
 H          3.2503547164        0.1424055900        2.1738870420
 H          2.1392138156       -0.0352986870       -1.6340999054
 H          0.3956457605       -1.5497825580        0.2145855904
 H          3.8190874731        2.1650402830        1.0884245056
 H          2.1348570546        2.3137986756        1.6747264821
 H          3.3221345035       -2.1105193186        1.2290889845
 H          2.9351739347       -2.5660019432       -0.9894590471
 H          2.5042075409        3.0522152390       -0.5528867885
  32
        -58.18045683
 N         -1.8621213001       -0.9030638890        0.1136789358
 N         -1.9494685139        1.3519092618       -0.6065473432
 N         -3.9512600603        0.2188045524       -0.0200162462
 N          0.0404612402        0.2351003381       -0.5441445011
 N         -3.8147710848       -1.9586126784        0.6693678854
 N         -3.9812220565        2.4065972513       -0.6918258435
 C         -1.2964845477        0.2239670593       -0.3153269025
 C         -3.1949576386       -0.8504362872        0.2447323258
 C         -3.2773065114        1.2934349819       -0.4409778681
 H          0.4438940117        1.1506545539       -0.7143893174
 H         -4.8113002129       -1.9432873845        0.7842380833
 H         -3.2648031264       -2.7699370979        0.8824942066
 H         -3.5062119351        3.1909631706       -1.0992781323
 H         -4.9831397570        2.3547148717       -0.6627871785
 O          1.3966386683       -0.3043093455        1.3153157271
 O          4.2227888167       -1.4395937197        0.4086530225
 O          2.2838334471       -2.3126730069       -1.1254672279
 O          2.2031474720        2.1340715636       -0.3368966692
 C          3.3630295629       -0.4141505923        0.0010860411
 C          2.6747205608        0.3025386639        1.1813984543
 C          2.1699193012       -0.9454505963       -0.8434979670
 C          0.9286594840       -0.7221111365        0.0461246082
 C          2.6003720774        1.8230617006        0.9835497273
 H          3.9785323313        0.2839638537       -0.5682489799
 H          3.2038783771        0.1067760061        2.1187585340
 H          2.0576725031       -0.3574034981       -1.7610717224
 H          0.3652475599       -1.6484497442        0.1891019633
 H          3.5939707851        2.2364584967        1.1893239066
 H          1.8807201380        2.2233825909        1.7081745544
 H          3.6942702429       -2.1867418303        0.7314835307
 H          3.0478107367       -2.4590242717       -1.7040301621
 H          2.2431995651        3.0936277388       -0.4585424622
  32
        -58.18004982
 N         -2.2117966424        1.0576641506       -0.3534423135
 N         -1.6765843937       -1.2058922922        0.0934656877
 N         -3.9375988055       -0.4846772759        0.1741995379
 N         -0.0512529389        0.3300806935       -0.4952205202
 N         -4.4040344332        1.7121518058       -0.2667892321
 N         -3.3734718550       -2.6668765830        0.5706834754
 C         -1.3504452359        0.0479548849       -0.2169555196
 C         -3.4963461928        0.7350505333       -0.1495321410
 C         -2.9873246826       -1.4168935795        0.2805720047
 H          0.1663279535        1.3179146942       -0.5687164374
 H         -5.3750890114        1.4888002977       -0.1493259425
 H         -4.0971646707        2.6276547071       -0.5386730770
 H         -2.6679175116       -3.3587001395        0.7455607877
 H         -4.3367611056       -2.8294310495        0.8012806577
 O          1.5019838633       -0.0629000819        1.2406416911
 O          4.2644596277       -0.9810876542        0.2421164179
 O          2.5561760095       -1.6467716476       -1.5916655351
 O          1.9142672381        2.4984143722       -0.2608581237
 C          3.4114000596        0.0638260729       -0.1390006534
 C          2.7162286684        0.6594992511        1.0962213940
 C          2.2289424094       -0.4167171091       -1.0081803143
 C          1.0314327599       -0.4876985436       -0.0254839632
 C          2.4942457908        2.1729714558        0.9862013367
 H          3.9953973480        0.8296689950       -0.6649886756
 H          3.3045550075        0.4544657275        1.9950206363
 H          2.0091584229        0.3406570374       -1.7682647508
 H          0.6461529424       -1.5050129599        0.0935576174
 H          3.4668384422        2.6643041107        1.0985132459
 H          1.8339594383        2.4759968520        1.8079708463
 H          4.1103862452       -1.7278531824       -0.3616472413
 H          1.8882269998       -1.8942390974       -2.2448012464
 H          1.8679614906        3.4622928815       -0.3423344446
  32
        -58.18004677
 N         -2.3396754699       -0.1090763165       -1.2484825501
 N         -1.8511678244       -0.5181931130        1.0320575871
 N         -4.0968161361       -0.1627528821        0.3461011176
 N         -0.1918951969       -0.5067473362       -0.5793868460
 N         -4.5197859459        0.2151403872       -1.8707217063
 N         -3.5762464165       -0.5687045805        2.5362256506
 C         -1.5035302188       -0.3534111241       -0.2413225867
 C         -3.6328431503       -0.0255761853       -0.8994710251
 C         -3.1678608279       -0.4084181057        1.2728074692
 H          0.0177547110       -0.2280723572       -1.5274992641
 H         -5.4907185367        0.2989623692       -1.6316829537
 H         -4.1902266808        0.3381466730       -2.8103492303
 H         -2.8917423053       -0.7168053193        3.2546516371
 H         -4.5517168318       -0.4620452143        2.7462281532
 O          1.4256813844        0.9383184514        0.3296995670
 O          4.3223373702       -0.9731477546       -0.6144426906
 O          2.6492672303       -1.7581948174        1.3180070495
 O          3.0778617772        3.2836600441       -0.3679135681
 C          3.0122930610       -0.5119632410       -0.6671216103
 C          2.8006570108        0.8817037652       -0.0451344211
 C          2.0063377330       -1.3611153100        0.1355022278
 C          0.8586674019       -0.3630094111        0.3874028439
 C          3.1279034682        2.0293333057       -0.9987630197
 H          2.7273186726       -0.4891098563       -1.7236877520
 H          3.4175448702        0.9770729691        0.8600121002
 H          1.6483618066       -2.2241683969       -0.4341895568
 H          0.3972231814       -0.5007955677        1.3712041862
 H          2.4334345608        1.9979037632       -1.8491200966
 H          4.1498399402        1.9053956464       -1.3625857274
 H          4.4974917036       -1.2889857658        0.2884224198
 H          2.0966005335       -2.3826626345        1.8071604564
 H          2.2041996354        3.3874333882        0.0359594516
  32
        -58.18002365
 N         -2.4163266493       -1.3499476021        0.4027588693
 N         -1.0131856986        0.4657734456       -0.1661033792
 N         -3.3690809538        0.6898107556       -0.3457442160
 N         -0.1730361883       -1.5943607815        0.5386429953
 N         -4.6843536580       -1.0921361944        0.2269625166
 N         -1.9797330658        2.4252374037       -0.8719839923
 C         -1.2178771796       -0.7836550797        0.2492745098
 C         -3.4605284827       -0.5727086779        0.0869534337
 C         -2.1292734581        1.1671956917       -0.4490413137
 H         -0.4558875513       -2.4734689846        0.9415858923
 H         -5.4773805638       -0.5402771224       -0.0447055969
 H         -4.7750685084       -2.0523499195        0.5037691205
 H         -1.0604166998        2.8320017715       -0.9175664052
 H         -2.8043217236        2.9657727343       -1.0604408066
 O          1.4870948761       -0.2144363705        1.4788806215
 O          4.1591613935       -0.5371333944       -0.3499284333
 O          2.2324396655       -1.8722418793       -1.5869842646
 O          1.0292123663        2.2660035121       -0.2225284590
 C          2.9350754350        0.1488960909       -0.3884468374
 C          2.4733493846        0.6900926467        0.9714566484
 C          1.7905956723       -0.8024833602       -0.8073741908
 C          1.2165700961       -1.2582846329        0.5571939407
 C          1.8916943522        2.1084544888        0.8710472644
 H          3.0659595770        0.9555906284       -1.1117962065
 H          3.3039022935        0.7068543593        1.6884106291
 H          1.0149614651       -0.2619854474       -1.3566959704
 H          1.7437287544       -2.1709613437        0.8752604005
 H          2.7051100495        2.8241063994        0.7320383295
 H          1.3722539494        2.3273833894        1.8134858176
 H          4.2106492814       -1.0906630028        0.4433568015
 H          3.2085710201       -1.8836836362       -1.5459537850
 H          0.3345808311        1.5612216133       -0.1649933325
  32
        -58.17969739
 N         -2.1708979426        0.9227899373       -0.7287804605
 N         -1.7871126301       -1.1128937265        0.4210908761
 N         -4.0088984317       -0.3577624542        0.0552501890
 N         -0.0456724128        0.1552237270       -0.4099330200
 N         -4.3272618798        1.6184174834       -1.0551230250
 N         -3.5893154505       -2.3240896491        1.1469018116
 C         -1.3776491008       -0.0161753421       -0.2144279123
 C         -3.4836860217        0.7021038561       -0.5673974218
 C         -3.1195393676       -1.2326957367        0.5303182592
 H          0.2247826855        1.0435126950       -0.8090786857
 H         -5.3148700681        1.4626927286       -0.9704000182
 H         -3.9528348973        2.4054588564       -1.5521804764
 H         -2.9383671462       -2.9590252063        1.5709679964
 H         -4.5782709820       -2.4030226116        1.2983161759
 O          1.6261479258        0.2089478540        1.2548686715
 O          4.3292726293       -0.2958720980       -1.0206503147
 O          2.7201611650       -2.2330439151       -0.1420320856
 O          1.8980323260        2.7632126971        0.1547916623
 C          3.0294105016        0.0601932606       -0.6715114746
 C          2.8989501577        0.6274216302        0.7595034269
 C          2.0376117061       -1.1183954297       -0.6529851068
 C          0.9521414009       -0.5918167452        0.3030710912
 C          2.9986295047        2.1586119282        0.7919890808
 H          2.7022383184        0.8176356052       -1.3909696401
 H          3.6776485549        0.1969358289        1.4010365455
 H          1.6188342388       -1.3225187528       -1.6435459411
 H          0.4268311916       -1.3860617582        0.8412048036
 H          3.8893970331        2.4653692712        0.2413849359
 H          3.0763373795        2.4989309391        1.8303157633
 H          4.5170158293       -1.1665531396       -0.6308854952
 H          2.1576866354       -3.0182152522       -0.1828290909
 H          1.1118034054        2.5701139654        0.6861141109
  32
        -58.17964543
 N         -2.6410561806       -0.4091918786        1.0530943925
 N         -1.4520347364       -0.3471463732       -0.9942124627
 N         -3.8223790049       -0.4161076164       -1.0069586060
 N         -0.3596902758       -0.3026096468        1.0364054706
 N         -4.9282574604       -0.4634822496        0.9949788753
 N         -2.6328877126       -0.3648279571       -2.9586537720
 C         -1.5172006400       -0.3677873295        0.3417820277
 C         -3.7707983067       -0.4263180200        0.3298511203
 C         -2.6412329936       -0.3767876212       -1.6223037771
 H         -0.4185951405       -0.4489133422        2.0324455347
 H         -5.7872378112       -0.4801691324        0.4761974923
 H         -4.9117044131       -0.4691520042        1.9982909094
 H         -1.7598183430       -0.3265697432       -3.4525326195
 H         -3.5107517039       -0.3754616223       -3.4451132260
 O          1.8862400116       -0.6732024020        1.4368417437
 O          3.5001664479       -0.3819832124       -1.2175100594
 O          1.0138299448        0.3663489125       -1.8462863178
 O          4.3742030953        2.0059732233        1.8346763131
 C          2.9043552027        0.5407642397       -0.3444955217
 C          3.0623642212        0.0685456698        1.1053163252
 C          1.3769399050        0.5754241807       -0.5163410031
 C          0.9204435099       -0.5608654139        0.4257296224
 C          3.2270700031        1.2396971393        2.0888909064
 H          3.3547425477        1.5331727760       -0.4803131958
 H          3.9161075369       -0.6150703395        1.1752777649
 H          0.9762443493        1.5285813805       -0.1411659206
 H          0.8771413163       -1.5014372849       -0.1561889334
 H          3.2272805030        0.8373918157        3.1085219846
 H          2.3783833589        1.9195369179        1.9842186630
 H          3.0273131537       -0.3292574535       -2.0653289686
 H          0.0608992668        0.1009848417       -1.8191402654
 H          5.1658964493        1.4734044479        1.9986139165
  32
        -58.17945361
 N         -2.1657531946        0.0737058226       -1.2170103794
 N         -1.7838621242       -0.5712522297        1.0297183310
 N         -3.9793608960       -0.0215574725        0.3108181239
 N         -0.0732423158       -0.5171296951       -0.5254328957
 N         -4.2977387370        0.6003664789       -1.8679311444
 N         -3.5594638256       -0.6412007862        2.4726548233
 C         -1.3838886044       -0.3176881609       -0.2123008489
 C         -3.4633781141        0.2057310815       -0.9004493705
 C         -3.1001518792       -0.4062523790        1.2391022079
 H          0.1845874284       -0.1895399301       -1.4446747164
 H         -5.2739010062        0.6976778082       -1.6567102863
 H         -3.9328812663        0.7654557881       -2.7878448016
 H         -2.9196952853       -0.9542930719        3.1793295708
 H         -4.5430350668       -0.5491305628        2.6489898522
 O          1.5419711768        0.6451023958        0.7789649944
 O          4.3464764970       -0.8291620087       -0.7597670695
 O          2.8307078907       -2.0377998168        1.0942458288
 O          2.3193074106        3.2413289504       -0.3187868297
 C          2.9959119877       -0.4829690944       -0.7568196647
 C          2.7026218020        0.8536351328       -0.0337710161
 C          2.1140010245       -1.4897931532        0.0216294426
 C          0.9465025090       -0.6068157720        0.4773282338
 C          2.4812398801        2.0222677265       -0.9983898064
 H          2.6724717322       -0.4181326200       -1.8011183900
 H          3.5301850545        1.1151298008        0.6370220346
 H          1.7873297026       -2.3263129395       -0.5958050629
 H          0.4554787481       -0.9635068714        1.3868105845
 H          1.6046746713        1.8175579958       -1.6293613674
 H          3.3620593509        2.1359967515       -1.6332332234
 H          4.5018830174       -1.4456024181       -0.0197735940
 H          2.8884421632       -1.3899691545        1.8132011036
 H          1.6150018822        3.1335848130        0.3373118462
  32
        -58.17930113
 N         -2.5123337720       -0.1490299922       -1.2352166880
 N         -1.9268201030       -0.5050323265        1.0307492021
 N         -4.2091808967       -0.2666969972        0.4202033139
 N         -0.3259674088       -0.4405917494       -0.6393103360
 N         -4.7270099858        0.0440932026       -1.7866823237
 N         -3.5947208863       -0.6204817255        2.5952039258
 C         -1.6313700992       -0.3391976460       -0.2553328297
 C         -3.7956720881       -0.1278690202       -0.8428991416
 C         -3.2380408047       -0.4529395487        1.3167309226
 H         -0.1614349584       -0.1383040899       -1.5894084782
 H         -5.6917405439        0.0884173423       -1.5142192999
 H         -4.4363392918        0.1737322328       -2.7381040444
 H         -2.8779284478       -0.6986093794        3.2929946524
 H         -4.5635059551       -0.5291289246        2.8409669857
 O          1.2454401260        1.0922768031        0.1850229637
 O          4.3011967096       -0.6895309604       -0.4714097444
 O          2.4965734062       -1.7032250178        1.2059998389
 O          4.5538783171        2.3930216546       -0.6699670142
 C          2.9816591538       -0.2696239391       -0.6194756568
 C          2.6581927561        1.0708235743        0.0705165023
 C          1.9336302999       -1.1970493083        0.0243500240
 C          0.7457492401       -0.2410339783        0.2883351080
 C          3.1540560335        2.2882356356       -0.7099523152
 H          2.7899294329       -0.1802599211       -1.6943360664
 H          3.1155149345        1.0780482923        1.0725252820
 H          1.6290203473       -2.0049225020       -0.6482646047
 H          0.3286352955       -0.3943085959        1.2910167429
 H          2.7576872262        3.1975898028       -0.2538145532
 H          2.7920392236        2.2292468634       -1.7457000570
 H          4.3879850214       -1.1209272739        0.3955161864
 H          1.9194867891       -2.3760066541        1.5915718434
 H          4.9414933502        1.5458340722       -0.9411457208
  32
        -58.17923357
 N         -2.6742594795       -0.2509817375        1.0152668519
 N         -1.4230112454       -0.3828070182       -0.9898192616
 N         -3.7878992770       -0.5266111883       -1.0640472809
 N         -0.3984930817       -0.0726536173        1.0543206934
 N         -4.9563386153       -0.3863248751        0.8970631105
 N         -2.5366069434       -0.6601692942       -2.9735686490
 C         -1.5308064228       -0.2535218782        0.3363535013
 C         -3.7798949827       -0.3856646245        0.2662602712
 C         -2.5899509834       -0.5194224438       -1.6462482385
 H         -0.4932760029       -0.1069786077        2.0578225263
 H         -5.7969553929       -0.4865352451        0.3577304899
 H         -4.9734524210       -0.2797672258        1.8947950534
 H         -1.6491177224       -0.6361151356       -3.4422696300
 H         -3.3968981978       -0.7439587130       -3.4839884944
 O          1.8292691260       -0.2824169027        1.5775840248
 O          3.5576066565       -0.1590222873       -1.3790482108
 O          1.0377574241        0.2896908324       -1.8356695776
 O          3.5578256659        1.9419841453        2.2101765828
 C          2.9368246046        0.5768558098       -0.3615972035
 C          3.1258186930       -0.1321588728        1.0004512906
 C          1.4018272588        0.6391952066       -0.5355335355
 C          0.9044370279       -0.3668342371        0.5291100041
 C          4.0153484900        0.6337562535        1.9811674257
 H          3.3668170158        1.5863407630       -0.3252582329
 H          3.5606571204       -1.1226512625        0.8063146105
 H          1.0283867001        1.6398675783       -0.2765999205
 H          0.9233884237       -1.3785448982        0.0740152099
 H          5.0154584657        0.7242887352        1.5553169930
 H          4.0675185622        0.0701910590        2.9199332770
 H          2.9381762330       -0.1939496460       -2.1305890742
 H          0.0879952110        0.0090876537       -1.7800189512
 H          2.6763906541        1.8887375073        2.6062142947
  32
        -58.17919921
 N         -2.2223135458        1.0288349543       -0.4151522213
 N         -1.6726234553       -1.1964748376        0.1865753005
 N         -3.9445030365       -0.5051636646        0.1467145961
 N         -0.0530440370        0.3265601288       -0.4465785168
 N         -4.4232127847        1.6640969197       -0.4047267349
 N         -3.3629330002       -2.6363975912        0.7433178352
 C         -1.3513458394        0.0393342747       -0.1955536724
 C         -3.5067675204        0.7014003226       -0.2269597307
 C         -2.9853072324       -1.4141810953        0.3430994249
 H          0.1591846979        1.3037696066       -0.6076547097
 H         -5.3941054893        1.4146127159       -0.3559958095
 H         -4.1245554815        2.5457019427       -0.7793279953
 H         -2.6662962506       -3.3550903197        0.8127055822
 H         -4.3435209208       -2.8456339422        0.7860933393
 O          1.5275840737       -0.0099247776        1.2673081617
 O          4.1835437184       -1.0588391289        0.2285096825
 O          2.4599558589       -1.6490383361       -1.6192329347
 O          1.9437039267        2.4876496572       -0.3837351385
 C          3.4184901192        0.0624419138       -0.1345282079
 C          2.7320479578        0.7184343519        1.0763604240
 C          2.2229873818       -0.4327675991       -0.9825432230
 C          1.0380872950       -0.4750952921        0.0216419174
 C          2.4998433421        2.2243407775        0.8878116828
 H          4.0184960099        0.7855796345       -0.6942310818
 H          3.3100722745        0.5728388214        1.9940372183
 H          1.9875504103        0.2959749571       -1.7625649690
 H          0.6553569950       -1.4891672217        0.1668267494
 H          3.4656716048        2.7317930412        0.9947552392
 H          1.8223907205        2.5601113275        1.6824325111
 H          5.0314025500       -0.7795298711        0.5985592828
 H          3.0434966091       -2.1782638642       -1.0480134360
 H          1.8798533383        3.4461108561       -0.5049539516
  32
        -58.17914415
 N         -2.1241231308        0.9690407806       -0.6850691421
 N         -1.7690993525       -1.1083575892        0.3972505414
 N         -3.9809577940       -0.3337480879        0.0141566050
 N         -0.0087590663        0.1800826792       -0.3582511255
 N         -4.2720784218        1.6873689396       -1.0194939217
 N         -3.5868902213       -2.3222424919        1.0758308901
 C         -1.3436144591        0.0067944031       -0.1940544114
 C         -3.4402054491        0.7481567374       -0.5548873167
 C         -3.1033248314       -1.2273891252        0.4767077553
 H          0.2805105282        1.0769189180       -0.7259111369
 H         -5.2612972128        1.5283233618       -0.9651384128
 H         -3.8860139211        2.4885762123       -1.4839109694
 H         -2.9458006182       -3.0318124151        1.3794883596
 H         -4.5804442949       -2.4607034272        1.0999408193
 O          1.6782627218        0.0665182363        1.3005844449
 O          4.3452275432       -0.2796565156       -0.9895717123
 O          2.7007143800       -2.2832305054       -0.2614004763
 O          1.6911379449        2.6892846288        0.1978051041
 C          3.0349857215        0.0818130943       -0.6715872172
 C          2.8825455029        0.6285287462        0.7682022116
 C          2.0551511656       -1.1119707297       -0.6854194280
 C          0.9720852813       -0.6368774534        0.2927476804
 C          2.8444000102        2.1638799791        0.8130411524
 H          2.7160144415        0.8473827391       -1.3864771037
 H          3.7198812574        0.2871004455        1.3886462937
 H          1.6533994089       -1.3179170197       -1.6774825186
 H          0.4288808762       -1.4585483832        0.7681523074
 H          3.7008772980        2.5451172939        0.2534397807
 H          2.9142578702        2.4992127651        1.8525773850
 H          4.4350951260       -1.2392940451       -0.8428188128
 H          2.8150164508       -2.2622696602        0.7009963153
 H          0.9413622009        2.5490496626        0.7930904441
  32
        -58.17919388
 N         -1.9069201760       -0.9284517088        0.1405068281
 N         -2.2219214860        1.2604122175       -0.7082958838
 N         -4.1025145782       -0.0581322642       -0.1091228261
 N         -0.1246628499        0.3870020993       -0.5266791987
 N         -3.7458217006       -2.1567812584        0.7304578939
 N         -4.3546907513        2.0674170587       -0.9192103539
 C         -1.4607483502        0.2298191972       -0.3383977110
 C         -3.2422300644       -1.0191154317        0.2365432916
 C         -3.5412680995        1.0623620719       -0.5736205226
 H          0.1525612532        1.3266896699       -0.7693949171
 H         -4.7422074017       -2.2752011709        0.7476436429
 H         -3.1195529628       -2.9149913383        0.9296666388
 H         -3.9560853173        2.8974879894       -1.3174831529
 H         -5.3467838756        1.9260039667       -0.8680317803
 O          1.3702306643        0.0498621923        1.2736147726
 O          3.7140775972       -1.7281206151        0.5816850230
 O          2.0470493532       -2.0016850017       -1.4640652709
 O          4.1647649882        2.3457348028        0.5209062980
 C          3.2811023162       -0.5086857706        0.0390553321
 C          2.7222331553        0.4538267998        1.0894787767
 C          2.0573289012       -0.7340119789       -0.8834110928
 C          0.8481097237       -0.4820141544        0.0599392960
 C          2.8320278825        1.9248015591        0.6465133798
 H          4.1338377423       -0.0869346062       -0.4950507060
 H          3.2201369293        0.3258882981        2.0563432066
 H          2.0371465658        0.0024138482       -1.6930823171
 H          0.3173243863       -1.4113394905        0.2923208284
 H          2.2744722234        2.5460551314        1.3575252842
 H          2.3877916390        2.0455975871       -0.3438496211
 H          3.0891533622       -2.0170988031        1.2644732537
 H          2.6826613478       -2.5589427258       -0.9745173991
 H          4.5826059878        2.3854208864        1.3931521017
  32
        -58.17904712
 N         -2.6632126832       -0.1113074348        0.9677281188
 N         -1.4306225217       -0.4339926961       -1.0273414305
 N         -3.7948535338       -0.5986950069       -1.0627732215
 N         -0.3874839925        0.0789945693        0.9641537655
 N         -4.9456156720       -0.2617784442        0.8851517931
 N         -2.5597967572       -0.9099853304       -2.9630422446
 C         -1.5259777068       -0.1765858058        0.2811761754
 C         -3.7749079949       -0.3241371858        0.2464783763
 C         -2.6024842716       -0.6421663333       -1.6550075300
 H         -0.4709409170        0.1614106245        1.9656590407
 H         -5.7906815554       -0.4274067215        0.3694914113
 H         -4.9525478979       -0.0624902416        1.8686700883
 H         -1.6754808602       -0.9302385817       -3.4380724005
 H         -3.4236076433       -1.0495579882       -3.4549720504
 O          1.8384794810       -0.0934987074        1.4981682951
 O          3.4669034083       -0.4682757390       -1.3154831708
 O          1.0040303679        0.2253771736       -1.9516160957
 O          3.9475243567        1.0298762137        3.1082457717
 C          2.9313701399        0.5626194725       -0.5322359813
 C          3.1254715626        0.2350452877        0.9587810025
 C          1.4003522705        0.6526077353       -0.6854399341
 C          0.9146946621       -0.2620048570        0.4590223811
 C          3.7114655663        1.3920264195        1.7729710397
 H          3.4125880032        1.5145386532       -0.7938674134
 H          3.7772814781       -0.6436648761        1.0462649853
 H          1.0594703242        1.6791918531       -0.4856373977
 H          0.9244804912       -1.3077564554        0.0916105845
 H          3.0248880227        2.2478249875        1.7199621618
 H          4.6794638199        1.6765149854        1.3576672217
 H          2.9352097153       -0.5234980603       -2.1294688464
 H          0.0580170824       -0.0593138047       -1.8572825510
 H          3.1271683427        0.6712014691        3.4765155055
  32
        -58.17883863
 N         -1.1144244933       -0.3833247433       -0.5564433252
 N         -2.3848423148       -0.1312654019        1.4198153093
 N         -3.3204965374        0.4870583393       -0.6713231962
 N         -0.2895881793       -1.0107179911        1.5343600682
 N         -2.0486178077        0.2275696214       -2.5548029896
 N         -4.5179575213        0.6884352082        1.2681505510
 C         -1.2783780685       -0.4700873838        0.7582901942
 C         -2.1684683194        0.1105155932       -1.2277237289
 C         -3.3823334875        0.3386713270        0.6561898776
 H         -0.4985419871       -0.8825923088        2.5158172632
 H         -2.8214384011        0.5918593274       -3.0814989628
 H         -1.1929495494       -0.0531356269       -2.9978533329
 H         -4.5818586138        0.5957257966        2.2651609697
 H         -5.2703560324        1.0612056459        0.7184933232
 O          1.5902070889        0.3756766352        1.2181961926
 O          2.8013309603       -0.6416280485       -2.0082504700
 O          2.5831344693       -2.4374272306       -0.0641947080
 O          2.9297938574        2.9373527011        0.5992801513
 C          1.8893143953       -0.3570559322       -0.9980889869
 C          2.4098470362        0.6095167085        0.0809548607
 C          1.4720336994       -1.5812399393       -0.1573594600
 C          1.1079606323       -0.9667805028        1.2123552643
 C          2.3145040850        2.0771506183       -0.3254429602
 H          0.9969237574        0.0749438432       -1.4589084501
 H          3.4541406178        0.3631356714        0.3273645380
 H          0.6050741561       -2.0805881128       -0.5915296855
 H          1.6315393235       -1.5190116649        2.0054686236
 H          1.2546037967        2.3360470357       -0.4532989588
 H          2.8375095369        2.2152180213       -1.2736778956
 H          3.4075379774       -1.3291323295       -1.6814578435
 H          2.3021375404       -3.3282734012        0.1838685976
 H          2.5286656665        2.7910427396        1.4680819970
  32
        -58.17873723
 N         -2.1031677287        1.1497955786       -0.1788531360
 N         -1.7429389679       -1.1908088746       -0.1227877704
 N         -3.9564647995       -0.3336023923       -0.1297810840
 N          0.0173050442        0.2999931308       -0.2351652296
 N         -4.2558465654        1.9323936028       -0.2166899201
 N         -3.5569672135       -2.5851060549       -0.0337306244
 C         -1.3179464487        0.0727133563       -0.1561380729
 C         -3.4175263745        0.8896131372       -0.1704435626
 C         -3.0756084799       -1.3363368484       -0.1033657816
 H          0.3026737854        1.2611855607       -0.0678554896
 H         -5.2429014841        1.7604847692       -0.1606581937
 H         -3.8750552211        2.8602808610       -0.1990484629
 H         -2.9148574148       -3.3529972139       -0.1051642711
 H         -4.5488159319       -2.7204863610       -0.1059346400
 O          1.6681918716       -0.4467065062        1.2898378037
 O          4.4113483303       -0.0331345315       -0.7852341353
 O          2.7199235994       -2.0763009701       -0.9489924661
 O          1.6539120629        2.5721889117        0.6506369782
 C          3.0786106286        0.2787368596       -0.5047776623
 C          2.7877062561        0.4007587558        1.0135479398
 C          2.0913350060       -0.8221927474       -0.9635924234
 C          0.9766124149       -0.7180920516        0.0891451397
 C          2.5313452956        1.8445605530        1.4859878542
 H          2.8431379637        1.2178645719       -1.0128522697
 H          3.6292211080        0.0067367955        1.5938256277
 H          1.7231397178       -0.6631602080       -1.9767997738
 H          0.4240992624       -1.6539059053        0.2133515824
 H          3.4921161817        2.3531764008        1.5852445209
 H          2.0527889056        1.7863669269        2.4676847258
 H          4.4610904515       -0.9872085505       -0.9827329939
 H          2.7745912507       -2.3953310479       -0.0349205114
 H          2.1572875259        3.1135999989        0.0286262550
  32
        -58.17868485
 N         -2.4278854591       -1.3428251684        0.4042586083
 N         -0.8910699223        0.4066078195       -0.0188561323
 N         -3.1831001349        0.6878054917       -0.5646511543
 N         -0.2284493832       -1.6230647699        0.8927868964
 N         -4.6367398424       -1.0170491128       -0.1024838765
 N         -1.6558742459        2.3394128021       -0.9916437773
 C         -1.2008964583       -0.8187714786        0.4019343315
 C         -3.3863800983       -0.5446533487       -0.0854294222
 C         -1.9239211704        1.1203252830       -0.5034666638
 H         -0.5491613089       -2.5273463382        1.1976352031
 H         -5.3693257519       -0.4367540198       -0.4681341772
 H         -4.8138923050       -1.9366018254        0.2578004848
 H         -0.7582804282        2.7487986460       -0.7875183048
 H         -2.4368463081        2.9258392564       -1.2282800938
 O          1.5365144657       -0.2120383745        1.4832866847
 O          3.3702513753        0.2376801104       -1.5398521946
 O          2.7196969579       -2.1937970772       -0.8775883479
 O          0.9489223736        2.4603706934        0.5965499345
 C          2.2153357477        0.1966044638       -0.7473224946
 C          2.4608809378        0.5631432646        0.7302617755
 C          1.7045382743       -1.2543321951       -0.6621696758
 C          1.1821250572       -1.3905958769        0.7907004282
 C          2.2050996145        2.0343663436        1.0606069856
 H          1.4168438673        0.8283948922       -1.1492859141
 H          3.4886968031        0.2843385304        1.0067596213
 H          0.8828977927       -1.4259052014       -1.3716155797
 H          1.6867661954       -2.2510802978        1.2513330007
 H          2.9560122296        2.6706869567        0.5882354350
 H          2.2674637096        2.1513865133        2.1505342128
 H          3.5566369235        1.1463882644       -1.8097362622
 H          3.3912580918       -1.7805066660       -1.4487260461
 H          0.3264797620        1.7136753591        0.7199678938
  32
        -58.17864775
 N         -2.4615477221       -1.3010552306        0.4711534966
 N         -0.8816640281        0.3412672691       -0.1668392202
 N         -3.1953729961        0.7280626383       -0.5186555470
 N         -0.2400791678       -1.7081650179        0.7173706183
 N         -4.6861078194       -0.8830040182        0.1256491239
 N         -1.6292446860        2.2887858883       -1.1202653609
 C         -1.2158609752       -0.8456631760        0.3319495197
 C         -3.4174661656       -0.4751826386        0.0223639811
 C         -1.9160101426        1.0972180485       -0.5791380887
 H         -0.5742736972       -2.4769987145        1.2763503003
 H         -5.4168589969       -0.2828043044       -0.2102975439
 H         -4.8774114170       -1.7822986010        0.5272807923
 H         -0.7013170188        2.6582929220       -0.9882271086
 H         -2.3959821351        2.9116828256       -1.3050047655
 O          1.4422093121       -0.2357884302        1.4540528816
 O          3.4989510329        0.3556647579       -1.4128010398
 O          2.8207706180       -2.1148759276       -0.9340179504
 O          0.9080137087        2.4310224438        0.6059222895
 C          2.3034652713        0.2121359082       -0.7109632594
 C          2.4265320631        0.5462420431        0.7904394830
 C          1.7530523770       -1.2312266465       -0.7065228447
 C          1.1621085875       -1.4126578965        0.7187677052
 C          2.1573880720        2.0170274019        1.1014725299
 H          1.5705586166        0.8850534198       -1.1647314368
 H          3.4275066648        0.2665673671        1.1498581713
 H          0.9642326200       -1.3482648318       -1.4528062403
 H          1.6720753242       -2.2603309838        1.1989660442
 H          2.9198255198        2.6374204979        0.6254427640
 H          2.1947050995        2.1570272478        2.1902034883
 H          3.9817075749       -0.4881516550       -1.3599130458
 H          2.5038505385       -2.9435295142       -1.3161523363
 H          0.3037437714        1.6649055918        0.6742772209
  32
        -58.17861774
 N         -2.5247776421       -0.2956630224       -1.1953587689
 N         -1.7323053852       -0.3134082022        1.0363185790
 N         -4.0661035345       -0.2092458732        0.6073923109
 N         -0.2919753833       -0.4619375391       -0.7702475015
 N         -4.7818437114       -0.1889130909       -1.5663210543
 N         -3.2525081498       -0.2039142576        2.7449165297
 C         -1.5546048242       -0.3349253804       -0.2818186253
 C         -3.7675008991       -0.2361952785       -0.6950416036
 C         -3.0141164500       -0.2459390154        1.4288044413
 H         -0.2139201709       -0.3307599430       -1.7679968886
 H         -5.7218740891       -0.1774671690       -1.2156327476
 H         -4.5800577442       -0.2434324113       -2.5475360506
 H         -2.4800881638       -0.2722155849        3.3814076918
 H         -4.2040363912       -0.1931627657        3.0633660616
 O          1.3290298564        1.1002888091       -0.1462023789
 O          4.1874594065       -0.6720020235        0.7785713141
 O          2.1551661953       -2.2941241595        0.4216205669
 O          3.3670022703        2.3554490523       -1.7246202005
 C          3.2996017291       -0.2065660946       -0.2005138213
 C          2.6837329529        1.1258609404        0.2681426613
 C          2.0658795691       -1.1445027003       -0.3628152608
 C          0.8657300278       -0.2363620075        0.0200841951
 C          3.3727518947        2.3588048926       -0.3201670863
 H          3.8010532869       -0.0530930666       -1.1614533354
 H          2.7441933390        1.1625415270        1.3662781843
 H          1.9491701658       -1.4786288185       -1.3971074648
 H          0.5824827583       -0.4099590965        1.0676127073
 H          4.4200796124        2.3583469631       -0.0136980245
 H          2.8799062845        3.2559898891        0.0710849559
 H          4.7878140902       -1.3266643407        0.3931773705
 H          2.6489488428       -2.0729483250        1.2319574109
 H          2.4471118344        2.3879222122       -2.0234295212
  32
        -58.17857831
 N         -2.2236303834        1.0630715728       -0.3271980978
 N         -1.6527240061       -1.1958839388        0.1033599697
 N         -3.9312834025       -0.5265306796        0.1127110846
 N         -0.0460935134        0.3877769035       -0.3999360060
 N         -4.4313324277        1.6681685564       -0.3008861134
 N         -3.3282538253       -2.6886345586        0.5572821715
 C         -1.3441783384        0.0695545930       -0.1814216023
 C         -3.5057670225        0.7091626920       -0.1706808572
 C         -2.9633951170       -1.4375432968        0.2427877147
 H          0.1562587321        1.3780240839       -0.4768719568
 H         -5.3997949653        1.4241247427       -0.2065458047
 H         -4.1352087437        2.5975385493       -0.5345775110
 H         -2.6259568186       -3.4051437510        0.5687160385
 H         -4.3067382551       -2.9107493082        0.5785841534
 O          1.5545284494       -0.0992387522        1.2694252760
 O          4.1733392256       -1.0967721889        0.2318781849
 O          2.4488189985       -1.5476753973       -1.7123534522
 O          1.9092245976        2.5819244919       -0.2678197090
 C          3.4228575759        0.0384856511       -0.1146281632
 C          2.7393288894        0.6754517737        1.1013141016
 C          2.2212363486       -0.3632994903       -1.0096595005
 C          1.0386571360       -0.4585320637       -0.0047519568
 C          2.4593050528        2.1862223680        0.9687215829
 H          4.1171039154        0.7075498892       -0.6234553946
 H          3.3252443150        0.5297017651        2.0136073065
 H          1.9895246915        0.4177336760       -1.7394272571
 H          0.6383640169       -1.4737964260        0.0678545336
 H          3.3842689314        2.7305184826        1.1767883132
 H          1.7180791762        2.4453323662        1.7297662978
 H          3.6913926398       -1.6095825066        0.8990370768
 H          3.2295465997       -1.9834220045       -1.3188289718
 H          2.6135663347        2.7594635347       -0.9048418709
  32
        -58.17852251
 N         -1.9066525966       -0.9190551782        0.0326172254
 N         -1.9203618648        1.4026202376       -0.4402907267
 N         -3.9710474567        0.2281354983       -0.2146924140
 N          0.0539899348        0.2686766962       -0.2432191418
 N         -3.9073298636       -2.0183974605        0.2141539655
 N         -3.9323602623        2.4648056001       -0.6980071159
 C         -1.3005992226        0.2479544881       -0.1944972684
 C         -3.2465038815       -0.8698230365        0.0125020212
 C         -3.2582379450        1.3366239836       -0.4419344179
 H          0.4753310694        1.1936725365       -0.2433076792
 H         -4.9076723332       -1.9874898775        0.2891636675
 H         -3.3861474989       -2.8347967785        0.4760035048
 H         -3.4173984072        3.3184231115       -0.8111411409
 H         -4.9342742174        2.4517087511       -0.6438981721
 O          1.5918385438       -0.3380772331        1.4399373063
 O          4.3391929014       -0.9179086980       -0.6170852023
 O          2.3445203675       -2.5965828628       -0.3699031189
 O          2.0872248579        2.3776732664        0.1636899922
 C          3.0864490138       -0.3330229677       -0.4351933636
 C          2.8486201697        0.1824607144        1.0082628050
 C          1.9047198137       -1.2991199622       -0.6742977564
 C          0.8535398991       -0.7834572173        0.3292464367
 C          2.8837215387        1.7179496756        1.1275871253
 H          3.0233987518        0.4953185873       -1.1452387754
 H          3.6075213328       -0.2269880953        1.6840286721
 H          1.5276544129       -1.2346038441       -1.6999219595
 H          0.1716452795       -1.5678715376        0.6691163516
 H          3.9229214865        2.0478655354        1.0744199764
 H          2.4715073865        1.9803520625        2.1058326716
 H          4.2787829823       -1.8498104797       -0.3469581212
 H          1.6556251296       -3.2406183835       -0.5810024987
 H          2.6324214156        2.6612193967       -0.5816836513
  32
        -58.17852657
 N         -1.8304395097       -0.8893752669        0.1245043491
 N         -2.0039930044        1.3744523305       -0.5522706355
 N         -3.9673886632        0.1265857335       -0.0789576988
 N          0.0352770004        0.3611091047       -0.4197618938
 N         -3.7454732970       -2.0469123200        0.6043289173
 N         -4.0812081960        2.3229645410       -0.7150855871
 C         -1.3059240803        0.2756259143       -0.2566184509
 C         -3.1681602484       -0.9067380190        0.1997453515
 C         -3.3325174990        1.2444066979       -0.4469141842
 H          0.4029914763        1.2931152063       -0.5729118362
 H         -4.7467594039       -2.1109764159        0.5853557506
 H         -3.1682453110       -2.8578143903        0.7308670791
 H         -3.6270938325        3.1458343196       -1.0663848947
 H         -5.0800273349        2.2270551517       -0.7185260982
 O          1.4695414528       -0.2244318047        1.3655792151
 O          3.9082438259       -1.7475182999        0.5532779441
 O          2.2076951590       -2.0715006554       -1.4366364991
 O          2.3269218567        2.2039417766       -0.3631464623
 C          3.3825075035       -0.5369191732        0.0734217325
 C          2.7775630092        0.3162594924        1.1947159231
 C          2.1629861683       -0.8078207263       -0.8456022509
 C          0.9464465144       -0.6112906545        0.1025891788
 C          2.7729300955        1.8339877432        0.9224896622
 H          4.2014942598       -0.0467486586       -0.4531451501
 H          3.2957504986        0.1547857678        2.1448819460
 H          2.0963183560       -0.0673159957       -1.6477756765
 H          0.3776162259       -1.5352022325        0.2416459157
 H          3.7757503549        2.2239054187        1.1157697852
 H          2.0741925246        2.2874284721        1.6309372048
 H          3.3196050346       -2.1033030737        1.2366206099
 H          2.8828547760       -2.5979011517       -0.9660943655
 H          3.0668009921        2.2098233617       -0.9842050344
  32
        -58.17851078
 N         -2.5113035929       -0.2708362363        1.0441761690
 N         -1.3209190915       -0.3995144820       -1.0013454319
 N         -3.6893073742       -0.2737582756       -1.0182496991
 N         -0.2323940725       -0.3820879731        1.0286226248
 N         -4.7940633463       -0.1268547486        0.9798018027
 N         -2.4994367839       -0.4075507863       -2.9663864093
 C         -1.3859258913       -0.3567301462        0.3357801052
 C         -3.6370152361       -0.2255764377        0.3180685615
 C         -2.5081626877       -0.3593532418       -1.6298162592
 H         -0.2829886233       -0.3943481900        2.0343271666
 H         -5.6520557987       -0.1048443034        0.4597644631
 H         -4.7776104673       -0.0987158242        1.9825939234
 H         -1.6254969458       -0.4598948670       -3.4572518709
 H         -3.3748671251       -0.3668709235       -3.4554239209
 O          2.0071591997       -0.7790900420        1.4362157150
 O          3.6520337744       -0.4980675146       -1.1915315130
 O          1.1712113107        0.2371878998       -1.8564815373
 O          2.4056649052        2.1348939549        1.8321789013
 C          3.0429638641        0.4298167415       -0.3339525193
 C          3.1850125152       -0.0303708833        1.1225085117
 C          1.5198001543        0.4655574961       -0.5237234387
 C          1.0457296118       -0.6569972795        0.4252358685
 C          3.3617833392        1.1331127291        2.1023584357
 H          3.4854176349        1.4231954443       -0.4796365420
 H          4.0381903936       -0.7106457942        1.2142613044
 H          1.1271467557        1.4250507988       -0.1601960783
 H          0.9849258748       -1.6011057398       -0.1491632924
 H          4.3785427284        1.5279242395        1.9861601612
 H          3.2354685119        0.7363148663        3.1158800003
 H          3.1579203905       -0.4858213655       -2.0291351270
 H          0.2141704412       -0.0092725042       -1.8348584600
 H          2.4858395666        2.8345040889        2.4962980912
  32
        -58.17850697
 N         -1.9141707651       -0.9288640152        0.1436897846
 N         -2.2655115194        1.2411185595       -0.7382461805
 N         -4.1245258061       -0.1019385345       -0.1260603242
 N         -0.1531903216        0.4093419973       -0.5362755550
 N         -3.7324495917       -2.1827905194        0.7414277656
 N         -4.4115311469        2.0070682192       -0.9676151543
 C         -1.4862191054        0.2303844309       -0.3492456754
 C         -3.2477443625       -1.0417542743        0.2371563480
 C         -3.5812052956        1.0208818175       -0.6058615397
 H          0.1070874173        1.3526323052       -0.7850919771
 H         -4.7267805139       -2.3123256825        0.7769356529
 H         -3.0915598865       -2.9193238148        0.9721505658
 H         -4.0261194017        2.8321945324       -1.3886307036
 H         -5.4007071433        1.8422161814       -0.9315157226
 O          1.3613591976        0.1829741089        1.2518159311
 O          3.6021949021       -1.7705395079        0.5640894082
 O          1.9833015529       -1.9406321628       -1.4934326035
 O          4.3453423609        2.2581199314        0.6375360973
 C          3.2697225587       -0.5103359429        0.0373961634
 C          2.7465151823        0.4650349198        1.1019419278
 C          2.0347530121       -0.6968251893       -0.8724000315
 C          0.8383856158       -0.4207065161        0.0777138085
 C          2.9804077229        1.9318430925        0.6918201243
 H          4.1104314254       -0.0741899364       -0.5112229359
 H          3.2033090236        0.2734351355        2.0788773010
 H          2.0307507862        0.0500894748       -1.6716575831
 H          0.3298831304       -1.3494964145        0.3583396484
 H          2.4336471993        2.5801740712        1.3853819169
 H          2.5907765273        2.0944873476       -0.3157755961
 H          4.4894392247       -1.7504629391        0.9467722424
 H          2.3400789544       -2.6008353483       -0.8734742762
 H          4.7061275552        2.3125314171        1.5342158961
  32
        -58.17846422
 N         -1.9296480245       -0.9344400777        0.1344824670
 N         -2.1801408279        1.2550111322       -0.7321574674
 N         -4.0970297869        0.0106481573       -0.0897916996
 N         -0.1114653685        0.3093410222       -0.5770860272
 N         -3.8009302585       -2.0930329462        0.7601675151
 N         -4.2881849811        2.1266643726       -0.9392033720
 C         -1.4507996985        0.2020951918       -0.3615698837
 C         -3.2658135737       -0.9760603628        0.2550922167
 C         -3.5043011543        1.1034171730       -0.5802599347
 H          0.1877298947        1.2450877144       -0.8114245253
 H         -4.7984367094       -2.1573587077        0.8472818480
 H         -3.1935662646       -2.8518945166        1.0087287805
 H         -3.8672720864        2.9442464964       -1.3399663274
 H         -5.2830793251        2.0273006574       -0.8558795242
 O          1.3430999432       -0.0523189519        1.2563308895
 O          4.0206257867       -1.5175451809        0.4094052663
 O          2.0568300281       -2.2196302107       -1.1957363833
 O          3.9919699456        2.4308039972        0.5986638034
 C          3.2849612753       -0.4213467283       -0.0537210446
 C          2.6687397452        0.4256671147        1.0747376747
 C          2.0439390836       -0.8555865245       -0.8836336746
 C          0.8371512921       -0.5712758139        0.0386144001
 C          2.6889984010        1.9274668168        0.7337162744
 H          3.9857192467        0.1810448373       -0.6366815207
 H          3.1949095176        0.2538533914        2.0197697318
 H          1.9532398362       -0.2466640368       -1.7918404425
 H          0.2934154695       -1.4945931606        0.2640592892
 H          2.1219857285        2.4693741532        1.5004166755
 H          2.2089295418        2.0899768889       -0.2342192106
 H          3.4130118151       -2.1800190599        0.7732396978
 H          2.8245143844       -2.4174817056       -1.7539438110
 H          4.4494067301        2.3927698824        1.4507921594
  32
        -58.17844579
 N         -1.9141368918       -0.9483572399        0.0970143080
 N         -2.2673981685        1.2382560820       -0.7369355148
 N         -4.1161300419       -0.0684608087       -0.0239782663
 N         -0.1607168805        0.3547183812       -0.6701653999
 N         -3.7238410396       -2.1820956257        0.7613344076
 N         -4.4087561758        2.0413098385       -0.8601337874
 C         -1.4916011160        0.2094668501       -0.4006897820
 C         -3.2426892218       -1.0336730702        0.2720939939
 C         -3.5794183931        1.0450495291       -0.5315800485
 H          0.0930789382        1.3088329859       -0.8896557475
 H         -4.7049176452       -2.2469395467        0.9627789435
 H         -3.0764349547       -2.8909878148        1.0537330838
 H         -4.0235927873        2.8951394302       -1.2196298239
 H         -5.3913000054        1.9309785244       -0.6884685937
 O          1.3156118611        0.2658553072        1.1637760480
 O          3.6225556749       -1.7048003349        0.7155144472
 O          2.0767440521       -2.0308609776       -1.3874684206
 O          4.3841953200        2.2169620932        0.5683624360
 C          3.2553611056       -0.5227890341        0.0572558986
 C          2.7167139712        0.4920154352        1.0706238614
 C          2.0510430920       -0.7282429563       -0.8821729112
 C          0.8309337937       -0.4215376874        0.0189084245
 C          3.0104911239        1.9441784121        0.6530550242
 H          4.1197468881       -0.1110416461       -0.4817379486
 H          3.1388067196        0.2881314762        2.0603368201
 H          2.0878311963        0.0103517580       -1.6935651355
 H          0.3373535592       -1.3438997342        0.3478439276
 H          2.5073321137        2.6166965818        1.3582443051
 H          2.6085826139        2.1258174025       -0.3465882109
 H          3.4762133167       -2.4451312810        0.1032670662
 H          1.3388621442       -2.1675734665       -1.9961103579
 H          4.7883320421        2.1353750983        1.4441210689
  32
        -58.17846030
 N         -2.3877579128        0.7737252711       -0.7279182183
 N         -1.7421055442       -1.1724380048        0.4566684347
 N         -4.0362155269       -0.5729788853        0.3221628884
 N         -0.1947501346        0.1534573547       -0.6426839024
 N         -4.6120512093        1.3111419609       -0.8400319550
 N         -3.3617172338       -2.4353327565        1.4664815317
 C         -1.4815355033       -0.0902020737       -0.2696383350
 C         -3.6566432971        0.4817659088       -0.4050663421
 C         -3.0421170057       -1.3664065328        0.7288961888
 H         -0.0627052409        1.0648116046       -1.0579675036
 H         -5.5673595285        1.1161440320       -0.6027848334
 H         -4.3503073585        2.1117489923       -1.3847545481
 H         -2.6304116486       -3.0496151073        1.7734431187
 H         -4.3273068990       -2.6083460876        1.6774054811
 O          1.3978210518        0.3594523670        1.0973079395
 O          4.2164160341       -0.8290119847        0.3161938122
 O          2.3164378479       -2.0787564646       -1.0209674488
 O          3.5701072954        3.0488673013       -0.1925252936
 C          3.3029598679        0.0490916186       -0.2772166874
 C          2.6164944720        0.9903877865        0.7291216104
 C          2.1048660542       -0.6988719638       -0.9272140997
 C          0.9201720706       -0.4443668864        0.0315053982
 C          2.3746390686        2.3880597908        0.1291093201
 H          3.8774147311        0.6276145795       -1.0045172360
 H          3.2114239898        1.0794376143        1.6443436119
 H          1.8697993741       -0.2702592896       -1.9094679400
 H          0.5524186625       -1.3846524629        0.4552838811
 H          1.7653294832        2.9707137318        0.8308594725
 H          1.8275626906        2.2944326770       -0.8120823217
 H          3.7342585451       -1.4908215245        0.8356157654
 H          3.0636135232       -2.2547039367       -1.6132412666
 H          4.0688867856        3.2370504693        0.6153235047
  32
        -58.17839292
 N         -2.3094685842        0.6772863086       -0.8705294207
 N         -1.7970900271       -1.0960765308        0.6128513133
 N         -4.0461404034       -0.3766254440        0.3573092279
 N         -0.1622334240       -0.0643518256       -0.6592229284
 N         -4.4899157161        1.3460171185       -1.0817805133
 N         -3.4998110605       -2.0848668722        1.7782891568
 C         -1.4635411684       -0.1603423113       -0.2704452570
 C         -3.5952927142        0.5250962045       -0.5196925800
 C         -3.1080404622       -1.1613590198        0.8936958153
 H          0.0303125218        0.7483515411       -1.2268527406
 H         -5.4608358228        1.2320417580       -0.8556635019
 H         -4.1764241496        2.0114114459       -1.7640245720
 H         -2.8092504425       -2.6837974688        2.1915852796
 H         -4.4744863403       -2.1581658161        2.0050528245
 O          1.4076731990        0.3022459357        1.0838584981
 O          4.3664902356       -0.5256470103        0.0544257915
 O          2.5577603090       -2.3223867811       -0.4987713033
 O          3.3605529299        3.0391891571       -0.4262657432
 C          3.1988146822        0.0460198796       -0.4739285910
 C          2.5658934798        0.9585025331        0.5904885574
 C          2.1074035958       -1.0277880461       -0.7650583037
 C          0.9101203361       -0.6109968149        0.1232434866
 C          2.2266584519        2.3539609392        0.0361417798
 H          3.4298926307        0.6313457641       -1.3715537327
 H          3.2551981362        1.0561325541        1.4372228457
 H          1.8049462941       -1.0260794206       -1.8138946509
 H          0.4868808713       -1.4600348866        0.6681725499
 H          1.6988542915        2.9187856537        0.8139438873
 H          1.5651318539        2.2585438453       -0.8283100223
 H          4.8098706410       -1.0471453693       -0.6312981518
 H          2.9983886397       -2.3303532702        0.3672696627
 H          3.9522044549        3.2322969555        0.3150733833
  32
        -58.17838033
 N         -1.1259896157       -0.3008057503       -0.5323131465
 N         -2.4519948821       -0.4046429378        1.4198135767
 N         -3.3343245034        0.5711187548       -0.5551720278
 N         -0.3515773460       -1.2853925176        1.4360981156
 N         -2.0057531356        0.6567317962       -2.4158820635
 N         -4.5883856810        0.4175061555        1.3530730106
 C         -1.3247078126       -0.6167218097        0.7421542427
 C         -2.1650954416        0.3002583376       -1.1360245474
 C         -3.4312513917        0.1915180461        0.7233320886
 H         -0.5870239372       -1.3316659163        2.4190314668
 H         -2.7817844735        1.0644679129       -2.9046960084
 H         -1.1545248289        0.4144013085       -2.8892894946
 H         -4.6655405206        0.1794717320        2.3248905103
 H         -5.3188086772        0.9040382596        0.8660136943
 O          1.4916205329        0.1837361365        1.4503741487
 O          2.8420846847       -0.1746135949       -1.8596535394
 O          2.5987530075       -2.3263783955       -0.3129590738
 O          3.2740300357        2.6259531626       -0.6018696003
 C          1.8914730669       -0.1158657996       -0.8429539897
 C          2.3619320195        0.6232983933        0.4245014131
 C          1.4733858889       -1.4852613449       -0.2749390659
 C          1.0520684773       -1.1498130280        1.1743237441
 C          2.2988149294        2.1438639772        0.2853068638
 H          1.0006069931        0.3835259408       -1.2358898290
 H          3.3965734509        0.3241733604        0.6584147931
 H          0.6305326303       -1.9032367114       -0.8270730683
 H          1.5711024853       -1.8293787376        1.8650367993
 H          2.4978641678        2.6083833494        1.2533692751
 H          1.2884352842        2.4306669767       -0.0397019374
 H          3.4360272854       -0.9221634677       -1.6744764305
 H          2.3313728165       -3.2511914095       -0.2282090192
 H          3.2214424166        2.1249781101       -1.4313839551
  32
        -58.17837216
 N         -2.0185951061       -0.9582372746        0.1367789224
 N         -2.0487969582        1.2161764129       -0.8010844725
 N         -4.0774470204        0.2000795410       -0.1056529238
 N         -0.0857360947        0.0635787080       -0.6158187179
 N         -4.0021233197       -1.9095389957        0.7744205850
 N         -4.0572509380        2.2948153340       -1.0251924012
 C         -1.4298921765        0.1089048031       -0.3953531280
 C         -3.3519083104       -0.8588192756        0.2612679804
 C         -3.3804335688        1.2096802464       -0.6346866022
 H          0.3082883907        0.9469186190       -0.9063966206
 H         -4.9906169932       -1.8335446178        0.9306821371
 H         -3.4705669505       -2.6860641821        1.1224666550
 H         -3.5519627106        3.0691496654       -1.4146356864
 H         -5.0524848854        2.3168012640       -0.8983329719
 O          1.3133117966       -0.2773263819        1.2780652117
 O          4.3451417516       -0.7201322447       -0.3886580197
 O          2.4732385891       -2.5220627552       -0.4028632403
 O          3.6926370284        2.4593527693        0.6611749656
 C          3.0471213795       -0.2099721316       -0.3822458925
 C          2.5909800754        0.2910852203        1.0124471540
 C          1.9759052861       -1.2598499835       -0.7600889260
 C          0.7697637858       -0.8415238095        0.1000356068
 C          2.5177030532        1.8263323950        1.0935535844
 H          3.0385512632        0.6254959906       -1.0891105017
 H          3.2795153323       -0.0857199625        1.7787624411
 H          1.7264293935       -1.2165485237       -1.8246822381
 H          0.1437581433       -1.6822061170        0.4105223835
 H          2.2617654564        2.1124537859        2.1217381502
 H          1.7236835157        2.1870230361        0.4345488981
 H          4.2989972688       -1.6611011018       -0.1447953721
 H          1.8864878093       -3.2181868571       -0.7272138077
 H          4.4361828446        2.1839763502        1.2159432681
  32
        -58.17832126
 N         -2.3068588240        0.5298250765       -1.0068472889
 N         -1.6456698545       -0.9113405186        0.7541751624
 N         -3.9482022912       -0.4522401716        0.3983553207
 N         -0.1066642212        0.0328591438       -0.6902090704
 N         -4.5370397578        0.9582055362       -1.3044001800
 N         -3.2592992183       -1.8186512434        2.0998456920
 C         -1.3927743229       -0.1175545467       -0.2830265519
 C         -3.5751345954        0.3269310944       -0.6214906223
 C         -2.9469039601       -1.0444320087        1.0536415636
 H          0.0261870132        0.7216432990       -1.4158378010
 H         -5.4947437158        0.8032092010       -1.0482797796
 H         -4.2817229128        1.5282138500       -2.0894260174
 H         -2.5265510857       -2.3260241074        2.5606057468
 H         -4.2274612783       -1.9873264733        2.3031170194
 O          1.5664043030        0.7178356921        0.8312695322
 O          4.0255941994       -1.0417227085        0.7706189449
 O          2.2484483835       -2.3449223800       -0.7138036070
 O          2.2807935289        3.3694754492       -0.1625725546
 C          3.4244594349       -0.2513072270       -0.2201528929
 C          2.8575719978        1.0601881066        0.3260359667
 C          2.1614723059       -0.9553910896       -0.7744627550
 C          1.0164689422       -0.3708790118        0.0960435990
 C          2.7670983892        2.1764463995       -0.7237092942
 H          4.1820240717       -0.1006243685       -0.9897407516
 H          3.4348511127        1.4315415314        1.1789074381
 H          1.9901657517       -0.6796704084       -1.8200933379
 H          0.6324327951       -1.1080305668        0.8093206946
 H          2.1263525081        1.8537234990       -1.5555222371
 H          3.7623742105        2.4045043958       -1.1085768826
 H          3.5055602299       -0.9914710410        1.5873469530
 H          2.9628311638       -2.5729863985       -0.0880854737
 H          1.4785778126        3.1690783905        0.3423021329
  32
        -58.17829082
 N         -2.5003406499       -1.2050995211        0.7473560739
 N         -1.0517517462       -0.0296744801       -0.7016710713
 N         -3.3387964457        0.5918527433       -0.5563480391
 N         -0.3207562446       -1.8399062028        0.5762411140
 N         -4.7087895814       -0.6048404437        0.8321675286
 N         -1.8904662919        1.7083648312       -1.9315776601
 C         -1.3082610503       -0.9690988221        0.2011920079
 C         -3.4875582489       -0.3988882040        0.3293695712
 C         -2.1045972138        0.7330457910       -1.0409357142
 H         -0.6176676899       -2.3930068877        1.3695980199
 H         -5.4527524150        0.0145101918        0.5673377500
 H         -4.8340435770       -1.3198662353        1.5249463426
 H         -0.9804421581        1.8038261741       -2.3438147384
 H         -2.6670520894        2.2669582069       -2.2350887715
 O          1.3643088675       -0.4763137271        1.5038641719
 O          2.9696214501        0.9197478229       -1.3921419251
 O          2.8191910409       -1.7238835829       -1.1403492395
 O          3.0630706813        2.7358398261        1.1137794057
 C          1.9505106926        0.4209892907       -0.5835536155
 C          2.2634316935        0.4508695648        0.9250299645
 C          1.6219472374       -1.0669089553       -0.8087654357
 C          1.0764110705       -1.5178755680        0.5662663172
 C          2.0768746397        1.8347432898        1.5454359899
 H          1.0463826353        1.0082853584       -0.7704635458
 H          3.3010351057        0.1174788422        1.0889241255
 H          0.8590203940       -1.1938083569       -1.5781498884
 H          1.6137091261       -2.4222367822        0.8854809650
 H          2.1692795131        1.7647970160        2.6312891935
 H          1.0690968836        2.2008163740        1.3027068469
 H          3.6128893742        0.2056193191       -1.5413168657
 H          2.6320672264       -2.5812569570       -1.5449600159
 H          3.1145048332        2.7076761842        0.1450158632
  32
        -58.17825565
 N         -2.1896162340        0.2004776793       -1.1900241678
 N         -1.7656998066       -0.6518752073        0.9789285623
 N         -3.9801756709       -0.0763968241        0.3430779413
 N         -0.0780811667       -0.4118367415       -0.5841031355
 N         -4.3407557025        0.7358788578       -1.7655219422
 N         -3.5178400779       -0.8846255334        2.4330908049
 C         -1.3862210856       -0.2708216514       -0.2367471571
 C         -3.4847806600        0.2739471894       -0.8474472983
 C         -3.0808663674       -0.5303044429        1.2196074366
 H          0.1606555698        0.0121486415       -1.4687035404
 H         -5.3145502508        0.7996141539       -1.5322633431
 H         -3.9906857566        1.0007120923       -2.6675897359
 H         -2.8645609719       -1.2676475429        3.0913450646
 H         -4.5020477483       -0.8423537770        2.6242747388
 O          1.5549422139        0.6228614205        0.7927994747
 O          4.4460116592       -0.7058838600       -0.4136600854
 O          2.6842044067       -2.3011221708        0.7774047974
 O          2.2190425353        3.2630330542       -0.2182408333
 C          3.1138642997       -0.4007654267       -0.7131599506
 C          2.7236699277        0.8958751538        0.0199168398
 C          2.1095188119       -1.4589970672       -0.1766728498
 C          0.9626029669       -0.5957654465        0.3867322613
 C          2.4777431167        2.0774270296       -0.9256890953
 H          2.9788735261       -0.2742742018       -1.7965221498
 H          3.5185675017        1.1733403506        0.7226410022
 H          1.7378745504       -2.1149358281       -0.9657050465
 H          0.4915968215       -1.0426426616        1.2665825932
 H          1.6388512437        1.8441672391       -1.5972571336
 H          3.3742284490        2.2630411465       -1.5201432356
 H          4.6714013668       -1.5787228167       -0.7694465438
 H          3.1142905921       -1.7703855845        1.4649992884
 H          1.5263418522        3.0835790504        0.4345106327
  32
        -58.17825110
 N         -2.5064021195       -0.2458939476       -1.2066991185
 N         -1.7377358367       -0.3661882535        1.0292470212
 N         -4.0646977151       -0.2046991318        0.5832198814
 N         -0.2798025343       -0.4698788208       -0.7671278092
 N         -4.7588682234       -0.0994154680       -1.5944121336
 N         -3.2717224268       -0.3005894492        2.7269879501
 C         -1.5473552430       -0.3367987416       -0.2859733085
 C         -3.7537495843       -0.1868490733       -0.7163793377
 C         -3.0222826779       -0.2923319980        1.4127011547
 H         -0.1921642624       -0.2764013376       -1.7545846911
 H         -5.7008626618       -0.0599238005       -1.2509803555
 H         -4.5478570462       -0.0919226958       -2.5751514631
 H         -2.5049638281       -0.4041969845        3.3656204516
 H         -4.2252999155       -0.2833948429        3.0390703169
 O          1.3264536604        1.0853534747       -0.0933025036
 O          4.3201881999       -0.7198376445        0.5469264681
 O          2.1482212074       -2.2066296583        0.5973017096
 O          3.2761255055        2.4303833481       -1.6729104094
 C          3.2944373216       -0.2125968373       -0.2505554899
 C          2.6921280788        1.1053168816        0.2899232588
 C          2.0618168616       -1.1612144022       -0.3321793072
 C          0.8677793354       -0.2538448704        0.0431427927
 C          3.3615049498        2.3606474263       -0.2727945460
 H          3.7229625883       -0.0329966893       -1.2405130162
 H          2.7726508455        1.1126713968        1.3874597183
 H          1.9208910815       -1.5427302544       -1.3477697588
 H          0.5778266246       -0.4553235936        1.0840878428
 H          4.4244642613        2.3299350539       -0.0272333269
 H          2.9050934835        3.2441386913        0.1890280302
 H          3.9184505388       -1.1770411689        1.3067448184
 H          2.6824627157       -2.9268908234        0.2312402318
 H          2.3396545009        2.4667079001       -1.9151486323
  32
        -58.17821839
 N         -2.2538086390        0.5220216468       -1.0141292308
 N         -1.8701495990       -0.9976449927        0.7609000131
 N         -4.0771274994       -0.2590789696        0.2890021162
 N         -0.1461383954       -0.2424519214       -0.5833395449
 N         -4.4004130466        1.1952843621       -1.4471458790
 N         -3.6556633412       -1.7212960818        1.9970362832
 C         -1.4675338373       -0.2302899614       -0.2467365705
 C         -3.5588082951        0.4686537830       -0.7042235339
 C         -3.1933742485       -0.9732481443        0.9900500910
 H          0.1033150353        0.4646483267       -1.2595515445
 H         -5.3755583219        1.1990661160       -1.2100214737
 H         -4.0281977510        1.7750841885       -2.1764631566
 H         -3.0084427844       -2.2695764943        2.5328700970
 H         -4.6413676164       -1.7258161096        2.1850609165
 O          1.4247307306        0.3929620937        1.0854418899
 O          4.2780927769       -0.3608434932       -0.8421933816
 O          2.7801578641       -2.1949439682        0.4295254672
 O          3.5692187778        2.9954031183       -0.3540143242
 C          2.9173979952       -0.0718670194       -0.7290232186
 C          2.5836459804        0.9054496816        0.4272873310
 C          2.0576870301       -1.3111858872       -0.3841060353
 C          0.8636679729       -0.6752089855        0.3380366188
 C          2.3617565594        2.3485427303       -0.0463927848
 H          2.5914214720        0.3526987795       -1.6853687759
 H          3.4041869220        0.9185323204        1.1568313803
 H          1.7567179677       -1.8738128444       -1.2678473896
 H          0.3700268135       -1.3488999702        1.0433940619
 H          1.9046504088        2.9192513158        0.7650346782
 H          1.6790358125        2.3625831895       -0.9083552939
 H          4.4491899534       -1.2016652832       -0.3802384035
 H          2.8064658765       -1.8561290872        1.3374141803
 H          4.0676141738        2.4652638693       -0.9933289931
  32
        -58.17823324
 N         -1.8770374791       -0.8699869303        0.1861406568
 N         -2.3686809133        1.0950779938       -1.0362206030
 N         -4.1265648698       -0.1410239016       -0.0281264523
 N         -0.2146515308        0.3483906252       -0.8733859309
 N         -3.5995121046       -2.0418606635        1.1326467230
 N         -4.5530412195        1.7534984628       -1.2381410205
 C         -1.5303713009        0.1899618497       -0.5358341704
 C         -3.1949296872       -0.9877885338        0.4160993900
 C         -3.6633893882        0.8802185250       -0.7547653454
 H         -0.0134799560        1.2640324868       -1.2537682788
 H         -4.5745674182       -2.1340376165        1.3514663191
 H         -2.9094480010       -2.6659693279        1.5084661787
 H         -4.2246603574        2.5350213168       -1.7747965790
 H         -5.5256593793        1.6204535207       -1.0302769094
 O          1.2664526850        0.6677694784        0.9119760715
 O          3.2915583329       -1.7696764224        0.8300790104
 O          2.0629790895       -1.8320241409       -1.5312102317
 O          4.7378819817        1.8416998570        1.1120352317
 C          3.1820518852       -0.5426315196        0.1591377497
 C          2.6681023006        0.5293362647        1.1305303134
 C          2.0841502644       -0.5783935383       -0.9173928216
 C          0.8253323597       -0.2409856057       -0.0931164028
 C          3.3492401145        1.8918237747        0.9211315105
 H          4.1561706359       -0.2541056540       -0.2584801272
 H          2.8261942668        0.1781544204        2.1583453636
 H          2.2575294867        0.2240613220       -1.6476117231
 H          0.4152195911       -1.1482889838        0.3706986885
 H          2.8742734654        2.6220763939        1.5866988111
 H          3.1980398959        2.2153809805       -0.1113140868
 H          3.2257865755       -2.4777199333        0.1685946537
 H          1.3448416669       -1.8719709174       -2.1768053753
 H          4.9340282717        1.6251522043        2.0348164630
  32
        -58.17824061
 N         -2.0339358901       -0.9598982867        0.1525284729
 N         -2.0393740531        1.1721959543       -0.8781029263
 N         -4.0809182347        0.2055210712       -0.1506099265
 N         -0.0890373536        0.0099719534       -0.6396672102
 N         -4.0265429946       -1.8573580202        0.8354531291
 N         -4.0357388297        2.2617300238       -1.1525136398
 C         -1.4343623654        0.0758568441       -0.4252496420
 C         -3.3674321643       -0.8433721552        0.2656826064
 C         -3.3718435861        1.1861940259       -0.7163599763
 H          0.3095943734        0.8819566837       -0.9563841787
 H         -5.0223023878       -1.7902033284        0.9402594078
 H         -3.5088368227       -2.6503883081        1.1663195371
 H         -3.5207646988        3.0159558577       -1.5678393530
 H         -5.0308393673        2.2998954414       -1.0287710379
 O          1.3152286334       -0.2619782621        1.2605383292
 O          4.3003093025       -0.5875628253       -0.5736103614
 O          2.4990298561       -2.5506603298       -0.2525343648
 O          3.8033432945        2.4271606368        1.1082421977
 C          2.9681079172       -0.1841040104       -0.4712377444
 C          2.5788617341        0.3220778663        0.9419579901
 C          1.9641055559       -1.3378099591       -0.7082390286
 C          0.7531573209       -0.8751924820        0.1108305924
 C          2.5238873879        1.8530174901        1.0443484449
 H          2.8066470140        0.6075457038       -1.2117567080
 H          3.3071280789       -0.0332972171        1.6825303137
 H          1.7243510564       -1.4768560537       -1.7623860598
 H          0.1155870111       -1.6952603359        0.4515006397
 H          2.0183398209        2.1242683687        1.9739017953
 H          1.9497827655        2.2679662161        0.2032847478
 H          4.3333844060       -1.5562068343       -0.4699226295
 H          2.4431410151       -2.5894275984        0.7145220683
 H          4.3307376006        2.1319341670        0.3514308100
  32
        -58.17819988
 N         -1.9011685977       -0.7381767514        0.2421377130
 N         -2.2538140103        0.9482943434       -1.3811078527
 N         -4.1013866230        0.0368810928       -0.2020570551
 N         -0.1529397126        0.1442476440       -0.9939229238
 N         -3.7077227924       -1.5843960379        1.3638222823
 N         -4.3933190429        1.6571639923       -1.7905147380
 C         -1.4788933076        0.1240127022       -0.6771940556
 C         -3.2286310096       -0.7403960775        0.4435417037
 C         -3.5641794820        0.8613515031       -1.1061193095
 H          0.1176441423        0.9352696283       -1.5619579587
 H         -4.6975072878       -1.6150003047        1.5260909542
 H         -3.0693992130       -2.1877139771        1.8487463578
 H         -4.0076336704        2.3077395636       -2.4496922414
 H         -5.3733099911        1.6340058767       -1.5757282786
 O          1.3940401311        0.6812592588        0.6597018950
 O          4.3442372945       -1.2087439235       -0.0598516537
 O          2.0241760155       -2.4215358709       -0.5469415066
 O          3.0887350289        2.1674158351        2.5616113871
 C          3.2822941418       -0.3417181201       -0.3031722214
 C          2.7436140810        0.3614063389        0.9596779954
 C          2.0158812557       -1.0535180510       -0.8603076534
 C          0.8418651297       -0.3751704050       -0.1153038249
 C          3.4989538654        1.6361585957        1.3274823955
 H          3.6475753541        0.4051299564       -1.0127914660
 H          2.7754450600       -0.3392244723        1.8085111336
 H          1.9061208493       -0.8940702173       -1.9360521771
 H          0.3542025665       -1.1158137073        0.5329005051
 H          3.3633050874        2.3717344780        0.5242240614
 H          4.5601729202        1.4011489802        1.4297744877
 H          4.0029878250       -1.9900998137        0.4087905091
 H          2.4871041432       -2.9144453254       -1.2397974694
 H          2.1361897588        2.3340108743        2.5214737751
  32
        -58.17818087
 N         -1.9052756919       -0.9274900913        0.1490181506
 N         -2.2182190890        1.2466962586       -0.7370893266
 N         -4.0992897208       -0.0524488174       -0.0981465745
 N         -0.1229281589        0.3674677245       -0.5580026943
 N         -3.7441146812       -2.1373639534        0.7752074619
 N         -4.3497525631        2.0574869290       -0.9482434784
 C         -1.4584391518        0.2196687203       -0.3543159660
 C         -3.2401343854       -1.0103888952        0.2590544470
 C         -3.5373990188        1.0561462184       -0.5892169966
 H          0.1544640256        1.3040748916       -0.8124828719
 H         -4.7407025566       -2.2440396300        0.8233647351
 H         -3.1181526104       -2.8880331795        1.0016307986
 H         -3.9516977906        2.8762157703       -1.3698214556
 H         -5.3419156264        1.9192704754       -0.8898515545
 O          1.3627359029        0.0576905953        1.2562828706
 O          3.7013664461       -1.7150913241        0.6096795060
 O          2.0698909419       -2.0194296560       -1.4548012015
 O          4.1747068892        2.2942139226        0.6424260043
 C          3.2811930857       -0.5026040883        0.0420938533
 C          2.7091457318        0.4738707756        1.0714081816
 C          2.0666492632       -0.7455421615       -0.8888003698
 C          0.8505535128       -0.4903197053        0.0445053761
 C          2.8148433795        1.9349772033        0.6154257129
 H          4.1436359018       -0.0919320292       -0.4837644067
 H          3.2157011473        0.3815541082        2.0369103361
 H          2.0460583357       -0.0208295388       -1.7087167004
 H          0.3234904707       -1.4196165312        0.2845228394
 H          2.2225782564        2.5479037239        1.3058983913
 H          2.4041877519        2.0387728871       -0.3973604989
 H          3.0857108199       -1.9710077844        1.3134888598
 H          2.6881964874       -2.5717478484       -0.9380430235
 H          4.2671585993        3.2315691261        0.4198969026
  32
        -58.17815917
 N         -2.1838061991        1.1020602950       -0.2621474264
 N         -1.6815682774       -1.1989127582       -0.0113212222
 N         -3.9379950273       -0.4616680784        0.0755397591
 N         -0.0273117713        0.3695948962       -0.4049092502
 N         -4.3702079889        1.7726853968       -0.1714292798
 N         -3.4025348540       -2.6740695359        0.3042709781
 C         -1.3351438535        0.0742178955       -0.1979125285
 C         -3.4755921696        0.7775765470       -0.1202348715
 C         -2.9986915647       -1.4104790782        0.1205632157
 H          0.1999129566        1.3592772536       -0.3734674889
 H         -5.3450738108        1.5551542938       -0.0783735007
 H         -4.0437773480        2.7080276015       -0.3285824903
 H         -2.7123773835       -3.3992810572        0.3663357085
 H         -4.3805019880       -2.8557352220        0.4351348358
 O          1.5525755232       -0.2371133720        1.2478473941
 O          4.4013025696       -0.8204852917        0.0057941854
 O          2.4732478750       -1.7413138812       -1.5070954117
 O          1.7732858376        2.5929933271        0.0167763592
 C          3.3890101092        0.1243554034       -0.1963868056
 C          2.7161361794        0.5729851764        1.1182033740
 C          2.2064861502       -0.4524496398       -1.0294091850
 C          1.0282622102       -0.5274747274       -0.0322826219
 C          2.3961473957        2.0804874712        1.1743492553
 H          3.8779743806        0.9594761890       -0.7013618316
 H          3.3480124163        0.3330711466        1.9788009778
 H          1.9341155868        0.2225415311       -1.8487058745
 H          0.6012851461       -1.5339523787       -0.0001891388
 H          3.3185852724        2.6253569988        1.3931084873
 H          1.6884133902        2.2360326167        1.9924796194
 H          4.0016473895       -1.6612518399        0.2782308396
 H          3.2009763423       -1.7058488205       -2.1466784375
 H          2.4367640934        2.8104196403       -0.6511014138
  32
        -58.17815111
 N         -2.4408553049        0.7842028058       -0.6696804001
 N         -1.7142418651       -1.1783267896        0.4402104801
 N         -4.0340985321       -0.6961390005        0.2815342309
 N         -0.2223111189        0.2701769721       -0.5738841233
 N         -4.6872723320        1.2169676993       -0.7893273151
 N         -3.2818375115       -2.5633840940        1.3690932651
 C         -1.4980324576       -0.0532191769       -0.2354178027
 C         -3.6974417106        0.4118117491       -0.3855071775
 C         -3.0065384726       -1.4523358365        0.6758213857
 H         -0.1214803703        1.1941049331       -0.9676049828
 H         -5.6361163454        0.9349888641       -0.6249097812
 H         -4.4605782201        2.0302876795       -1.3310521376
 H         -2.5272954759       -3.1733249227        1.6246309710
 H         -4.2419113899       -2.8191798387        1.5104087291
 O          1.4254856723        0.4518062247        1.1129816721
 O          3.9673703291       -1.0263896609        0.4784467016
 O          2.2537372507       -1.8679634873       -1.3552652669
 O          3.7913472808        2.9552355978       -0.0836265155
 C          3.3130212614        0.0145115869       -0.1979254434
 C          2.6701381844        1.0320943686        0.7462378229
 C          2.0868145825       -0.5399576744       -0.9659356536
 C          0.9190734233       -0.3364159058        0.0391306525
 C          2.5062787031        2.4114414942        0.0946226748
 H          4.0544625869        0.4708100095       -0.8544461392
 H          3.2562238095        1.1549754345        1.6620343698
 H          1.8868729435        0.0455765712       -1.8688028181
 H          0.5682812922       -1.2897231006        0.4482053405
 H          1.8955179054        3.0318803080        0.7616752248
 H          1.9902492274        2.3069484955       -0.8687063856
 H          3.4587394688       -1.2667319339        1.2678860635
 H          2.9891311554       -2.2393781435       -0.8301253543
 H          3.7167523578        3.8568133466       -0.4272266449
  32
        -58.17812633
 N         -1.8526381859       -0.9040372138        0.0760315690
 N         -1.9610633431        1.3795726555       -0.5418062622
 N         -3.9550048447        0.1948855034       -0.0346229563
 N          0.0453288564        0.2902775486       -0.4891719851
 N         -3.7949286691       -2.0042656601        0.5788397409
 N         -4.0101455797        2.3953334411       -0.6600938688
 C         -1.2965092616        0.2502421359       -0.2896206938
 C         -3.1875660692       -0.8747010835        0.1918498711
 C         -3.2906020788        1.2953404164       -0.4022323234
 H          0.4333959137        1.2222564626       -0.6025108884
 H         -4.7974416106       -2.0259471164        0.6142132444
 H         -3.2417596466       -2.8330609717        0.6951936546
 H         -3.5271285619        3.2458898418       -0.8829410413
 H         -5.0008136770        2.3713166900       -0.5026276544
 O          1.4405928999       -0.2812720016        1.3335868889
 O          4.1918995840       -1.5042374726        0.3895340258
 O          2.2075915837       -2.3244146156       -1.1121998416
 O          2.1805405662        2.2379909080       -0.3111396139
 C          3.3673549868       -0.4514252492       -0.0229204099
 C          2.7250527391        0.3068141849        1.1575902131
 C          2.1399635163       -0.9526826017       -0.8395805411
 C          0.9272040198       -0.6877783141        0.0803983997
 C          2.6537082515        1.8340818883        0.9553103053
 H          4.0144691979        0.2005014713       -0.6123679884
 H          3.2730686705        0.1180758027        2.0854792811
 H          2.0166863467       -0.3735956136       -1.7619018264
 H          0.3420763355       -1.5984848975        0.2372259992
 H          3.6409436658        2.2591145188        1.1555328072
 H          1.9420271955        2.2288948904        1.6849478971
 H          3.6438564734       -2.2131201575        0.7609424386
 H          2.9587441065       -2.5020356904       -1.6990602599
 H          2.9053106753        2.2511293192       -0.9499613206
  32
        -58.17809167
 N         -2.4151240562       -1.2561309295        0.6386898689
 N         -1.0121016979        0.2312256398       -0.5450023685
 N         -3.3373316393        0.6780609024       -0.3818722118
 N         -0.2040235361       -1.7251674452        0.4488061399
 N         -4.6568464037       -0.8057032073        0.7546115652
 N         -1.9375133986        2.0802099161       -1.5293785918
 C         -1.2251801879       -0.8656703970        0.1782820033
 C         -3.4414007646       -0.4544722546        0.3237335065
 C         -2.1045994654        0.9747583888       -0.7899195683
 H         -0.4907452368       -2.4371661564        1.1058966335
 H         -5.4390559143       -0.2184690576        0.5299101651
 H         -4.7591607844       -1.6522201475        1.2834821498
 H         -1.0025710908        2.3937529990       -1.7214400573
 H         -2.7165983212        2.7068402079       -1.6247089503
 O          1.5709497051       -0.5542570609        1.4992950094
 O          4.0344752936       -0.2057385850       -0.4308060948
 O          2.3486168206       -1.8261171124       -1.6248694575
 O          1.8568616356        2.9657706395        0.4592561646
 C          2.7130410240        0.2683030562       -0.4187158029
 C          2.2386268241        0.6000956322        1.0036540961
 C          1.7141405434       -0.8218106122       -0.8782151912
 C          1.2015298899       -1.4298063867        0.4430766201
 C          1.2912014323        1.8114376115        1.0228057223
 H          2.6624932300        1.1657846515       -1.0458001589
 H          3.1026247886        0.7737339941        1.6555274226
 H          0.8720069982       -0.3733474892       -1.4067190302
 H          1.7136203104       -2.3884823628        0.6069905582
 H          0.9654897335        1.9854365489        2.0557540030
 H          0.4139964896        1.5642523971        0.4183650000
 H          4.0162577700       -1.1234559512       -0.7608212107
 H          2.3537945834       -1.5879207502       -2.5632348081
 H          2.6032650860        3.2601586562        1.0006723524
  32
        -58.17808732
 N         -2.4257325079       -1.2672538646        0.6229007057
 N         -1.0284446371        0.2802563308       -0.4895026575
 N         -3.3741117319        0.6390062261       -0.4255163564
 N         -0.1996783011       -1.6575532710        0.5267607433
 N         -4.6830868339       -0.8875690908        0.6667637640
 N         -1.9774644977        2.1100778254       -1.4847797637
 C         -1.2315576496       -0.8328915203        0.2108831277
 C         -3.4651661100       -0.4993086670        0.2720536494
 C         -2.1360405986        0.9853066586       -0.7764116982
 H         -0.4912534051       -2.3921966207        1.1552170831
 H         -5.4798272835       -0.3558725425        0.3670395138
 H         -4.7797681610       -1.7659988050        1.1421011504
 H         -1.0485001189        2.4349838359       -1.6839006910
 H         -2.7797257174        2.6902740517       -1.6500590746
 O          1.6493410244       -0.5432932456        1.5239888638
 O          4.0506672776       -0.3397662563       -0.4056642619
 O          2.2345822714       -1.7490234288       -1.7285110995
 O          1.8770612776        2.9570595071        0.3790591973
 C          2.7696120236        0.2377075529       -0.3969050493
 C          2.2826844787        0.6207533560        1.0020605798
 C          1.7090297302       -0.7884345599       -0.8604821692
 C          1.2094544833       -1.4024532689        0.4715266832
 C          1.3126124125        1.8142047288        0.9677612065
 H          2.8206362891        1.1039838097       -1.0580958685
 H          3.1249623668        0.8436745856        1.6676579102
 H          0.8708765234       -0.2905573199       -1.3522976478
 H          1.6910337045       -2.3784018839        0.6236153317
 H          0.9670232861        2.0146340279        1.9892254484
 H          0.4489601039        1.5361154197        0.3573504721
 H          4.1418485561       -0.9452244629        0.3455667692
 H          3.2085606834       -1.6853996022       -1.6853385940
 H          2.5798585205        3.3055640921        0.9463155217
  32
        -58.17807107
 N         -0.9282660578       -0.0395402769       -0.4899571757
 N         -2.3577736365       -0.5136528781        1.3338826936
 N         -3.1766473102        0.7213550403       -0.5194331255
 N         -0.2255476292       -1.2824300979        1.3553598882
 N         -1.7591849061        1.1455015018       -2.2663164606
 N         -4.5245032460        0.2234190102        1.2614120187
 C         -1.1823266170       -0.5733734446        0.7025143200
 C         -1.9614293209        0.6058857289       -1.0542775894
 C         -3.3258946943        0.1361180517        0.6748240307
 H         -0.4978095832       -1.5055952265        2.3017645784
 H         -2.4753376525        1.7447187159       -2.6371358305
 H         -0.8145350136        1.2231891108       -2.5988622540
 H         -4.6700132919       -0.2407492851        2.1389951337
 H         -5.2724688770        0.6749379942        0.7676444986
 O          1.8687019962       -0.1647593220        1.5274054050
 O          3.3904868129       -0.3100342409       -1.4461137799
 O          2.4322190997       -2.5767192964       -0.6005853992
 O          1.7901279241        2.7741660806       -0.6814307275
 C          2.1260939970       -0.1592598137       -0.8558211660
 C          2.2770604932        0.6524677235        0.4418475957
 C          1.5320125737       -1.5230879010       -0.4107784001
 C          1.1853732207       -1.3252559197        1.0812005787
 C          1.4618400726        1.9555663404        0.4094124953
 H          1.4290988080        0.3547781886       -1.5222895147
 H          3.3397586100        0.8839109502        0.5941538582
 H          0.6262186013       -1.7677202418       -0.9663806219
 H          1.5827415342       -2.1659180696        1.6628115944
 H          1.5947004934        2.4791781888        1.3638764492
 H          0.4057225732        1.7008376486        0.2947833098
 H          3.2902667794       -0.6197503287       -2.3578776971
 H          3.3377065810       -2.2207327756       -0.5472552547
 H          2.7070598261        3.0744990733       -0.5981176978
  32
        -58.17803201
 N         -1.9106896128       -0.9243850077        0.1456599560
 N         -2.2861245115        1.2367104542       -0.7479920243
 N         -4.1300446629       -0.1229015090       -0.1261222732
 N         -0.1646898563        0.4282835360       -0.5441553807
 N         -3.7146069085       -2.1952371597        0.7507600992
 N         -4.4408834254        1.9765197691       -0.9822975806
 C         -1.4957201661        0.2365529130       -0.3539504405
 C         -3.2428409263       -1.0511799375        0.2415243066
 C         -3.5993483533        1.0026962306       -0.6133687919
 H          0.0850451568        1.3733896771       -0.7968442771
 H         -4.7074634195       -2.3326054709        0.7958280280
 H         -3.0652021725       -2.9206118879        0.9926157699
 H         -4.0652685691        2.8061177075       -1.4032216128
 H         -5.4282425529        1.8031494264       -0.9388103699
 O          1.3612453072        0.2476486063        1.2373769911
 O          3.5434746502       -1.7800385935        0.5855193257
 O          1.9597197846       -1.9051825891       -1.5077289631
 O          4.4447022243        2.1116333268        0.7125839775
 C          3.2589389406       -0.5135833995        0.0475774601
 C          2.7547816655        0.4841322464        1.0991039245
 C          2.0294411747       -0.6698395079       -0.8722929007
 C          0.8358154978       -0.3841805431        0.0775088201
 C          3.0483004410        1.9349929726        0.6942395420
 H          4.1241209391       -0.1118245405       -0.4893261028
 H          3.2094625982        0.2960256703        2.0771043402
 H          2.0407244090        0.0854412633       -1.6636634794
 H          0.3362872173       -1.3123697503        0.3765915307
 H          2.5487655352        2.5964294527        1.4114673061
 H          2.6422358457        2.1241378946       -0.3081908506
 H          4.3802563738       -1.7526267366        1.0685487333
 H          2.2911604898       -2.5798216883       -0.8898940246
 H          4.6559101762        3.0398864285        0.5388637021
  32
        -58.17802651
 N         -1.0201071579       -0.3839706323       -0.5557755075
 N         -2.1741376816        0.1283993996        1.4437743936
 N         -3.1848683211        0.5893512380       -0.6518240549
 N         -0.1378296080       -0.8598541621        1.5549537499
 N         -2.0192684821        0.1038529551       -2.5578506731
 N         -4.2636444847        1.0556310817        1.3117123158
 C         -1.1218344404       -0.3420915715        0.7703376221
 C         -2.0831664143        0.0995127846       -1.2196972596
 C         -3.1826085326        0.5799086313        0.6859528459
 H         -0.3158318325       -0.6769380528        2.5332407536
 H         -2.8349224121        0.3800108840       -3.0738862264
 H         -1.2483479191       -0.3526786922       -3.0094171455
 H         -4.2805428466        1.0645124135        2.3149375427
 H         -5.0250969947        1.4107816967        0.7627379238
 O          1.9835146937        0.1616270213        1.2537826836
 O          3.0970457206       -0.7979949341       -1.7941301791
 O          2.4479074395       -2.7078160436       -0.1100245172
 O          1.8936972112        2.9584588657        0.5219526982
 C          1.9484621053       -0.4990937981       -1.0500831652
 C          2.2823493029        0.6269624504       -0.0583219886
 C          1.4924193567       -1.6877021672       -0.1617511279
 C          1.2493194072       -1.0507108342        1.2207099788
 C          1.5170810451        1.9223251755       -0.3482616441
 H          1.1184216120       -0.1868856382       -1.6914646636
 H          3.3587306615        0.8383450922       -0.0889727593
 H          0.5683796264       -2.1352579016       -0.5277120487
 H          1.6682571488       -1.6930096060        2.0045121815
 H          0.4379624472        1.7250960566       -0.2735089473
 H          1.7482601587        2.2678564072       -1.3571391327
 H          2.8830318022       -1.4513747355       -2.4766193566
 H          3.3347689439       -2.3135409701       -0.1622178631
 H          1.8489440273        2.6249836078        1.4304389837
  32
        -58.17804816
 N         -2.4590573876       -0.0067178379       -1.1859827917
 N         -1.6421286242       -0.5614866598        0.9673076892
 N         -3.9829266754       -0.4553787104        0.5780432580
 N         -0.2182251425       -0.1756283036       -0.8147777082
 N         -4.7220160474        0.0931885048       -1.5176875485
 N         -3.1452244672       -0.9649371834        2.6452179204
 C         -1.4772413380       -0.2377652334       -0.3131175943
 C         -3.6970453735       -0.1323867861       -0.6871398637
 C         -2.9208550486       -0.6549133415        1.3626929472
 H         -0.1512887495        0.1737493421       -1.7590652154
 H         -5.6580981913       -0.0233959975       -1.1759729000
 H         -4.5285826342        0.3036893108       -2.4792770252
 H         -2.3624132921       -1.1601006129        3.2415489804
 H         -4.0922498469       -1.0781204549        2.9568025545
 O          1.4697053026        1.1686921961        0.0731868967
 O          3.5210404516       -0.9064104980        1.3323675373
 O          2.0075016389       -2.3697225210       -0.2917862568
 O          3.0455776823        3.3386166645       -0.9008354688
 C          3.3345370044       -0.3276704211        0.0655839942
 C          2.8987214956        1.1459497821        0.1394879628
 C          2.1057370405       -1.0118238848       -0.5664321210
 C          0.9494328557       -0.1532379065       -0.0046076678
 C          3.4603779672        2.0008902553       -1.0044491270
 H          4.2265711539       -0.4502574433       -0.5570181862
 H          3.1899985021        1.5918367845        1.0988770666
 H          2.1284526127       -0.9091907607       -1.6555230309
 H          0.6553820192       -0.5053046950        0.9930266542
 H          3.1415663822        1.5721202844       -1.9642725374
 H          4.5508316197        2.0171668813       -0.9615409704
 H          4.3683902366       -0.6305974903        1.7073454606
 H          2.2633111257       -2.5100328958        0.6358124621
 H          2.0835116193        3.3486005717       -0.7895094138
  32
        -58.17801733
 N         -2.3986264175       -1.1486369267        0.7157251580
 N         -0.8722752057        0.1246395486       -0.5660865787
 N         -3.1672700508        0.7290831036       -0.5145933851
 N         -0.2183162401       -1.7636251068        0.6388316585
 N         -4.6076886559       -0.5458556680        0.7244593323
 N         -1.6535640674        1.9316432472       -1.7396670600
 C         -1.1756717385       -0.8817781329        0.2502580069
 C         -3.3623913996       -0.3203457976        0.2925427188
 C         -1.9068734487        0.9087378310       -0.9086482264
 H         -0.5486235305       -2.3860271202        1.3622665224
 H         -5.3492132291        0.0418862348        0.3901130446
 H         -4.7826884640       -1.3456795027        1.3043959428
 H         -0.6954540664        2.1852890995       -1.9027550665
 H         -2.3856857721        2.6027639402       -1.8914095355
 O          1.7376025945       -0.7243059490        1.5117340891
 O          3.4752408684        0.5338286147       -1.0737475114
 O          2.7297767291       -1.9448694016       -1.3314218016
 O          1.5680941890        2.8698874959        0.7603168877
 C          2.1702187227        0.3242450984       -0.6013805761
 C          2.1570941393        0.4985350862        0.9271803034
 C          1.6991813548       -1.1352289006       -0.8415043786
 C          1.2087783710       -1.6144381264        0.5416720166
 C          1.2392682643        1.6500442256        1.3695283734
 H          1.4606070755        1.0243104873       -1.0480174661
 H          3.1827438164        0.6878018891        1.2717422262
 H          0.8760741668       -1.1806265850       -1.5559994760
 H          1.6344838594       -2.6018566643        0.7569603694
 H          1.2645155897        1.7231709721        2.4634655805
 H          0.2181061052        1.4174467703        1.0588324332
 H          3.4568929868        0.6943290977       -2.0282770980
 H          3.5794676596       -1.5316791683       -1.0902039817
 H          2.4463196018        3.1529498844        1.0543143495
  32
        -58.17806142
 N         -1.9299104289       -0.8897698057        0.1568145652
 N         -1.9253444040        1.3074249099       -0.7295278122
 N         -3.9844929157        0.2323525517       -0.2428153032
 N          0.0350466542        0.1922558033       -0.3963114849
 N         -3.9373347273       -1.8788593196        0.6374725273
 N         -3.9274216405        2.3569914798       -1.0922136372
 C         -1.3178647212        0.1999126178       -0.3018931284
 C         -3.2695617954       -0.8179361904        0.1685595761
 C         -3.2645027676        1.2695761698       -0.6813207714
 H          0.4606279902        1.0741277811       -0.6498002742
 H         -4.9404270126       -1.8687457898        0.6101677360
 H         -3.4215298141       -2.6981383143        0.9008009748
 H         -3.4058276907        3.1311870785       -1.4600429183
 H         -4.9306487178        2.3384224711       -1.0999731773
 O          1.5164426675       -0.3110193897        1.3758237899
 O          4.4009642890       -0.8215851937       -0.4759957990
 O          2.3589236909       -2.5972516343       -0.5466998063
 O          2.0195283374        2.3938462539        0.5786807418
 C          3.1185984359       -0.2663802984       -0.4012307456
 C          2.8348032965        0.1351984624        1.0576894746
 C          1.9822727191       -1.2644388184       -0.7348937135
 C          0.8627184434       -0.8035424033        0.2204799201
 C          2.9781903569        1.6472388908        1.2914493915
 H          3.0291329857        0.6184377823       -1.0468768460
 H          3.5401853673       -0.3854143065        1.7170008262
 H          1.6499720991       -1.1925866831       -1.7719657219
 H          0.2031896706       -1.6205073547        0.5254075990
 H          3.9572530101        1.9629057308        0.9262606594
 H          2.9101208375        1.8519898296        2.3641848885
 H          4.5704165426       -1.1344054781       -1.3763919854
 H          2.7613723685       -2.7053872802        0.3278934862
 H          1.1680357602        2.2992088542        1.0276345722
  32
        -58.17801313
 N         -2.3362899684       -1.0294718648        0.8017680084
 N         -0.8865871488        0.0362859957       -0.7321821518
 N         -3.1443568019        0.7484795199       -0.5460099378
 N         -0.1994089481       -1.7563285911        0.6010418989
 N         -4.5040707654       -0.3091974845        0.9601537637
 N         -1.7128496945        1.7245579029       -2.0397753409
 C         -1.1504600231       -0.8661513393        0.2094970942
 C         -3.3011377935       -0.1976505883        0.3866575756
 C         -1.9219861194        0.8205300974       -1.0733196422
 H         -0.5118569912       -2.3053075417        1.3904014148
 H         -5.2490973291        0.2823240051        0.6406974709
 H         -4.6551965097       -1.0380850744        1.6328486081
 H         -0.7755548106        1.8743286305       -2.3657416547
 H         -2.4402492876        2.3880356866       -2.2367338141
 O          1.8119519297       -0.8390052231        1.4790019340
 O          3.4235733844        0.6524030412       -1.0380751520
 O          2.7708019548       -1.8487501418       -1.4064460152
 O          1.4264647957        2.7893190737        1.0077932468
 C          2.1345910601        0.3635079578       -0.5655852262
 C          2.1384020021        0.4451179113        0.9715163399
 C          1.7126285401       -1.0968254525       -0.8843732428
 C          1.2303023658       -1.6517328322        0.4712640572
 C          1.1589024681        1.5049166767        1.5026527485
 H          1.3927530958        1.0629042357       -0.9607769961
 H          3.1546579855        0.6778044337        1.3150627346
 H          0.8994970318       -1.1353780409       -1.6089649133
 H          1.6289638543       -2.6616958230        0.6231979317
 H          1.1766209854        1.4813208366        2.5993104886
 H          0.1493208257        1.2545920662        1.1679854322
 H          3.3984143301        0.7793044136       -1.9976442987
 H          3.6067299162       -1.4923890711       -1.0578669225
 H          2.2928179321        3.0855495156        1.3239723722
  32
        -58.17802159
 N         -2.5041559746       -0.6002483825       -1.1847427814
 N         -1.7139052279       -0.1183580364        0.9948985594
 N         -4.0458276453       -0.0879574495        0.5458717814
 N         -0.2737560004       -0.6983100012       -0.7222055018
 N         -4.7599300821       -0.5602070847       -1.5762709205
 N         -3.2320560920        0.3977943543        2.6282467222
 C         -1.5354932695       -0.4432380366       -0.2828277406
 C         -3.7466124020       -0.4148998006       -0.7150906188
 C         -2.9950480452        0.0524523103        1.3574350740
 H         -0.1875972112       -0.7840519615       -1.7245510449
 H         -5.6994933412       -0.4477187337       -1.2425749064
 H         -4.5580927915       -0.8259636811       -2.5223821121
 H         -2.4594169464        0.4700480924        3.2642027267
 H         -4.1829083805        0.4933525199        2.9344187398
 O          1.4032716069        0.9070744436       -0.5312805038
 O          4.1915135440       -0.6209737749        0.8857664805
 O          2.0897292386       -2.2196377366        0.9856144202
 O          3.0370825803        3.2759820825       -0.9679196373
 C          3.3225412064       -0.4433616024       -0.1964072418
 C          2.7704441466        0.9933681992       -0.1635099577
 C          2.0465892370       -1.3329239907       -0.0887710833
 C          0.8859206066       -0.3059255161        0.0001193479
 C          3.4806266713        1.9522558697       -1.1178477053
 H          3.8353486776       -0.6233609110       -1.1482656898
 H          2.8575054472        1.3706551447        0.8669019157
 H          1.9170020653       -1.9474339173       -0.9826605887
 H          0.5825204345       -0.1669227807        1.0473522224
 H          3.3230021029        1.6062920252       -2.1480358393
 H          4.5484672532        1.9591502595       -0.8924837641
 H          4.6496421166       -1.4708958017        0.8015297862
 H          2.4192163744       -1.7506212395        1.7706485374
 H          2.0758214791        3.2896810104       -1.0803937097
  32
        -58.17792691
 N         -2.3156747725       -0.9309859735        0.8041263899
 N         -0.8855051945       -0.0102023424       -0.8377606209
 N         -3.1320774598        0.7415736138       -0.6671295976
 N         -0.1869534451       -1.6979637733        0.6172059714
 N         -4.4790755569       -0.1918952917        0.9302166209
 N         -1.7126200263        1.5983641418       -2.2410042508
 C         -1.1414647157       -0.8280763926        0.1789648473
 C         -3.2815470237       -0.1255326286        0.3402584139
 C         -1.9195173292        0.7576671750       -1.2210207950
 H         -0.4923208922       -2.1793244075        1.4525285796
 H         -5.2105248144        0.4178801474        0.6137376487
 H         -4.6088597184       -0.8258001727        1.6970994214
 H         -0.8088828463        1.6337800830       -2.6751988485
 H         -2.4652699049        2.1910564599       -2.5399725646
 O          1.7262476272       -0.5456995596        1.4122851560
 O          3.2743270791        0.6709316578       -1.4546325056
 O          2.8674860993       -1.9370774086       -1.1792571274
 O          1.4118077383        2.1214286639        2.5102261561
 C          2.0937527359        0.3483009974       -0.7854782579
 C          2.1523684266        0.6301873856        0.7304112909
 C          1.7336143212       -1.1589857575       -0.8875424702
 C          1.2393567025       -1.5288117233        0.5164419635
 C          1.2823146192        1.8213096710        1.1438178117
 H          1.2993333566        0.9422638583       -1.2393708421
 H          3.1857568147        0.8267171814        1.0447450299
 H          0.9347716991       -1.3241430613       -1.6116982299
 H          1.6898967247       -2.4821402985        0.8177597184
 H          0.2346976181        1.6006834141        0.8927304933
 H          1.6009942468        2.7121517507        0.6000476957
 H          3.9572759978        0.0273363413       -1.1988477787
 H          3.0218946171       -1.9342585540       -2.1352651786
 H          1.2822993258        1.3045574360        3.0143679946
  32
        -58.17783205
 N         -2.4444285641       -0.2036350809       -1.1910443276
 N         -1.6355328692       -0.4989509161        1.0131228017
 N         -3.9611874372       -0.2064704457        0.6343830318
 N         -0.2169170592       -0.5495437741       -0.8179998612
 N         -4.6952269402        0.0680678537       -1.5154264335
 N         -3.1323258680       -0.5126677237        2.7449639455
 C         -1.4726374794       -0.3889967328       -0.3005639013
 C         -3.6781377182       -0.1194541434       -0.6684804673
 C         -2.9079127412       -0.3984167690        1.4319344769
 H         -0.1538196862       -0.2795378105       -1.7910466920
 H         -5.6259532844        0.1422497367       -1.1476355655
 H         -4.5033945325        0.1371882315       -2.4978727021
 H         -2.3504045735       -0.6195204856        3.3646897334
 H         -4.0697525665       -0.4063912560        3.0872475847
 O          1.3742749010        1.0381656136       -0.1868043450
 O          3.7073148387       -0.6361706037        1.3481222359
 O          2.2217373506       -2.4290446342        0.1003649119
 O          2.8604523260        3.3045472934       -1.0780823233
 C          3.3427358246       -0.3046801031        0.0370536966
 C          2.7864539222        1.1296396096        0.0107442632
 C          2.1600586425       -1.1549452706       -0.4655786258
 C          0.9474120768       -0.3086784041       -0.0304433206
 C          3.3744299548        1.9979949719       -1.1058544157
 H          4.2121925448       -0.4037455321       -0.6272312743
 H          2.9779319091        1.6003551712        0.9835919551
 H          2.1818239644       -1.2024676407       -1.5634995938
 H          0.6907848018       -0.5135147918        1.0178851624
 H          3.1649407918        1.5253693158       -2.0754763687
 H          4.4534323054        2.0893840976       -0.9728936796
 H          3.6401050974       -1.6012107472        1.4453640862
 H          1.4392966080       -2.9393140836       -0.1479899376
 H          1.8940392409        3.2489205322       -1.0487909572
  32
        -58.17780008
 N         -2.1698782089        0.8140277950       -0.8405900896
 N         -1.7889583803       -1.0439727620        0.5788992507
 N         -4.0082487695       -0.3161449461        0.1475192109
 N         -0.0504163722        0.0636264837       -0.4665858461
 N         -4.3245430652        1.4866795943       -1.2262466080
 N         -3.5887319619       -2.0888787189        1.5316376034
 C         -1.3783883830       -0.0582795128       -0.2147168057
 C         -3.4817525399        0.6370662518       -0.6273533289
 C         -3.1197970911       -1.1253540575        0.7302880415
 H          0.2133326742        0.8914264235       -0.9836623120
 H         -5.3118966195        1.3495519566       -1.1114943891
 H         -3.9518464824        2.1825019447       -1.8455150769
 H         -2.9406242797       -2.7327616959        1.9463092038
 H         -4.5815699904       -2.1931725574        1.6335957769
 O          1.6005282386        0.2892153101        1.1994712076
 O          4.3996449341       -0.4264064766       -0.7667552332
 O          2.6527007984       -2.3103364325       -0.0578013042
 O          1.8588046286        2.7311441748       -0.2190968606
 C          3.0733874930        0.0109309611       -0.6620828022
 C          2.8668679039        0.7077644695        0.6944706974
 C          2.0697878696       -1.1627811764       -0.6096674587
 C          0.9636731708       -0.6005465307        0.3011089157
 C          2.9111291512        2.2380489521        0.5762570470
 H          2.8017306015        0.7020039785       -1.4672847010
 H          3.6466199709        0.3769769891        1.3918170818
 H          1.6527061639       -1.4093012880       -1.5934826800
 H          0.4711404942       -1.3841036206        0.8823765893
 H          3.8398963699        2.5303436909        0.0836675255
 H          2.8788340929        2.6767260533        1.5786526821
 H          4.6298559684       -0.5780403433       -1.6949151843
 H          3.6121080025       -2.1492069478        0.0220948055
 H          1.0324904439        2.6000344607        0.2672238666
  32
        -58.17778945
 N         -2.2102259016        1.0963091845       -0.2273265841
 N         -1.6710513083       -1.2025758080       -0.0493077288
 N         -3.9340173825       -0.5010380047        0.1079734158
 N         -0.0431968422        0.3960383838       -0.4237121142
 N         -4.4079149398        1.7277147104       -0.1122516035
 N         -3.3643245048       -2.7136570182        0.2488535036
 C         -1.3464191868        0.0810760481       -0.2023633664
 C         -3.4950765079        0.7488608587       -0.0731244651
 C         -2.9817734654       -1.4372076770        0.1066871762
 H          0.1703964287        1.3872073994       -0.3666655051
 H         -5.3681318477        1.5002652404        0.0699536585
 H         -4.0918736078        2.6773648895       -0.1830463350
 H         -2.6569534118       -3.4188312739        0.3461185653
 H         -4.3274273530       -2.9044354573        0.4571592482
 O          1.5289295979       -0.1812941235        1.2480499056
 O          4.2995243994       -0.9598540092        0.1266323236
 O          2.5400702010       -1.5867678976       -1.6521734435
 O          1.8457926763        2.5974782129        0.0042017258
 C          3.4049915694        0.0809142840       -0.1587476581
 C          2.7290175518        0.5738361193        1.1341857459
 C          2.2116911922       -0.3757781300       -1.0308208894
 C          1.0253689287       -0.4852339417       -0.0369038829
 C          2.4662824901        2.0914441448        1.1668420131
 H          3.9664092756        0.8887031079       -0.6458285169
 H          3.3398144571        0.3074178208        2.0013219668
 H          1.9721251253        0.3932403677       -1.7739912121
 H          0.6089258453       -1.4962743902        0.0057121761
 H          3.4095890944        2.6070760670        1.3642429470
 H          1.7742739534        2.2870376953        1.9898388704
 H          4.0994813749       -1.7024446051       -0.4689749328
 H          1.8334548108       -1.8542931994       -2.2543961109
 H          2.5123366711        2.8075481728       -0.6629403496
  32
        -58.17778084
 N         -2.1501322435        1.1316050225       -0.2022156853
 N         -1.7162097428       -1.1933886047       -0.0737378057
 N         -3.9541521241       -0.4018995395       -0.0249714421
 N         -0.0084536012        0.3460112802       -0.3112695937
 N         -4.3237156249        1.8512392685       -0.1835347316
 N         -3.4811233601       -2.6362838282        0.1304071428
 C         -1.3305006294        0.0795505289       -0.1700180083
 C         -3.4539866806        0.8338788317       -0.1310505911
 C         -3.0416287285       -1.3765809865        0.0012127953
 H          0.2495163361        1.3233742840       -0.2005366006
 H         -5.3014512998        1.6565139257       -0.0696030483
 H         -3.9672436631        2.7888352056       -0.2020729075
 H         -2.8172010324       -3.3856214636        0.0620443332
 H         -4.4700243851       -2.8046292733        0.1003850398
 O          1.6191680938       -0.3401948914        1.2633681233
 O          4.4853562197       -0.4774993435       -0.2829605669
 O          2.5776052318       -1.9336610792       -1.3272410224
 O          1.6622295549        2.6103101215        0.3483184816
 C          3.2670938749        0.2116071676       -0.3657226845
 C          2.7562334010        0.4940541989        1.0600445938
 C          2.1409384142       -0.6419662658       -1.0199548009
 C          1.0017074719       -0.6186123396        0.0256372808
 C          2.4448964317        1.9778636296        1.3380437548
 H          3.4071077597        1.1453211994       -0.9248514301
 H          3.5065707262        0.1666366150        1.7874112279
 H          1.7953520704       -0.2121765234       -1.9613982414
 H          0.4998373937       -1.5870566343        0.1072078635
 H          3.3877169994        2.5097184958        1.4884413636
 H          1.8603699244        2.0198450765        2.2603569230
 H          4.6930849884       -0.8613861193       -1.1495723633
 H          2.8830786042       -2.3699656882       -0.5165966361
 H          2.2266747330        2.9568971451       -0.3556182790
  32
        -58.17773955
 N         -2.6213925523       -0.4135365800        1.0541984256
 N         -1.4382127972       -0.3521258501       -0.9964039721
 N         -3.8093710174       -0.3943620994       -1.0019911141
 N         -0.3389954232       -0.3310195191        1.0318088264
 N         -4.9092145516       -0.4357341070        1.0034382542
 N         -2.6254132171       -0.3400541978       -2.9570100631
 C         -1.4992332546       -0.3805592374        0.3395064156
 C         -3.7535252684       -0.4127797443        0.3345295406
 C         -2.6296427531       -0.3641539232       -1.6207870513
 H         -0.3967795132       -0.4980237646        2.0247272782
 H         -5.7697328916       -0.4495540812        0.4872199299
 H         -4.8893063422       -0.4583972756        2.0064445235
 H         -1.7534517522       -0.3175799232       -3.4538639034
 H         -3.5046438560       -0.3477007382       -3.4410702535
 O          1.9123496760       -0.7150343150        1.4138937099
 O          3.5210446543       -0.4026790154       -1.1905740864
 O          1.0346303183        0.3276947445       -1.8625421337
 O          4.3001153241        2.0007436461        1.8205699202
 C          2.9104772801        0.5341312524       -0.3440441186
 C          3.0534961821        0.0898138508        1.1151796615
 C          1.3848538872        0.5459245817       -0.5308391571
 C          0.9373090298       -0.5938371906        0.4119272804
 C          3.1273397911        1.2718871641        2.0882591108
 H          3.3566897053        1.5253174300       -0.4943419134
 H          3.9481233593       -0.5310186917        1.2244300157
 H          0.9650714967        1.4940144492       -0.1636610519
 H          0.8876704451       -1.5333306672       -0.1697544794
 H          3.1296723472        0.8663089223        3.1064291875
 H          2.2350416202        1.8985931336        1.9568134102
 H          3.0688934502       -0.3569677342       -2.0502419763
 H          0.0808898991        0.0661551883       -1.8410550506
 H          4.4033912865        2.6974162844        2.4850613277
  32
        -58.17771341
 N         -1.8817688718       -0.9053405390        0.0630500622
 N         -1.9420514498        1.3978985344       -0.4872127713
 N         -3.9677286989        0.2116381514       -0.1326486396
 N          0.0507127174        0.2900554871       -0.3570550246
 N         -3.8557597079       -2.0026661382        0.4359241813
 N         -3.9759601236        2.4283485641       -0.7014748276
 C         -1.2989290471        0.2565722692       -0.2346210742
 C         -3.2206772379       -0.8690705008        0.1068621652
 C         -3.2775556991        1.3181052568       -0.4284213574
 H          0.4581188708        1.2200725471       -0.4112275289
 H         -4.8580472518       -2.0213552772        0.3884619025
 H         -3.3176628298       -2.8444385142        0.5296649709
 H         -3.4758864263        3.2847376400       -0.8536462204
 H         -4.9728476812        2.4096931592       -0.5876421933
 O          1.5305268268       -0.3379646888        1.3791844173
 O          4.3441052200       -1.2374853871        0.0256007847
 O          2.2356858909       -2.5115996024       -0.8610051572
 O          2.0642360404        2.3376145328       -0.0665419471
 C          3.2707850791       -0.3768949115       -0.2456641181
 C          2.7913635123        0.2522776204        1.0762218563
 C          2.0224766042       -1.1320871340       -0.7912694494
 C          0.8907897511       -0.7405218203        0.1879066185
 C          2.7228322366        1.7919001021        1.0559826084
 H          3.5873833657        0.3965142352       -0.9569287909
 H          3.4667255033       -0.0425697402        1.8862015496
 H          1.7656573367       -0.8184701227       -1.8042371000
 H          0.2395711598       -1.5879291931        0.4216732566
 H          3.7382661185        2.1871812681        1.1421807886
 H          2.1433898588        2.1033227528        1.9284462168
 H          4.5120164927       -1.7939752392       -0.7515486841
 H          2.4438091093       -2.8484852163        0.0244660364
 H          2.6811704252        2.4318006897       -0.8046185823
  32
        -58.17776906
 N         -2.2612023052       -0.7553385318        0.8953413922
 N         -0.9415995188       -0.1244028012       -0.9609694500
 N         -3.1594506172        0.6981576148       -0.7508599426
 N         -0.1698906069       -1.6006784958        0.6774655218
 N         -4.4013874278        0.0413427150        1.0560139353
 N         -1.8320106329        1.2970560352       -2.5159308020
 C         -1.1331232345       -0.7741217564        0.1818930607
 C         -3.2482277225       -0.0075768206        0.3819059065
 C         -1.9879639780        0.6068569473       -1.3808298307
 H         -0.4474168046       -1.9833814529        1.5721561610
 H         -5.1566666311        0.5895934771        0.6871296163
 H         -4.4930842080       -0.4906100820        1.9018423459
 H         -0.9738430193        1.2073951879       -3.0285418707
 H         -2.6108652665        1.8155908167       -2.8788410725
 O          1.8971830153       -0.6626108282        1.3920251078
 O          3.0406840121        0.8624407654       -1.5150910966
 O          2.9041093273       -1.7691203918       -1.2913726483
 O          1.5720559928        1.9223380791        2.7129130196
 C          1.9634358940        0.4045461293       -0.7525494093
 C          2.1805785741        0.5890845913        0.7659180252
 C          1.7241397101       -1.1178281771       -0.9066505656
 C          1.2549371026       -1.5501864232        0.4863992999
 C          1.2970065558        1.6915790643        1.3556548438
 H          1.0619403900        0.9438070790       -1.0589497717
 H          3.2293073108        0.8296448323        0.9781670160
 H          0.9775222040       -1.3341713892       -1.6683215886
 H          1.6288886520       -2.5525047071        0.7291115271
 H          0.2402315005        1.4189474261        1.2141649753
 H          1.4931046545        2.6304465070        0.8348308333
 H          3.5037874681        0.0829277793       -1.8776750264
 H          3.5266552741       -1.7894336007       -0.5478018567
 H          1.5452670428        1.0743140420        3.1811646086
  32
        -58.17767727
 N         -2.5329624528       -0.1928000724       -1.1852484530
 N         -1.6933320168       -0.3622836167        1.0233125981
 N         -4.0382403622       -0.3518078258        0.6428615037
 N         -0.2882604434       -0.2716003616       -0.8139339279
 N         -4.7988331234       -0.1661097612       -1.5087522228
 N         -3.1806152284       -0.4914899749        2.7588406270
 C         -1.5420054911       -0.2606472076       -0.2950748909
 C         -3.7656537654       -0.2435420566       -0.6612594912
 C         -2.9682070603       -0.4028243289        1.4401539021
 H         -0.2335042398       -0.0844130572       -1.8036343938
 H         -5.7305251792       -0.2510114604       -1.1461836687
 H         -4.6127269862       -0.1376710421       -2.4942324224
 H         -2.3921195901       -0.5819553266        3.3724609900
 H         -4.1239483709       -0.5713014267        3.0915608917
 O          1.3647602679        1.2248745336       -0.1217484789
 O          3.7839321220       -0.8082240178        1.1664965185
 O          2.0458350951       -2.2923791257       -0.0827187666
 O          3.5443511908        2.1972443317       -1.7513518059
 C          3.3003819978       -0.1719893811        0.0096116819
 C          2.7143206905        1.2273756515        0.3266866363
 C          2.0802801987       -0.9714753703       -0.5164083164
 C          0.8849541953       -0.1123899314       -0.0341859883
 C          3.4550282400        2.3785462896       -0.3606477843
 H          4.0711333919       -0.0952951200       -0.7610674996
 H          2.7347844509        1.3711579884        1.4171673360
 H          2.0754199051       -0.9889101598       -1.6108353405
 H          0.6268758309       -0.3611158169        1.0041146582
 H          4.4805888148        2.4286562752        0.0078506380
 H          2.9390925922        3.3152607402       -0.1210752918
 H          4.7392763834       -0.6929427434        1.2465868197
 H          2.4936458592       -2.3339280373        0.7818473694
 H          2.6475800218        2.1993264694       -2.1135852863
  32
        -58.17766773
 N         -2.4159424981       -1.2770885146        0.6466868069
 N         -1.0498185333        0.2258662521       -0.5611037392
 N         -3.3890110784        0.6073172285       -0.4164176760
 N         -0.1995494290       -1.7027328058        0.4583495494
 N         -4.6657525659       -0.8724233978        0.7741232559
 N         -2.0205446729        2.0534466382       -1.5453358286
 C         -1.2347806400       -0.8669298647        0.1773950057
 C         -3.4617603232       -0.5067562343        0.3220787665
 C         -2.1635517116        0.9262244333       -0.8292349445
 H         -0.4772123733       -2.4192069950        1.1146561684
 H         -5.4663051021       -0.3238507378        0.5184998169
 H         -4.7486357210       -1.7241133333        1.2980695227
 H         -1.1439649208        2.2118943440       -2.0094153719
 H         -2.8555775013        2.5069778886       -1.8717527010
 O          1.5376305126       -0.4863146447        1.5013771663
 O          4.0040800124       -0.4144980489       -0.3441933782
 O          2.2176535547       -1.7057283310       -1.7651221405
 O          2.1497240573        2.9719513021        0.5445497122
 C          2.7658237163        0.2527926129       -0.3872367900
 C          2.2490294670        0.6386845344        1.0052507174
 C          1.7119225937       -0.7636686695       -0.8717659158
 C          1.1996635221       -1.3855913308        0.4503768942
 C          1.3567284622        1.8840485685        0.9608393798
 H          2.8155801128        1.1300447582       -1.0382247161
 H          3.0805050612        0.8222027859        1.6951937715
 H          0.8776198045       -0.2577960149       -1.3604078226
 H          1.7296212778       -2.3308488161        0.6330167524
 H          0.9504924835        2.0455491264        1.9664810064
 H          0.5254537122        1.6991406320        0.2684839971
 H          4.7178880700        0.2238996531       -0.2138610740
 H          3.1422373657       -1.8838021158       -1.5170449869
 H          1.6326786372        3.7874951725        0.6045436698
  32
        -58.17763936
 N         -2.3707500716       -0.1182596880       -1.2515279506
 N         -1.8630860816       -0.5192592993        1.0259737513
 N         -4.1163891504       -0.1845957862        0.3551790939
 N         -0.2145621426       -0.4954006476       -0.5971731465
 N         -4.5589486961        0.1729049708       -1.8613599565
 N         -3.5781062680       -0.5900388390        2.5414306367
 C         -1.5250184136       -0.3513560112       -0.2497764242
 C         -3.6621785006       -0.0479310119       -0.8942261440
 C         -3.1787106517       -0.4195389434        1.2756142877
 H         -0.0138829618       -0.2001339097       -1.5422744554
 H         -5.5274480510        0.2609343109       -1.6139748199
 H         -4.2352003349        0.3089641495       -2.8012233498
 H         -2.8839867533       -0.6931094479        3.2587016362
 H         -4.5482453110       -0.4564547858        2.7612951551
 O          1.4061567037        0.9632857703        0.2831658422
 O          4.3201059702       -0.9619382069       -0.5668658305
 O          2.6047557890       -1.7557128270        1.3149805736
 O          3.1938065036        3.2991169547       -0.3916902244
 C          3.0113687006       -0.5003177770       -0.6543795489
 C          2.7906138077        0.8960694724       -0.0363113880
 C          1.9848492570       -1.3444734112        0.1246082672
 C          0.8398146878       -0.3380811878        0.3636648696
 C          3.2012713148        2.0254870601       -0.9820273139
 H          2.7508699565       -0.4747236533       -1.7169337888
 H          3.3693176005        0.9659821755        0.8978456791
 H          1.6279690009       -2.2006679393       -0.4559193096
 H          0.3817765806       -0.4642162625        1.3511957279
 H          2.4900250115        2.0810650789       -1.8084643101
 H          4.1970248328        1.7814700943       -1.3768132009
 H          4.4588181006       -1.3092889345        0.3311301891
 H          2.0338568949       -2.3710832771        1.7945235402
 H          3.8024650438        3.3111473859        0.3608586477
  32
        -58.17761435
 N         -2.2906221942       -0.9598988599        0.8413714857
 N         -0.8902399100       -0.0460559987       -0.8278181198
 N         -3.0886400446        0.7998343053       -0.5359067439
 N         -0.2019911456       -1.8023481368        0.5516601105
 N         -4.4208828049       -0.1515507403        1.0635408856
 N         -1.6995102016        1.6369852954       -2.1517565717
 C         -1.1365539075       -0.8809288591        0.1764925825
 C         -3.2399385934       -0.1028650630        0.4392782541
 C         -1.8987449457        0.7853284883       -1.1371021294
 H         -0.5050630434       -2.2992165264        1.3798604973
 H         -5.1364481594        0.5003573336        0.7989999634
 H         -4.5461307476       -0.8043245462        1.8152409002
 H         -0.7713819790        1.7288339626       -2.5243877896
 H         -2.3915118901        2.3456164613       -2.3183642145
 O          1.7971052828       -0.8915693120        1.4728007881
 O          3.2635643161        0.8014865846       -1.1385455888
 O          2.9121249009       -1.7490821877       -1.3064216777
 O          1.3093517566        2.7291731202        1.0646678390
 C          2.0747681785        0.3668363238       -0.5499710444
 C          2.1136186809        0.4079825100        0.9965359964
 C          1.7334249440       -1.1057823487       -0.8891783544
 C          1.2309472098       -1.6875745811        0.4442801194
 C          1.1315281329        1.4378990292        1.5800716803
 H          1.2747556634        1.0236223390       -0.9015126459
 H          3.1323019589        0.6374969201        1.3334902377
 H          0.9486911965       -1.1539729502       -1.6434109854
 H          1.6338284835       -2.6956246289        0.5978119322
 H          1.2176585678        1.4273912629        2.6745908101
 H          0.1118808469        1.1452444374        1.3151607063
 H          3.8243982549        0.0183809639       -1.2856145090
 H          2.7037498267       -2.4866342984       -1.8944700406
 H          2.2057033696        3.0375756019        1.2633424612
  32
        -58.17757133
 N         -2.4393296240       -0.3731254194       -1.2372379968
 N         -1.8260578680       -0.2975040635        1.0485871253
 N         -4.1140700940       -0.1478917928        0.4298624583
 N         -0.2533896711       -0.5913086970       -0.6247122069
 N         -4.6559055193       -0.2166824590       -1.7922981679
 N         -3.4694522686       -0.0566285051        2.6234328676
 C         -1.5461830697       -0.3928604764       -0.2475822637
 C         -3.7151314840       -0.2499224947       -0.8415580367
 C         -3.1317872621       -0.1732139620        1.3339659767
 H         -0.0987698155       -0.4941128787       -1.6183110014
 H         -5.6193059441       -0.1589602806       -1.5179483144
 H         -4.3815619638       -0.3345151013       -2.7500588940
 H         -2.7517504613       -0.1365080590        3.3200484682
 H         -4.4423737457       -0.0178775120        2.8663555889
 O          1.3926131997        0.9732487595       -0.1082195773
 O          4.4029142891       -0.8866514908       -0.0059428404
 O          2.3561639976       -1.8497883768        1.3590531561
 O          3.1372138851        3.2735910482       -0.6214948713
 C          3.1565858626       -0.5304664173       -0.5280684535
 C          2.8101090382        0.9101363154       -0.1245328687
 C          1.9957323287       -1.3363470366        0.1075252484
 C          0.8510491419       -0.2992538926        0.2325878399
 C          3.3519091429        1.9664727385       -1.0868878766
 H          3.1253475724       -0.6186249202       -1.6191494982
 H          3.2068794352        1.1006947262        0.8837677527
 H          1.6668665244       -2.1674606110       -0.5268497821
 H          0.4691246655       -0.2892316169        1.2607656762
 H          2.8840080521        1.8249695553       -2.0702595299
 H          4.4333637148        1.8465705580       -1.1753260152
 H          4.7599975941       -1.6529204837       -0.4789635966
 H          3.2913793488       -1.6188897874        1.5204467891
 H          2.1909721189        3.3878881908       -0.4526326953
  32
        -58.17756771
 N         -2.2705594221        0.6101558287       -0.9811693474
 N         -1.6764986297       -0.9592512909        0.6907197353
 N         -3.9587734772       -0.4002173608        0.3467456870
 N         -0.0904929194        0.0160684355       -0.6817474875
 N         -4.4841060720        1.1131398784       -1.2867988442
 N         -3.3328454677       -1.8966402438        1.9609655275
 C         -1.3865546107       -0.1109061683       -0.2908726274
 C         -3.5496899226        0.4234750738       -0.6228928589
 C         -2.9844884445       -1.0652841992        0.9726156363
 H          0.0698271682        0.7650994244       -1.3400211652
 H         -5.4462296611        1.0021981605       -1.0244990993
 H         -4.1992532534        1.7454674361       -2.0116242266
 H         -2.6179503111       -2.4318641928        2.4181509269
 H         -4.3063785562       -2.0210825340        2.1697917225
 O          1.5731890917        0.6122596549        0.8885599787
 O          4.3149166412       -0.9400478983        0.3844359703
 O          2.2706919889       -2.3956396718       -0.4148671918
 O          2.1342434174        3.3355144994        0.1275715675
 C          3.4029152623       -0.2117252729       -0.3848973762
 C          2.8297168503        1.0148267617        0.3482197705
 C          2.1369938383       -1.0424372394       -0.7417249414
 C          1.0091453849       -0.4339990899        0.1198030908
 C          2.6631138889        2.2349555316       -0.5681940440
 H          3.9523403023        0.0924329197       -1.2781587287
 H          3.4574294268        1.2948467414        1.2003624160
 H          1.8828256464       -0.9171149340       -1.8017934991
 H          0.5994067824       -1.1809977346        0.8078733681
 H          2.0163486616        1.9722563723       -1.4178756529
 H          3.6368686578        2.5505137367       -0.9466123908
 H          3.8456679619       -1.3876003448        1.1057655713
 H          2.9806121785       -2.7914119804       -0.9436633026
 H          1.3821447534        3.0296036014        0.6563096246
  32
        -58.17755344
 N         -2.7809620098       -0.4422022890        1.0607403584
 N         -1.5430629615       -0.2551259430       -0.9511608170
 N         -3.9068712311       -0.4392743761       -1.0293040374
 N         -0.5082020742       -0.2294952221        1.1084473083
 N         -5.0598722804       -0.6141101844        0.9391915408
 N         -2.6760891481       -0.2566974396       -2.9454135122
 C         -1.6436544681       -0.3223684869        0.3817344159
 C         -3.8898421032       -0.4936013791        0.3070577981
 C         -2.7141126231       -0.3195477710       -1.6108861736
 H         -0.5738524334       -0.3777810703        2.1029441223
 H         -5.9044435467       -0.6540334452        0.3983395985
 H         -5.0676181669       -0.6518792377        1.9419702468
 H         -1.7966078994       -0.1586751796       -3.4188322372
 H         -3.5416067697       -0.2943199299       -3.4523581062
 O          1.7503662449       -0.4140712930        1.5306856624
 O          3.4713762512        0.8102945410       -1.2897566662
 O          0.9195796516        0.5964630313       -1.7354573467
 O          5.3056149572        0.3793962134        1.5527908036
 C          2.6990287734        0.9925787613       -0.1389548489
 C          2.9969876737       -0.0894102477        0.9341059792
 C          1.1792863067        0.8426735710       -0.3863616611
 C          0.7881478416       -0.3582073798        0.5131824504
 C          3.9815103089        0.3531609905        2.0168926708
 H          2.9160295641        1.9893213353        0.2663932387
 H          3.4066660253       -0.9728308222        0.4192481138
 H          0.6401138020        1.7352658372       -0.0415121854
 H          0.8362226408       -1.2725769321       -0.1136844542
 H          3.9545012184       -0.3707764536        2.8336912570
 H          3.6776742351        1.3340996468        2.4062508011
 H          2.8681887523        0.6062212388       -2.0266850760
 H         -0.0111793513        0.2669538202       -1.7627225535
 H          5.3546382464        0.9137259850        0.7466844848
  32
        -58.17755335
 N         -2.3694278515       -1.1959202763        0.6386441347
 N         -0.9833478336        0.2643479155       -0.6019271174
 N         -3.3287792300        0.6330821878       -0.5283578099
 N         -0.1444945307       -1.6015502476        0.5312964422
 N         -4.6243431669       -0.8030578696        0.6943743218
 N         -1.9482593528        2.0287716279       -1.6986519397
 C         -1.1812346788       -0.7971615484        0.1771873647
 C         -3.4120501001       -0.4490594565        0.2538054835
 C         -2.0953325458        0.9466563063       -0.9244121859
 H         -0.4222555504       -2.2902148341        1.2153060231
 H         -5.4222725793       -0.2754689710        0.3911283943
 H         -4.7147423006       -1.6327550830        1.2511824144
 H         -1.0385983254        2.2644451224       -2.0499782241
 H         -2.7679736790        2.5353037527       -1.9790118943
 O          1.5975085278       -0.2563829435        1.3908518815
 O          4.0544386590       -0.5721299459       -0.4159671898
 O          2.1796876228       -1.8921729455       -1.7239693412
 O          1.2230278404        2.6370602821        1.8016200092
 C          2.8655469075        0.1646681217       -0.5669073670
 C          2.3685396249        0.7643352201        0.7547760564
 C          1.7509960534       -0.8398459917       -0.9195865126
 C          1.2522316534       -1.2879357049        0.4750822889
 C          1.5195204475        2.0282019320        0.5665647680
 H          2.9741709534        0.9284273248       -1.3429226718
 H          3.1984908526        0.9898823182        1.4345932890
 H          0.9291977584       -0.3406367802       -1.4361539394
 H          1.7871962463       -2.2008272991        0.7728363596
 H          0.5988342486        1.7522809024        0.0362479817
 H          2.0726842454        2.7737833519       -0.0064496381
 H          4.8090165382        0.0243376891       -0.3163232738
 H          3.0887042993       -2.1198706178       -1.4609987833
 H          0.8108495705        1.9755563949        2.3744916420
  32
        -58.17754393
 N         -2.4347729557       -1.2570682560        0.6364553389
 N         -0.9934788830        0.2393837304       -0.4909728390
 N         -3.3280392905        0.6659217154       -0.4298517407
 N         -0.2167356091       -1.7079884187        0.5409637367
 N         -4.6810959491       -0.8161155483        0.6698128590
 N         -1.8904927504        2.0816980613       -1.5115154180
 C         -1.2289080811       -0.8599960916        0.2215160262
 C         -3.4520152597       -0.4638683437        0.2768355109
 C         -2.0805268605        0.9723565628       -0.7840588841
 H         -0.5173118250       -2.4196741778        1.1911855170
 H         -5.4615195605       -0.2599177107        0.3718765840
 H         -4.8022229737       -1.6830319977        1.1603561410
 H         -0.9503522880        2.3921105055       -1.6802550543
 H         -2.6707651247        2.6975620721       -1.6531048114
 O          1.6194217728       -0.5599518596        1.5153123795
 O          3.9809578051       -0.1008064264       -0.5425087380
 O          2.3511836763       -1.8706229742       -1.6251789647
 O          1.8431134800        2.9644064142        0.4829376319
 C          2.6268026138        0.2797901245       -0.4767742999
 C          2.2454395407        0.5940472938        0.9741485484
 C          1.6975495974       -0.9020591728       -0.8620943330
 C          1.1962349820       -1.4536450039        0.4950322308
 C          1.3008639679        1.8049530888        1.0597379066
 H          2.4366139447        1.1566162686       -1.1008143904
 H          3.1525917282        0.7683538572        1.5654149438
 H          0.8438484251       -0.5529570378       -1.4425874895
 H          1.6778047152       -2.4212260017        0.6924938868
 H          1.0276018116        1.9645409723        2.1093882923
 H          0.3960052734        1.5638554280        0.4948751035
 H          4.3143684517        0.0427637295       -1.4397598026
 H          3.2317187920       -2.0171328746       -1.2346417632
 H          2.5961076450        3.2692987227        1.0097379516
  32
        -58.17753901
 N         -2.4963106580       -1.2678439064        0.6758244154
 N         -1.0075196103        0.0496497045       -0.6020665759
 N         -3.3131171428        0.6105196788       -0.5221358967
 N         -0.3000030929       -1.8433797213        0.5617995145
 N         -4.7161490518       -0.7058161574        0.7166626946
 N         -1.8247497445        1.8852110133       -1.7040408593
 C         -1.2840417092       -0.9690239599        0.2059126415
 C         -3.4799505439       -0.4495769608        0.2769042161
 C         -2.0604095275        0.8150912778       -0.9291758141
 H         -0.6106341258       -2.4756598907        1.2861359257
 H         -5.4705386747       -0.1177591960        0.4127958475
 H         -4.8677599769       -1.5105188225        1.2964712467
 H         -0.9242171919        1.9691750567       -2.1406729122
 H         -2.6158746895        2.3898038053       -2.0626920877
 O          1.3835254402       -0.4988586825        1.5057803362
 O          3.1103192720        0.7527721275       -1.3627917859
 O          2.8141985884       -1.8613135534       -1.0763914322
 O          2.7440465834        2.7711335889        0.7920700493
 C          2.0026282463        0.3866231658       -0.5906357761
 C          2.2426272171        0.4635948026        0.9257785021
 C          1.6701780418       -1.1001433202       -0.7965197635
 C          1.0996595736       -1.5379165553        0.5670356674
 C          1.9377352773        1.8494349842        1.4880355391
 H          1.1148359095        0.9785345118       -0.8439163005
 H          3.2920373816        0.2002527655        1.1321996395
 H          0.9184396963       -1.2384728022       -1.5816423657
 H          1.6271858682       -2.4497080389        0.8771711068
 H          2.1506329335        1.8576057682        2.5628186322
 H          0.8703117449        2.0540076971        1.3344656443
 H          3.3879492517        1.6404766480       -1.0877084766
 H          3.4131963214       -1.3035195127       -1.6030018317
 H          2.5857693156        3.6623934900        1.1340398806
  32
        -58.17750681
 N         -2.3346957023       -0.1271397140       -1.2380149629
 N         -1.8376704615       -0.4991633444        1.0466845947
 N         -4.0838126836       -0.1343799114        0.3666651106
 N         -0.1895965446       -0.5411509650       -0.5785385399
 N         -4.5129244414        0.2256098712       -1.8518682667
 N         -3.5509475126       -0.4880208154        2.5636659157
 C         -1.4952301413       -0.3653426192       -0.2304012080
 C         -3.6242519920       -0.0209476828       -0.8829340095
 C         -3.1513155069       -0.3714381766        1.2926870321
 H          0.0108325385       -0.2701885075       -1.5311855460
 H         -5.4851068148        0.2914069144       -1.6125091901
 H         -4.1918760431        0.2936874909       -2.7998937405
 H         -2.8673497670       -0.6872010690        3.2705490814
 H         -4.5300186519       -0.4204514671        2.7727932130
 O          1.4184335531        0.8983146091        0.3404886890
 O          4.3713484360       -0.8816600441       -0.4430145913
 O          2.5806325249       -1.8930408971        1.2595291151
 O          2.9351250473        3.2920605396       -0.3906191302
 C          3.0477497564       -0.4975661774       -0.6764467363
 C          2.7856392283        0.8825983206       -0.0569246551
 C          2.0313639716       -1.3886872548        0.0740595513
 C          0.8757095577       -0.4148652349        0.3726845773
 C          3.0548289106        2.0418210851       -1.0180555106
 H          2.8082317159       -0.4726153688       -1.7451267633
 H          3.4194371997        1.0005046963        0.8336238019
 H          1.6658639872       -2.2221108182       -0.5384361847
 H          0.4471842225       -0.6046320630        1.3618706136
 H          2.3620883654        1.9709161756       -1.8680386650
 H          4.0832599898        1.9771591314       -1.3787889588
 H          4.6355629249       -1.5765171924       -1.0638055646
 H          3.5461654237       -1.7529657146        1.2254383334
 H          2.0645079673        3.3406629288        0.0296612042
  32
        -58.17749241
 N         -1.9752107330       -0.8627913238        0.1963972192
 N         -2.0511651956        1.1147763508       -1.1045033587
 N         -4.0605627012        0.1800670712       -0.2531464121
 N         -0.0641373304        0.0606497135       -0.7225276316
 N         -3.9312353303       -1.7181538928        1.0187401162
 N         -4.0867497886        2.0760050307       -1.5317706392
 C         -1.4083921342        0.1066505154       -0.5143085399
 C         -3.3105341144       -0.7752269311        0.3017886482
 C         -3.3837549750        1.0988445244       -0.9485063678
 H          0.3116380689        0.8999134395       -1.1400702950
 H         -4.9306156201       -1.6863331853        1.1027887189
 H         -3.3845115780       -2.4525688256        1.4289248087
 H         -3.6006907580        2.7826698734       -2.0518793299
 H         -5.0832057736        2.0908836772       -1.4146949908
 O          1.4027353405        0.0387001243        1.1215694255
 O          4.3668567822       -0.8311875517       -0.5370878031
 O          2.3662538452       -2.5684393337       -0.2543856626
 O          2.8247755675        2.3028121155        2.2510028133
 C          3.0899280894       -0.2614220401       -0.5432437891
 C          2.7750963048        0.3137018203        0.8470544330
 C          1.9744263282       -1.3150069347       -0.7397337169
 C          0.8151229649       -0.7323690214        0.0888166364
 C          3.0336349719        1.8195677646        0.9493631859
 H          2.9988548780        0.5264125341       -1.2992201170
 H          3.3857944384       -0.2043731821        1.5988880852
 H          1.6688128300       -1.4170235498       -1.7878751833
 H          0.2073615844       -1.5188853363        0.5450722369
 H          2.3830588208        2.3469338292        0.2370774580
 H          4.0783488381        2.0258136596        0.7086067702
 H          4.6867452799       -0.9496357678       -1.4436937951
 H          3.3157407829       -2.5222957836       -0.0328986383
 H          1.9462669548        2.0192283973        2.5435628119
  32
        -58.17743299
 N         -2.0687416576       -0.8796895555        0.1975319491
 N         -2.2982817298        1.0898249963       -1.0951746213
 N         -4.2260897250        0.0304734339       -0.2032175725
 N         -0.2387132027        0.1685726671       -0.7607097961
 N         -3.9490953136       -1.8533304993        1.0654044065
 N         -4.3953079556        1.9246276710       -1.4778516497
 C         -1.5791737419        0.1258778264       -0.5205253347
 C         -3.4045507787       -0.8761064206        0.3320412827
 C         -3.6233552835        0.9910767942       -0.9102394902
 H          0.0699975216        1.0402257051       -1.1680042843
 H         -4.9480061539       -1.8960097332        1.1513230343
 H         -3.3505279667       -2.5625358816        1.4465823917
 H         -3.9579737706        2.6670040356       -1.9917418436
 H         -5.3873858124        1.8894508065       -1.3322622302
 O          1.2219731091        0.3186389764        1.0642859163
 O          4.2766059022       -0.6190298582       -0.5633502448
 O          2.2350826758       -2.3471148851       -0.3488143417
 O          4.6016546575        1.6545180903        1.4912008516
 C          3.0131783353       -0.0421125616       -0.4143533314
 C          2.6394176481        0.3106269834        1.0355600868
 C          1.9082446105       -1.0517501400       -0.7693141675
 C          0.7042043466       -0.5400230512        0.0464743315
 C          3.1943773025        1.6646595449        1.4869161733
 H          2.9059125021        0.8508899073       -1.0463335981
 H          3.0150674834       -0.4896700910        1.6936401298
 H          1.6722513244       -1.0468744924       -1.8411043755
 H          0.1719698531       -1.3790948154        0.5075214424
 H          2.7804157465        1.9158763877        2.4675248097
 H          2.8885606102        2.4358773359        0.7756965375
 H          4.9450761972        0.0228144562       -0.2776665741
 H          3.1691793828       -2.5034497926       -0.5693273447
 H          4.9207253377        1.2024978747        2.2849868147
  32
        -58.17740714
 N         -1.8905521714       -0.8453064189        0.2001759229
 N         -2.3977698603        1.1152224224       -1.0271515716
 N         -4.1528821177       -0.1887895378       -0.1031337888
 N         -0.2333119650        0.4382880943       -0.7822181052
 N         -3.6116057665       -2.0652657016        1.0879102512
 N         -4.5923978981        1.7071907852       -1.3061224893
 C         -1.5486374494        0.2307262616       -0.5041330212
 C         -3.2114724259       -1.0056397316        0.3755402102
 C         -3.6936005422        0.8549616074       -0.8003341842
 H         -0.0319118253        1.3412668110       -1.1872240138
 H         -4.5948318360       -2.2204565516        1.2139842018
 H         -2.9220960224       -2.7032703181        1.4397056333
 H         -4.2690637895        2.4953991305       -1.8356694408
 H         -5.5680177739        1.5329215651       -1.1495347319
 O          1.3070659659        0.6942800891        0.9530934247
 O          3.3932564848       -1.7603078096        0.7148185133
 O          1.9138898465       -1.7911179671       -1.5677356917
 O          4.8027357577        1.7651397322        1.1783372038
 C          3.1973244635       -0.5088641892        0.1010386700
 C          2.7039970443        0.5027831286        1.1458647264
 C          2.0324258459       -0.5652677785       -0.9176658296
 C          0.8130290121       -0.1891632008       -0.0478571666
 C          3.4123220710        1.8619344494        1.0194164026
 H          4.1245805558       -0.1506783352       -0.3562914680
 H          2.8642775976        0.0802576649        2.1472448303
 H          2.1692561841        0.1867916249       -1.6986178271
 H          0.3811449912       -1.0846380111        0.4207343402
 H          2.9665607095        2.5551217015        1.7414378223
 H          3.2466685125        2.2563241274        0.0141858249
 H          3.9725761657       -2.3033993520        0.1613850854
 H          1.8211713775       -2.4907520691       -0.9002721959
 H          5.0104676442        1.5183444256        2.0908544119
  32
        -58.17738432
 N         -2.3988071837       -1.0407320864        0.7629172265
 N         -0.9217391849        0.0127693313       -0.7508119207
 N         -3.1883841112        0.7053682111       -0.6376668479
 N         -0.2398496641       -1.7456208338        0.6216952470
 N         -4.5874428753       -0.3683975557        0.8201994588
 N         -1.7207688033        1.6763170346       -2.1037271878
 C         -1.2022550941       -0.8700379387        0.1996582188
 C         -3.3631827540       -0.2307130414        0.3011703775
 C         -1.9520369437        0.7857830581       -1.1308710606
 H         -0.5490790680       -2.2585637550        1.4366946411
 H         -5.3145015647        0.2530725351        0.5164377916
 H         -4.7334127927       -1.0405025592        1.5507449018
 H         -0.7721262588        1.8312712662       -2.3950580041
 H         -2.4430065998        2.3374793522       -2.3267308579
 O          1.5530813628       -0.4874067363        1.4953462627
 O          3.1360299826        0.8218268140       -1.4504145011
 O          2.8546561066       -1.8013144606       -1.1778935468
 O          1.0284480558        2.2550568273        1.5276768316
 C          2.1150109302        0.3907050504       -0.6091735757
 C          2.4771678902        0.4039084286        0.8872207746
 C          1.7010906616       -1.0787674663       -0.8224238242
 C          1.1715457346       -1.5037435831        0.5654732562
 C          2.3540267704        1.7841245384        1.5340955966
 H          1.2471825560        1.0382670509       -0.7640259085
 H          3.5019335482        0.0257041954        1.0192845764
 H          0.9154802271       -1.1645162475       -1.5731666696
 H          1.6660461642       -2.4385426198        0.8667062269
 H          2.9429849193        2.4976141386        0.9554799599
 H          2.7366928642        1.7378931974        2.5614089873
 H          3.7412589222        0.0732120658       -1.5925539211
 H          2.6112408382       -2.6249758467       -1.6204337001
 H          0.4845943406        1.5852976499        1.9656546927
  32
        -58.17737703
 N         -2.6052522940       -0.2984817800       -1.2066690196
 N         -1.7609896745       -0.3970543110        1.0034064005
 N         -4.1065654167       -0.3566888439        0.6308280592
 N         -0.3573312562       -0.4072348826       -0.8375050020
 N         -4.8717824564       -0.2554429286       -1.5242565768
 N         -3.2438961347       -0.4337871465        2.7476109636
 C         -1.6129440536       -0.3455841358       -0.3181839220
 C         -3.8373163500       -0.3077840712       -0.6774430731
 C         -3.0349141975       -0.3976522112        1.4261630115
 H         -0.3047524263       -0.2189379434       -1.8282410613
 H         -5.8042131896       -0.2829737648       -1.1549430827
 H         -4.6888967989       -0.2438686787       -2.5106019662
 H         -2.4553309999       -0.5108459544        3.3629227705
 H         -4.1875030529       -0.4796464973        3.0858887274
 O          1.2460404894        1.2010720124       -0.3147935367
 O          3.7206339291       -0.4409826780        1.2237241808
 O          2.0151354276       -2.2578519604        0.2342956504
 O          4.6702253350        2.3204011612       -0.9247050995
 C          3.2243494259       -0.1298435645       -0.0552128163
 C          2.6349207753        1.2940079762       -0.0345744321
 C          2.0125805241       -1.0287363049       -0.4199110303
 C          0.8051560516       -0.1293896881       -0.0672978235
 C          3.2792215773        2.2209437846       -1.0753552026
 H          4.0168788162       -0.1962251313       -0.8060699330
 H          2.7756465248        1.6996408512        0.9788131461
 H          1.9996593027       -1.2468497417       -1.4904065873
 H          0.5303837475       -0.2531877637        0.9898871439
 H          2.7919512790        3.2008483420       -1.0203544330
 H          3.1074751533        1.8058315303       -2.0710585230
 H          4.3753889566       -1.1505354368        1.1558082231
 H          2.1321151312       -2.1014123013        1.1865282369
 H          4.8779007542        2.7661916086       -0.0910506271
  32
        -58.17736094
 N         -2.3419033862        0.5823467431       -0.9506360434
 N         -1.6502326795       -1.0338308840        0.6351905178
 N         -3.9509728509       -0.4848814910        0.4295085497
 N         -0.1395984578       -0.0001338317       -0.7801138209
 N         -4.5732293847        1.0687962052       -1.1303152361
 N         -3.2348598006       -2.0521434904        1.9353806584
 C         -1.4183194455       -0.1460970108       -0.3264012465
 C         -3.6005451975        0.3704867040       -0.5353844519
 C         -2.9415817415       -1.1630266913        0.9803541619
 H         -0.0281021634        0.7845750704       -1.4080019654
 H         -5.5203016152        0.9374125387       -0.8257254907
 H         -4.3317054021        1.7259653392       -1.8488964888
 H         -2.4845013704       -2.5304919018        2.3991598624
 H         -4.1858742799       -2.1317991737        2.2459653943
 O          1.4864127131        0.7960785587        0.7247739382
 O          3.9684973523       -1.0164802163        0.8191336729
 O          2.2967673675       -2.2884607361       -0.7557814120
 O          2.4316882397        3.4248386966        0.0328583052
 C          3.4079294010       -0.2385668656       -0.2014300447
 C          2.8490459714        1.0586272348        0.3907300651
 C          2.1589146577       -0.8995427448       -0.8168954069
 C          0.9937309377       -0.3400774576        0.0315602290
 C          2.9324854056        2.2557470545       -0.5646610041
 H          4.1657161388       -0.0324706724       -0.9696632896
 H          3.3646038988        1.2995779571        1.3258152179
 H          2.0378990889       -0.5614890627       -1.8548956740
 H          0.6462504240       -1.0764122426        0.7663147359
 H          2.3741804721        2.0297708555       -1.4845631224
 H          3.9735958349        2.4606686231       -0.8183252610
 H          3.8507066805       -1.9522121951        0.5826614187
 H          1.5123728660       -2.7174747130       -1.1220182055
 H          1.5927509309        3.2083227492        0.4667062210
  32
        -58.17735440
 N         -2.2288426222        1.0967588236       -0.1691943199
 N         -1.5902762570       -1.1840965873       -0.1185350346
 N         -3.8911881296       -0.5975836218       -0.1279974974
 N         -0.0248990707        0.5126676603       -0.2405310608
 N         -4.4571911365        1.6198238658       -0.1707236695
 N         -3.2242401144       -2.7848834036       -0.0243043484
 C         -1.3195930805        0.1205342017       -0.1551517240
 C         -3.5021857145        0.6816803282       -0.1585569358
 C         -2.8958934470       -1.4871624156       -0.1002796485
 H          0.1320676156        1.4979656886       -0.0640603786
 H         -5.4184423105        1.3336031683       -0.1922107123
 H         -4.1862951651        2.5840833817       -0.2256917269
 H         -2.4943652730       -3.4678627122       -0.1136880686
 H         -4.1913605574       -3.0378746812       -0.1148241344
 O          1.7144672530       -0.0215076423        1.2508118099
 O          4.1186488789       -1.2316234797        0.0457866474
 O          2.2407531981       -1.5193267677       -1.8082157313
 O          1.4862576356        2.6669687939        1.2799866955
 C          3.4594217954       -0.0373711362       -0.2801599713
 C          2.9130165453        0.6884487866        0.9519456176
 C          2.1589284051       -0.3378875025       -1.0720327972
 C          1.0680493856       -0.3737969421        0.0409119550
 C          2.6626953356        2.1923540652        0.6767119188
 H          4.1695257515        0.5584427379       -0.8538631729
 H          3.5573826008        0.5625028769        1.8260559372
 H          1.9222397494        0.4709699721       -1.7700428555
 H          0.6394381178       -1.3758420713        0.1446169621
 H          2.5282281944        2.3637442035       -0.3932797149
 H          3.5345844432        2.7655040581        1.0145476861
 H          3.6370392716       -1.6765261227        0.7605403737
 H          2.9929324643       -2.0376279476       -1.4623099580
 H          1.5087269641        2.4769395026        2.2286131227
  32
        -58.17729701
 N         -2.2401535912       -0.8559481939        0.8944830775
 N         -0.9077057024       -0.1020790761       -0.9058440481
 N         -3.0864514100        0.7881472313       -0.5920833330
 N         -0.1762310298       -1.7436373131        0.5889212386
 N         -4.3464510940        0.0032632451        1.1500434661
 N         -1.7656590795        1.4665517111       -2.3333762266
 C         -1.1158496753       -0.8462406878        0.1747655857
 C         -3.1987693120       -0.0229609076        0.4649898756
 C         -1.9256263114        0.7070798930       -1.2431896063
 H         -0.4595860547       -2.1915570221        1.4512606326
 H         -5.0744577574        0.6270367995        0.8534655890
 H         -4.4480732105       -0.5933791570        1.9502634385
 H         -0.8672908318        1.4879157228       -2.7807685349
 H         -2.4751413891        2.1412313362       -2.5553781309
 O          1.9135274386       -0.9678428635        1.4314674934
 O          3.1740235222        0.8907067220       -1.1403169621
 O          2.8998414067       -1.7030305509       -1.3796068476
 O          1.2082991470        2.6391050287        1.2353437406
 C          2.0146341475        0.3963247597       -0.5311044337
 C          2.1283097713        0.3743997761        1.0109593022
 C          1.7356446096       -1.0824660431       -0.9057979600
 C          1.2505903891       -1.7024977632        0.4097057838
 C          1.1202728758        1.3159918135        1.6898532696
 H          1.1649689795        1.0229572107       -0.8212437197
 H          3.1468985280        0.6489280161        1.3112149187
 H          0.9869991633       -1.1661640129       -1.6908340610
 H          1.6026163157       -2.7362155266        0.5106885582
 H          1.2575316252        1.2547273843        2.7775088170
 H          0.1052022008        0.9844781536        1.4551104216
 H          3.5612943506        0.1683189381       -1.6707830852
 H          3.5151699784       -1.8499569743       -0.6440440150
 H          2.0946534108        2.9855454220        1.4153655869
  32
        -58.17721094
 N         -2.3601619042       -1.1042348405        0.6938375111
 N         -0.9836980741        0.2572607140       -0.6634158539
 N         -3.3252132265        0.6460368682       -0.5839561083
 N         -0.1459201047       -1.5438361674        0.5761421519
 N         -4.6111479568       -0.6901147304        0.7563898904
 N         -1.9515050340        1.9488355076       -1.8651680055
 C         -1.1767726953       -0.7494610421        0.1858919717
 C         -3.4035595188       -0.3772940822        0.2743225425
 C         -2.0961454153        0.9247290909       -1.0165870334
 H         -0.4315622328       -2.1930113035        1.2951049042
 H         -5.4095734117       -0.1754490895        0.4327960470
 H         -4.6989459859       -1.4751336085        1.3749881729
 H         -1.0425685337        2.1599445916       -2.2335987920
 H         -2.7692128854        2.4507175899       -2.1592467433
 O          1.7312370254       -0.3624242900        1.4183846955
 O          4.0958590296       -0.3961877040       -0.5517073148
 O          2.2292421117       -1.8822192732       -1.7176750237
 O          1.1139574862        2.4469041444        1.9548536358
 C          2.8280527951        0.2080017731       -0.5863543862
 C          2.3751582205        0.7389142929        0.7742299038
 C          1.7411141079       -0.8386270460       -0.9284710474
 C          1.2647180722       -1.3156986012        0.4653699130
 C          1.4299710557        1.9424704200        0.6776839378
 H          2.8900199646        0.9912224774       -1.3421272519
 H          3.2264999341        1.0130801752        1.4075684024
 H          0.8984276173       -0.3728173495       -1.4438098940
 H          1.7395657784       -2.2776468342        0.7036011152
 H          0.5211935646        1.6391302225        0.1414054052
 H          1.9193804335        2.7589277223        0.1452513775
 H          4.1961234163       -0.9037122137        0.2677926361
 H          3.2048125528       -1.8490525149       -1.6829915218
 H          0.7910593931        1.7147324063        2.4992336172
  32
        -58.17719309
 N         -2.3891849377        0.6778396382       -0.8189697880
 N         -1.7165876863       -1.1101052958        0.5818689313
 N         -4.0189524901       -0.5640928411        0.3786610752
 N         -0.1883315306        0.1043415491       -0.6610897756
 N         -4.6211571942        1.1640311795       -0.9938340228
 N         -3.3195171308       -2.2655492364        1.7378824722
 C         -1.4710191680       -0.1149264327       -0.2654791391
 C         -3.6538489275        0.4058647993       -0.4649527877
 C         -3.0139276549       -1.2897464387        0.8750698051
 H         -0.0630094977        0.9573025866       -1.1869484785
 H         -5.5729920952        0.9894530332       -0.7285192371
 H         -4.3697990450        1.9068494228       -1.6193033423
 H         -2.5836809968       -2.8451317984        2.0970067283
 H         -4.2847474264       -2.4387827750        1.9503043120
 O          1.4259055633        0.4973543762        1.0253163083
 O          4.0072593077       -0.9534990734        0.6176434743
 O          2.3277791105       -2.1131655595       -1.0786794852
 O          3.5219606683        3.2138330068       -0.2480937859
 C          3.3257121867       -0.0486087985       -0.2102956315
 C          2.6450414194        1.0780330325        0.5734730139
 C          2.1222318126       -0.7471255298       -0.8949140803
 C          0.9359574752       -0.4194180894        0.0531408834
 C          2.4112675762        2.3553395612       -0.2567112958
 H          4.0590013077        0.3035262163       -0.9367106251
 H          3.2100671746        1.3551891764        1.4695053800
 H          1.9194413503       -0.3109592363       -1.8783234364
 H          0.5735459987       -1.3091978502        0.5775855748
 H          1.5968340916        2.9149242079        0.2097494802
 H          2.1221969891        2.0975404281       -1.2832392137
 H          3.4984830041       -1.0942985722        1.4308548419
 H          3.0589497146       -2.3873781934       -0.4923040255
 H          4.2657148995        2.8024417934       -0.7101128844
  32
        -58.17718715
 N         -2.5499586990       -0.0632522997        0.9850982862
 N         -1.3620356791       -0.4751349271       -1.0235094172
 N         -3.7334716342       -0.4337139641       -1.0398556731
 N         -0.2650047241       -0.0799045504        0.9635079005
 N         -4.8369607499       -0.0156469961        0.9202657714
 N         -2.5473204475       -0.8291445481       -2.9534480458
 C         -1.4263082785       -0.2227744339        0.2898239528
 C         -3.6800193714       -0.1733427927        0.2713066353
 C         -2.5524787382       -0.5742051087       -1.6409837511
 H         -0.3156578251       -0.0084407858        1.9679724226
 H         -5.6970391818       -0.0948974440        0.4090961495
 H         -4.8177731797        0.1839953139        1.9034703085
 H         -1.6751679973       -0.9297656526       -3.4400215212
 H         -3.4262595794       -0.8983974542       -3.4330747616
 O          1.9808499814       -0.4710403000        1.3997843956
 O          3.6336057646       -0.5890477586       -1.1825940665
 O          1.1389193067       -0.0571682718       -2.0054729518
 O          3.1519386635        1.5113432065        3.1224347506
 C          2.9884624862        0.4707545332       -0.5312293309
 C          3.1106461134        0.3024669845        0.9887525938
 C          1.4659315383        0.4281759958       -0.7398435381
 C          0.9976400359       -0.4992285374        0.4046547220
 C          3.1533038435        1.6500497028        1.7266549638
 H          3.4118223942        1.4277855858       -0.8643601732
 H          3.9990964801       -0.2908922458        1.2303630967
 H          1.0395327573        1.4292152982       -0.5791239654
 H          0.9053298292       -1.5294111545        0.0129248064
 H          2.2579385212        2.2286430377        1.4895018317
 H          4.0390776751        2.2045324379        1.3894480981
 H          3.1701538974       -0.7453580709       -2.0230852440
 H          0.1808388674       -0.2918500288       -1.9509152650
 H          3.8930375702        0.9510956769        3.3937693575
  32
        -58.17717036
 N         -2.1457435019        0.0912770109       -1.2085189772
 N         -1.7759091862       -0.5937936833        1.0278115160
 N         -3.9568583039        0.0289094430        0.3239908888
 N         -0.0663212238       -0.5612017233       -0.5302556059
 N         -4.2684932881        0.6624029844       -1.8525182594
 N         -3.5519141607       -0.6515192993        2.4704783764
 C         -1.3713411017       -0.3305482229       -0.2104068888
 C         -3.4385885898        0.2525245122       -0.8869262807
 C         -3.0863247685       -0.3950935984        1.2433427549
 H          0.1959275748       -0.2071792114       -1.4385809658
 H         -5.2307876503        0.8321101762       -1.6238281606
 H         -3.8920950856        0.8733826810       -2.7583020552
 H         -2.9075932120       -0.9360903011        3.1850128620
 H         -4.5214896489       -0.4817734439        2.6656446302
 O          1.5324888196        0.5885183445        0.8158001119
 O          4.3608543479       -0.7784874499       -0.7302838337
 O          2.8581882787       -2.0732529379        1.0585908548
 O          2.1605579569        3.2354239365       -0.3707509372
 C          3.0000713956       -0.4718361876       -0.7530166865
 C          2.6595847665        0.8526606635       -0.0211098859
 C          2.1331904468       -1.5122659799       -0.0019642248
 C          0.9515761219       -0.6588795783        0.4746672592
 C          2.3983635340        2.0037272869       -1.0013351966
 H          2.6943107342       -0.4055275016       -1.8024467140
 H          3.4880688158        1.1350786184        0.6411275487
 H          1.8205229466       -2.3379495268       -0.6407980245
 H          0.4630391453       -1.0455045687        1.3730436260
 H          1.4970253827        1.7995301759       -1.5838740649
 H          3.2585365203        2.0703425191       -1.6816540364
 H          4.5107038991       -1.4266834382       -0.0162125994
 H          2.8839536359       -1.4495413970        1.8004307367
 H          2.9217078527        3.4712726154        0.1787400753
  32
        -58.17715033
 N         -2.3567158452       -1.1619545968        0.6677542296
 N         -0.9825734016        0.2158550015       -0.6733323273
 N         -3.3009046572        0.6890477084       -0.4756858226
 N         -0.1532681973       -1.6621953350        0.4487689780
 N         -4.5932399347       -0.6930208629        0.8119051313
 N         -1.9365575784        1.9847505632       -1.7742787868
 C         -1.1815187485       -0.8165348357        0.1415868181
 C         -3.3897028228       -0.3807179123        0.3221324611
 C         -2.0803390077        0.9430308834       -0.9457982280
 H         -0.4261144692       -2.3041966350        1.1806758543
 H         -5.3742998275       -0.1015096663        0.5942899898
 H         -4.6765725082       -1.4762499560        1.4336475158
 H         -1.0156676192        2.2510513833       -2.0718504641
 H         -2.7257614562        2.5865213101       -1.9261195971
 O          1.5351393348       -0.2798567041        1.3599590221
 O          4.0965732013       -0.4416355663       -0.3562566297
 O          2.3370738476       -1.8771201501       -1.7033009438
 O          1.1585537210        2.5720242529        1.8437457043
 C          2.8518994992        0.1708092718       -0.5621999373
 C          2.3374059589        0.7400479247        0.7626378950
 C          1.7640203923       -0.8495651765       -0.9437320255
 C          1.2408195532       -1.3160461535        0.4325371300
 C          1.5039688303        2.0153283967        0.5976467781
 H          2.9451151148        0.9551751217       -1.3248516204
 H          3.1762746379        0.9304225560        1.4413385383
 H          0.9525615707       -0.3442298270       -1.4744750298
 H          1.7934990009       -2.2165188348        0.7380181604
 H          0.6006113941        1.7651977833        0.0243397842
 H          2.0800709349        2.7792712085        0.0743646602
 H          4.1971524348       -1.1436302073       -1.0210442076
 H          1.6465064773       -2.4418800795       -2.0739550040
 H          0.7867595470        1.8690736511        2.3951068419
  32
        -58.17704824
 N         -2.5136692342       -1.2525804831        0.7009757908
 N         -1.0450939197        0.0358120680       -0.6289032431
 N         -3.3574936994        0.5713110858       -0.5608832563
 N         -0.3145137257       -1.8135789727        0.5914456707
 N         -4.7407004202       -0.7191884303        0.7261698105
 N         -1.8890873934        1.8163557505       -1.7968742838
 C         -1.3071919677       -0.9577897240        0.2140836737
 C         -3.5084791795       -0.4607800951        0.2767253016
 C         -2.1085484025        0.7770018677       -0.9790888920
 H         -0.6164699983       -2.4238120200        1.3381101799
 H         -5.5005739479       -0.1402741491        0.4186038207
 H         -4.8778071607       -1.4927518031        1.3501882755
 H         -0.9830442595        1.9156291190       -2.2176241177
 H         -2.6831278433        2.3164211987       -2.1542925357
 O          1.3893510069       -0.4713884330        1.5061142980
 O          3.0280837691        0.8045273563       -1.4130578635
 O          2.7789486901       -1.8326218674       -1.0869380422
 O          2.9705072411        2.7781051745        0.9521050164
 C          1.9670529028        0.4127268311       -0.5901123248
 C          2.2810514457        0.4554509410        0.9149831880
 C          1.6349000745       -1.0733076394       -0.7996162353
 C          1.0840801097       -1.5110220684        0.5719561731
 C          2.0848794688        1.8461818727        1.5232804945
 H          1.0581539454        0.9954980323       -0.7810421883
 H          3.3190512556        0.1148831996        1.0672485245
 H          0.8750715491       -1.2111733791       -1.5763571297
 H          1.6158407340       -2.4238589656        0.8728847997
 H          2.1951060191        1.7871155474        2.6102527829
 H          1.0726781093        2.1905694593        1.2969087489
 H          3.2120620269        1.7417121524       -1.2470655405
 H          3.3351189909       -1.3090423277       -1.6885870854
 H          3.8520456330        2.6636154423        1.3349858158
  32
        -58.17698736
 N         -2.3618291324        0.2000396674       -1.1690429627
 N         -1.8176022093       -0.7101960859        0.9479859547
 N         -4.0846561020       -0.2675353172        0.3952171980
 N         -0.1969154747       -0.2968052693       -0.6519134131
 N         -4.5581476374        0.6289321162       -1.6563547314
 N         -3.5076057835       -1.1335207872        2.4324625921
 C         -1.4996425187       -0.2543177855       -0.2594245060
 C         -3.6480602806        0.1716631343       -0.7888447954
 C         -3.1306409950       -0.6939824534        1.2266568230
 H         -0.0150221483        0.1816641514       -1.5227127943
 H         -5.5290184332        0.5881164853       -1.4060290501
 H         -4.2546487071        0.9271965320       -2.5648694883
 H         -2.8089884068       -1.4901750803        3.0579805494
 H         -4.4861814650       -1.1651570946        2.6525708450
 O          1.3944364297        0.8918705738        0.5800851316
 O          4.4020402481       -0.7481888625       -0.4695965544
 O          2.4865091389       -2.1340606116        0.7130032275
 O          2.7198815216        2.7209044551       -1.1585986505
 C          3.1309521148       -0.1760257529       -0.5858295243
 C          2.8122921283        0.9042570297        0.4645977082
 C          2.0580223179       -1.2361674315       -0.2729102438
 C          0.8827605268       -0.4038197395        0.2768099983
 C          3.2604569901        2.3156220093        0.0740279559
 H          2.9609071430        0.2384752867       -1.5876932587
 H          3.2685808468        0.6187976076        1.4236398681
 H          1.7490172279       -1.7840547745       -1.1729127352
 H          0.4849268161       -0.8693333552        1.1855375246
 H          4.3449368733        2.3384348000       -0.0418217644
 H          2.9713677590        3.0077446580        0.8727766914
 H          5.0725166951       -0.1448194614       -0.8159557494
 H          3.4234916575       -2.3349144029        0.5465954319
 H          1.7579762742        2.7615350782       -1.0635463826
  32
        -58.17698382
 N         -2.2882242445       -0.8963609401        0.8864896681
 N         -0.9377933446       -0.1035141980       -0.8827949290
 N         -3.1503150255        0.7186628488       -0.6223842732
 N         -0.2014511077       -1.7375446244        0.6178897645
 N         -4.4267817575       -0.1054718550        1.0895520255
 N         -1.7874777587        1.4863308038       -2.2928135247
 C         -1.1499780919       -0.8578824409        0.1909239017
 C         -3.2616194229       -0.0931889782        0.4351000810
 C         -1.9713925730        0.6762153214       -1.2424515207
 H         -0.4889327145       -2.1864904851        1.4782122796
 H         -5.1608262620        0.5080299122        0.7862832950
 H         -4.5234849887       -0.6935330335        1.8968143429
 H         -0.9459410920        1.3968726605       -2.8329449101
 H         -2.5729084986        2.0092516851       -2.6358856527
 O          1.8662558731       -0.8972236653        1.4475001666
 O          3.0564557121        0.9045781723       -1.2720204311
 O          2.9149040481       -1.7371886306       -1.3006796461
 O          1.7015430878        2.7632242942        1.4397003100
 C          1.9643381375        0.3762150707       -0.5776671985
 C          2.1442365045        0.4106925084        0.9597527096
 C          1.7254630285       -1.1228572552       -0.8845060177
 C          1.2265234660       -1.6846487434        0.4509841579
 C          1.2412269704        1.4525802897        1.6344063555
 H          1.0676228592        0.9384869285       -0.8574833354
 H          3.1855178777        0.6440476519        1.2158017252
 H          0.9972398568       -1.2625055435       -1.6811265974
 H          1.5864895051       -2.7098278065        0.6008141990
 H          1.2462463195        1.2820283548        2.7134179968
 H          0.2099343098        1.3372215365        1.2677163756
 H          3.5416203830        0.1628862161       -1.6800855476
 H          3.5094363155       -1.8466134956       -0.5422016203
 H          1.8276687068        2.9250143154        0.4931242453
  32
        -58.17695175
 N         -1.9527410982       -0.9055151380        0.1463064633
 N         -1.9883440253        1.2650099459       -0.8013480304
 N         -4.0262248076        0.1884184764       -0.2331168859
 N         -0.0102246367        0.1744392674       -0.4872473209
 N         -3.9390641243       -1.9038176624        0.6889496034
 N         -4.0085670221        2.2900543533       -1.1377694118
 C         -1.3622100763        0.1747048018       -0.3568436034
 C         -3.2928025878       -0.8457892945        0.1864670081
 C         -3.3261526575        1.2190637756       -0.7164445406
 H          0.3883015433        1.0565340326       -0.7775648699
 H         -4.9424004261       -1.8969630483        0.7042976751
 H         -3.4066421544       -2.7026196995        0.9805573423
 H         -3.5040318922        3.0623130677       -1.5322272122
 H         -5.0113012849        2.2673689873       -1.1076516637
 O          1.4576368999       -0.1540618311        1.3211416264
 O          4.3447479927       -0.8476990850       -0.6320065170
 O          2.3324804332       -2.5547034856       -0.3416660022
 O          2.3171019314        2.4550474447        0.6612353138
 C          3.1038894440       -0.2427755133       -0.3993571675
 C          2.8398242499        0.1126054686        1.0782935165
 C          1.9809484108       -1.2498877364       -0.7069925427
 C          0.8420313842       -0.7552080247        0.1955116322
 C          3.1330936221        1.5834364945        1.4069840186
 H          2.9675509544        0.6535709360       -1.0176699713
 H          3.4381953055       -0.5408976241        1.7264547955
 H          1.6797864174       -1.2180988084       -1.7623822738
 H          0.2129238975       -1.5806209980        0.5393734366
 H          4.1632894788        1.8254017042        1.1427550349
 H          2.9908066092        1.7432714661        2.4810049905
 H          5.0510056362       -0.1885011354       -0.6143153404
 H          3.2676939578       -2.6856272888       -0.5733598566
 H          1.4040257201        2.3285815867        0.9555509433
  32
        -58.17689012
 N         -2.3947603422       -1.1902269941        0.7047977105
 N         -1.0486016255        0.2127340635       -0.6376362130
 N         -3.3798460916        0.6271439030       -0.4586245511
 N         -0.1940182445       -1.6586031419        0.4862998896
 N         -4.6364244498       -0.7547050232        0.8642208911
 N         -2.0282134868        1.9835835846       -1.7113576121
 C         -1.2231640175       -0.8265254646        0.1763575097
 C         -3.4425477089       -0.4331873196        0.3558061539
 C         -2.1632328769        0.9068654520       -0.9225503968
 H         -0.4762239722       -2.3355252121        1.1820258356
 H         -5.4384627050       -0.2125261212        0.5999334107
 H         -4.7110282578       -1.5636637214        1.4530735883
 H         -1.1570770971        2.1171678090       -2.1930024052
 H         -2.8649766428        2.4356843570       -2.0346802499
 O          1.6745243562       -0.6078811904        1.5037866329
 O          4.0470436746       -0.2935607136       -0.3954231029
 O          2.2752701519       -1.6876671025       -1.7770480732
 O          1.9518370628        2.9324577486        0.6833540890
 C          2.7597370813        0.2697275073       -0.3844510851
 C          2.2542514723        0.5969049029        1.0210373492
 C          1.7211889723       -0.7625286286       -0.8889295657
 C          1.2197178369       -1.4207702463        0.4207880049
 C          1.2546179801        1.7582662831        1.0284725905
 H          2.8096797505        1.1578401413       -1.0147451180
 H          3.0816673593        0.8524461064        1.6916713416
 H          0.8777362804       -0.2714191864       -1.3778442902
 H          1.6892819813       -2.4071580726        0.5365262358
 H          0.8280865191        1.8291201021        2.0373318568
 H          0.4482740235        1.5439863398        0.3157344677
 H          4.1529558671       -0.8818995759        0.3672663413
 H          3.2474067780       -1.6226777974       -1.7015809274
 H          1.3547171424        3.6911228336        0.7489524469
  32
        -58.17687717
 N         -2.3267008883       -0.9360593106        0.8054910761
 N         -0.8992929317        0.0029497939       -0.8285253137
 N         -3.1656469504        0.6995063923       -0.6940676067
 N         -0.1844525050       -1.6604590132        0.6482503893
 N         -4.5058477914       -0.2407973426        0.9051365540
 N         -1.7374875842        1.6065032794       -2.2339142217
 C         -1.1473740397       -0.8146841460        0.1913767728
 C         -3.3051509852       -0.1577776678        0.3240677771
 C         -1.9470365064        0.7405394522       -1.2309455348
 H         -0.4917299182       -2.1511694741        1.4769760305
 H         -5.2522412990        0.3358643023        0.5624661109
 H         -4.6344519966       -0.8814418150        1.6665637428
 H         -0.8781931896        1.5444406499       -2.7494625333
 H         -2.5354180138        2.0760457806       -2.6234260213
 O          1.7569566501       -0.5379569172        1.4141087535
 O          3.2351260655        0.6095096657       -1.5110336413
 O          2.8824521116       -1.9300782454       -1.1604704489
 O          1.5067026382        2.1080590393        2.5357249396
 C          2.0605115237        0.3493137076       -0.7925841559
 C          2.1816721872        0.6318543279        0.7196717501
 C          1.7465258706       -1.1607323673       -0.8752954658
 C          1.2426539287       -1.5183914807        0.5297724570
 C          1.3325821213        1.8261624187        1.1709129262
 H          1.2059863199        0.9001744359       -1.1968507711
 H          3.2305769572        0.8032353590        0.9953830351
 H          0.9646826236       -1.3570668283       -1.6172820109
 H          1.6787219407       -2.4782422379        0.8301290415
 H          0.2770814811        1.6096241571        0.9497489255
 H          1.6300637333        2.7291292557        0.6353934823
 H          3.3463359616        1.5602271470       -1.6416661769
 H          3.5155949648       -1.3604395793       -1.6321046906
 H          1.3835396597        1.2867978387        3.0340826944
  32
        -58.17685057
 N         -2.2243657218        1.0664596266       -0.3021714995
 N         -1.6614607369       -1.2052037894        0.0655118334
 N         -3.9386201696       -0.5304436054        0.0835210553
 N         -0.0476469644        0.3885685110       -0.3831344541
 N         -4.4301183104        1.6771232733       -0.2695454106
 N         -3.3417097890       -2.7064586202        0.4666561718
 C         -1.3474206665        0.0670789646       -0.1790161254
 C         -3.5079751543        0.7114908837       -0.1626001807
 C         -2.9732274466       -1.4472208137        0.1921923856
 H          0.1547235831        1.3820133976       -0.4164694632
 H         -5.4001369674        1.4317325741       -0.1975116094
 H         -4.1300729427        2.6093016363       -0.4864491885
 H         -2.6387284556       -3.4223233488        0.4672647987
 H         -4.3203650859       -2.9276907290        0.4828509653
 O          1.5539207423       -0.0964821351        1.2788391595
 O          4.1762375737       -1.0884436419        0.1488625437
 O          2.4313827290       -1.5607793030       -1.7060555758
 O          1.8703268734        2.6032600829       -0.1510219164
 C          3.4209923613        0.0605903519       -0.1411281361
 C          2.7527990108        0.6515549000        1.1132301407
 C          2.2107654536       -0.3789626657       -1.0027754421
 C          1.0365836894       -0.4630706119        0.0140279505
 C          2.4971475130        2.1708514528        1.0359713577
 H          4.0365962142        0.7993384993       -0.6651342505
 H          3.3427462054        0.4556833589        2.0136803380
 H          1.9638478755        0.3817716867       -1.7477191397
 H          0.6334604375       -1.4765526529        0.0923220684
 H          3.4442433693        2.6959438762        1.1906089410
 H          1.8127930249        2.4272278463        1.8486226872
 H          5.0027344843       -0.8457381526        0.5875161796
 H          2.9919109506       -2.1394419739       -1.1608641207
 H          2.5274041457        2.7407792552       -0.8458122965
  32
        -58.17684005
 N         -1.9225525121       -0.9414535436        0.1229058386
 N         -2.1794641340        1.2558265760       -0.7216029986
 N         -4.0915590670        0.0044644614       -0.0779121321
 N         -0.1093259516        0.3076590495       -0.5907824961
 N         -3.7890071267       -2.1085332847        0.7468973397
 N         -4.2892754089        2.1315996991       -0.8962618713
 C         -1.4474736934        0.1993277877       -0.3664197784
 C         -3.2579285931       -0.9859002703        0.2502934084
 C         -3.5024454672        1.1029504003       -0.5595542433
 H          0.1865473136        1.2449207026       -0.8234425719
 H         -4.7864930896       -2.1784458033        0.8302507948
 H         -3.1800902901       -2.8729382678        0.9739382527
 H         -3.8729750552        2.9524302595       -1.2951363181
 H         -5.2834828950        2.0290907472       -0.8082456555
 O          1.3492039221       -0.0251620940        1.2441974248
 O          3.9647712630       -1.5501593983        0.4777884701
 O          2.0554297357       -2.2190285414       -1.2121894773
 O          4.0193409271        2.3810779959        0.6562501805
 C          3.2870909621       -0.4401763797       -0.0365917999
 C          2.6683085833        0.4602678084        1.0448097145
 C          2.0522243785       -0.8594686159       -0.8817673095
 C          0.8419965893       -0.5642032503        0.0329658780
 C          2.6835865524        1.9407751570        0.6406251828
 H          4.0281584622        0.1094705699       -0.6197681691
 H          3.2025375435        0.3570376401        1.9941060411
 H          1.9788277322       -0.2454999989       -1.7901469977
 H          0.2997558263       -1.4848870915        0.2713240928
 H          2.0676677800        2.4945196011        1.3597013947
 H          2.2507441804        2.0521586231       -0.3628888684
 H          3.3542148369       -2.0837621426        1.0085987957
 H          2.9407486498       -2.4706729663       -1.5199026072
 H          4.0495981508        3.3321259634        0.4783855152
  32
        -58.17681959
 N         -2.3858748817        0.7792788014       -0.7144429924
 N         -1.7379139727       -1.1828756019        0.4424440892
 N         -4.0323501255       -0.5827064888        0.3189871667
 N         -0.1928303621        0.1578969643       -0.6420476731
 N         -4.6105439864        1.3187751219       -0.8130813040
 N         -3.3558586782       -2.4596463230        1.4378674291
 C         -1.4787984717       -0.0911016533       -0.2696518565
 C         -3.6541784880        0.4826553894       -0.3931744838
 C         -3.0374816082       -1.3814416770        0.7133873151
 H         -0.0636223822        1.0733723412       -1.0491179020
 H         -5.5652129279        1.1204611048       -0.5758795482
 H         -4.3504252300        2.1277903352       -1.3460105078
 H         -2.6254852924       -3.0846795111        1.7248109466
 H         -4.3222412520       -2.6419983014        1.6372573041
 O          1.4047723790        0.3627525003        1.0938680310
 O          4.1921368339       -0.8416084150        0.3459598117
 O          2.3158782775       -2.0689759117       -1.0476769771
 O          3.6030235385        3.0173376103       -0.0844607622
 C          3.3061857424        0.0478551474       -0.2703284254
 C          2.6120914448        1.0051871743        0.7130182558
 C          2.1091068302       -0.6903340332       -0.9328636117
 C          0.9245728239       -0.4409269660        0.0269997466
 C          2.3587203040        2.3861477845        0.0927552549
 H          3.9075809202        0.6061774334       -0.9901028302
 H          3.2125674723        1.1381273398        1.6179001136
 H          1.8785940331       -0.2511875871       -1.9129832967
 H          0.5589988668       -1.3825185795        0.4491731124
 H          1.7131408702        2.9513881246        0.7759396668
 H          1.8435932928        2.2680173099       -0.8704557659
 H          3.7046314175       -1.4094726673        0.9617970683
 H          3.1523695306       -2.2313592848       -1.5109499592
 H          3.4659269146        3.9231018075       -0.3970849896
  32
        -58.17682822
 N         -2.2694649559       -0.0540272171       -1.2312253976
 N         -1.8191820095       -0.5390522236        1.0421379925
 N         -4.0470341660       -0.1076648868        0.3408324286
 N         -0.1433666915       -0.5302033494       -0.5545428411
 N         -4.4298541624        0.3666549306       -1.8648499059
 N         -3.5596703972       -0.5732324098        2.5274061643
 C         -1.4521158344       -0.3525076042       -0.2212770557
 C         -3.5634075535        0.0564848496       -0.8938403367
 C         -3.1350110575       -0.4022026199        1.2709524095
 H          0.0766105521       -0.2307469580       -1.4939676020
 H         -5.4066413340        0.4225320599       -1.6421481516
 H         -4.0921875736        0.4599384692       -2.8050026027
 H         -2.8907782403       -0.8055542749        3.2382012764
 H         -4.5402990445       -0.4914158326        2.7236977690
 O          1.4589749600        0.8235990773        0.5154268507
 O          4.3289469273       -0.9647425537       -0.5976085887
 O          2.6539258053       -1.9002135787        1.2342809942
 O          2.6958578955        3.2927309822       -0.3273325023
 C          3.0211535262       -0.4862183376       -0.7176393579
 C          2.7731163280        0.8768880651       -0.0429899769
 C          2.0682088412       -1.4160456873        0.0595596964
 C          0.9076280856       -0.4786694261        0.4204909193
 C          2.8573270891        2.0701870367       -0.9995826905
 H          2.7064227061       -0.4440007013       -1.7689247282
 H          3.4862249960        1.0152156673        0.7817386973
 H          1.7144630937       -2.2491187765       -0.5616973363
 H          0.4657389534       -0.7419791937        1.3854364072
 H          2.0909659926        1.9581352285       -1.7796653924
 H          3.8434762453        2.1127749384       -1.4656195088
 H          4.9334386947       -0.4491535111       -1.1478356422
 H          3.5815623416       -2.1167618773        1.0386768739
 H          1.8809508243        3.2469132492        0.1931962100
  32
        -58.17669627
 N         -2.4310918716       -1.0797271483        0.7496084329
 N         -0.9747039275        0.0095494342       -0.7600861463
 N         -3.2727183206        0.6042525098       -0.6942774753
 N         -0.2496728643       -1.7033772958        0.6493997945
 N         -4.6422222908       -0.4849172494        0.7805427226
 N         -1.8175693983        1.6566513043       -2.1116870862
 C         -1.2331008417       -0.8736966848        0.1998295799
 C         -3.4205617500       -0.3166855299        0.2651319838
 C         -2.0335714343        0.7268309508       -1.1689795828
 H         -0.5523304112       -2.2286924438        1.4578356693
 H         -5.3987873454        0.0728676480        0.4289175333
 H         -4.7779862686       -1.1783301720        1.4929312217
 H         -0.9332644266        1.6615141420       -2.5870816709
 H         -2.6160535547        2.1177253751       -2.5100112253
 O          1.5062877031       -0.3338991963        1.4067697046
 O          3.1029272132        0.6194612029       -1.6396527115
 O          2.8425525615       -1.9261022219       -1.0416422677
 O          2.2265388280        2.2597354195        2.4954247185
 C          2.0142260593        0.3591888129       -0.7996341207
 C          2.2844330699        0.6197819896        0.6928053526
 C          1.6962970267       -1.1478205898       -0.8287883251
 C          1.1589862770       -1.4402384462        0.5819634764
 C          1.8771525711        2.0194068788        1.1564752555
 H          1.1133679481        0.9032120480       -1.1036329407
 H          3.3491927773        0.4461613729        0.9111237288
 H          0.9326683147       -1.3769945267       -1.5805676714
 H          1.6683778508       -2.3352465324        0.9627533759
 H          0.7931815456        2.1289707857        1.0110660881
 H          2.4002178810        2.7777158663        0.5711633396
 H          3.2437907270        1.5718971966       -1.7191198940
 H          3.4137833870       -1.4463991746       -1.6657950860
 H          1.8510171728        1.5537827996        3.0405816531
  32
        -58.17664993
 N         -2.3283614121       -1.3969323465        0.1973950957
 N         -0.9964558883        0.5571053405        0.1585998346
 N         -3.3055780080        0.6934491309       -0.3664688751
 N         -0.1259766634       -1.5105544269        0.7535724633
 N         -4.5498631450       -1.2265144163       -0.3256513467
 N         -1.9621409016        2.5540672438       -0.4020446498
 C         -1.1688864582       -0.7483036409        0.3393609119
 C         -3.3647894607       -0.6272286919       -0.1599526716
 C         -2.1002016200        1.2381585340       -0.1900160339
 H         -0.3392203457       -2.4949565260        0.7992888740
 H         -5.3432946073       -0.6699213190       -0.5846625082
 H         -4.6219088667       -2.2132246288       -0.1598996626
 H         -1.0993559492        2.9905919919       -0.1111385544
 H         -2.7938705169        3.0997631789       -0.5393916588
 O          1.5422924743        0.0721859360        1.2698985959
 O          4.0822433961       -0.7898469855       -0.2333755635
 O          2.1845612767       -2.2833304570       -1.3426798203
 O          0.8200137423        2.6768403611        0.8199608094
 C          2.9542049444       -0.0549887247       -0.6351104334
 C          2.4063150697        0.8723543078        0.4565480621
 C          1.8015655498       -1.0634477144       -0.7963343144
 C          1.2657455766       -1.1641262538        0.6575075857
 C          1.6335222700        2.0612689740       -0.1439217348
 H          3.1492017719        0.4904988922       -1.5645683296
 H          3.1907520475        1.2394435714        1.1269902080
 H          1.0119185976       -0.6531456375       -1.4330033656
 H          1.8172953951       -1.9554994567        1.1883924919
 H          1.0147304793        1.7006986051       -0.9757593515
 H          2.3306381033        2.8197585290       -0.5035753438
 H          4.8605102068       -0.2172796454       -0.1986882997
 H          3.0788388042       -2.4886151253       -1.0173946328
 H          0.3106769261        1.9532794188        1.2270114661
  32
        -58.17664647
 N         -2.4398130849       -1.2193114750        0.6702052211
 N         -0.9216581914        0.0855278153       -0.5875654012
 N         -3.2160366302        0.6953534652       -0.4955990853
 N         -0.2617220315       -1.8438334066        0.5496341771
 N         -4.6458881437       -0.6073214114        0.7268181439
 N         -1.7126397976        1.9324187125       -1.6902142711
 C         -1.2208924491       -0.9406244153        0.2031955230
 C         -3.4052572764       -0.3733697207        0.2860508288
 C         -1.9595758857        0.8782250685       -0.9029215973
 H         -0.5974074959       -2.4811560299        1.2580365057
 H         -5.3881040082       -0.0007407305        0.4297473728
 H         -4.8148103505       -1.4185936463        1.2923947476
 H         -0.7792290433        2.0987361736       -2.0177406889
 H         -2.4721647458        2.5405393074       -1.9360853051
 O          1.5215357790       -0.6193325201        1.5043025878
 O          3.2329589042        0.6268063371       -1.3204367939
 O          2.8875890788       -1.9459693055       -1.0658710222
 O          2.1155342573        2.9325079476        0.8565994750
 C          2.0526923604        0.3119457710       -0.6331115327
 C          2.1562688448        0.4940469654        0.8947857680
 C          1.7385706683       -1.1864331336       -0.8051339695
 C          1.1561528810       -1.6103491217        0.5530678363
 C          1.4837356509        1.7890175109        1.3727712396
 H          1.1999990653        0.8862247676       -1.0052021975
 H          3.2179478249        0.4869883655        1.1862484897
 H          0.9951705252       -1.3434181892       -1.5956820125
 H          1.6279252412       -2.5543195563        0.8524856034
 H          1.4577585877        1.7929036044        2.4671379729
 H          0.4540866371        1.7987240500        1.0043426466
 H          3.3129406329        1.5874060843       -1.3976009375
 H          3.5172883263       -1.3747132401       -1.5399393665
 H          2.9307462376        3.1012377829        1.3503563954
  32
        -58.17659836
 N         -2.4611203027        0.1008332930        1.0264542426
 N         -1.5090824692       -0.5697078515       -1.0383127961
 N         -3.8557085712       -0.2491362844       -0.8631645381
 N         -0.2024275978       -0.1657546899        0.8169190384
 N         -4.7283737385        0.3937512831        1.1522560223
 N         -2.8856512998       -0.8811650806       -2.8388276104
 C         -1.4304289034       -0.2288644502        0.2448906635
 C         -3.6552724208        0.0766270677        0.4182688102
 C         -2.7517509489       -0.5635299356       -1.5454202281
 H         -0.2005725415       -0.1141948575        1.8249044614
 H         -5.6327752821        0.3858184719        0.7180778601
 H         -4.6007448497        0.6462392032        2.1146603460
 H         -2.0738212388       -1.1912137523       -3.3408434271
 H         -3.8087488678       -0.9547688352       -3.2256689540
 O          1.9378515683       -0.9983859241        1.1904102132
 O          4.0388588713        0.0522647579       -0.9777269277
 O          1.7690393042       -0.6614971204       -2.0375538903
 O          3.3449348738        2.2788082585        2.1473982133
 C          2.9447568919        0.5724383710       -0.2776497532
 C          2.8688355409        0.0803809522        1.1806655438
 C          1.5861965754        0.1104408612       -0.8853132221
 C          0.9619751460       -0.7825433913        0.2140451382
 C          2.4354142833        1.2093715431        2.1339835136
 H          3.0603678175        1.6585206546       -0.3004416015
 H          3.8293494272       -0.3353087790        1.5011083774
 H          0.9215204796        0.9593520436       -1.0734517396
 H          0.6841406835       -1.7501025347       -0.2277785764
 H          2.2951851084        0.7904172807        3.1380167462
 H          1.4864497381        1.6276239697        1.7899701549
 H          3.8460775594       -0.8680015653       -1.2220789672
 H          2.0602150702       -0.0911699429       -2.7648051460
 H          4.1903661251        1.9850824352        2.5161656871
  32
        -58.17659613
 N         -2.3142442283       -0.9943177367        0.8302580939
 N         -0.9066827638       -0.0417200128       -0.8113348125
 N         -3.1323314356        0.7475261747       -0.5569922532
 N         -0.2101159822       -1.8015453326        0.5604319622
 N         -4.4613300784       -0.2257928216        1.0320078724
 N         -1.7243545944        1.6537289326       -2.1150338694
 C         -1.1525049477       -0.8911173319        0.1830786950
 C         -3.2747937254       -0.1538601590        0.4212259012
 C         -1.9336278901        0.7604199257       -1.1389659265
 H         -0.5129750531       -2.3092025717        1.3816524187
 H         -5.1825628364        0.4207303665        0.7691826966
 H         -4.5779368330       -0.8735203731        1.7895029566
 H         -0.8683789416        1.6122730117       -2.6376228328
 H         -2.5011996923        2.2050655452       -2.4319768156
 O          1.7473197338       -0.8140716579        1.4700374433
 O          3.2742289203        0.7496326501       -1.1901536993
 O          2.8610811449       -1.8489120102       -1.2691203362
 O          1.6609272811        2.8403331602        1.3259766293
 C          2.0729490327        0.3593493497       -0.5955310254
 C          2.0909545295        0.4614584055        0.9481869264
 C          1.7172543958       -1.1256747403       -0.8849346156
 C          1.2213298474       -1.6612580204        0.4647576423
 C          1.1449365568        1.5458315641        1.4884791878
 H          1.2897341607        1.0015037471       -1.0038194632
 H          3.1054272557        0.6934600005        1.2986783853
 H          0.9192663166       -1.2023502468       -1.6222686498
 H          1.6467186600       -2.6556050882        0.6442551590
 H          1.0228158913        1.3985087250        2.5640837370
 H          0.1606457500        1.4489864837        1.0087001278
 H          3.9125473732        0.0225361454       -1.0843076417
 H          2.9240207990       -1.8740401193       -2.2343478203
 H          1.8593129490        2.9974848420        0.3912301704
  32
        -58.17656067
 N         -2.3935670475        0.8424889949       -0.6254051410
 N         -1.7582179141       -1.2225568660        0.3442330009
 N         -4.0512715616       -0.6100497961        0.2558184481
 N         -0.2018349426        0.2105012995       -0.5942237853
 N         -4.6136371469        1.4041354756       -0.6730591699
 N         -3.3870578158       -2.5940376337        1.1819520479
 C         -1.4907244366       -0.0673782400       -0.2572800332
 C         -3.6644723081        0.5201230128       -0.3428330921
 C         -3.0607095550       -1.4459411659        0.5782260093
 H         -0.0663751060        1.1567650724       -0.9203699417
 H         -5.5744798547        1.1637928375       -0.5123031560
 H         -4.3497452834        2.2350117272       -1.1695586563
 H         -2.6592454619       -3.2452644637        1.4112648131
 H         -4.3551202271       -2.7949339050        1.3528180006
 O          1.4171064698        0.2933053916        1.1295581819
 O          4.1956911387       -0.8026680643        0.2598133792
 O          2.3668613435       -2.0183337610       -1.1745208777
 O          3.6298706542        2.9962289188        0.0990297787
 C          3.2826723469        0.0929351403       -0.3227788893
 C          2.6256899233        0.9426436626        0.7729125991
 C          2.0841573832       -0.6695720372       -0.9602144316
 C          0.9116085331       -0.4462824455        0.0316969592
 C          2.3806000706        2.3844499021        0.3081050789
 H          3.7838893406        0.7432218193       -1.0442766688
 H          3.2607777824        0.9577606744        1.6637909005
 H          1.8196769213       -0.2547373013       -1.9351830366
 H          0.5223769053       -1.3950195945        0.4148160763
 H          1.8034027404        2.8977389047        1.0857646006
 H          1.7953483833        2.3722070607       -0.6220378909
 H          4.8300647512       -1.1008984086       -0.4078787815
 H          2.8147345523       -2.3624457499       -0.3815151558
 H          3.5019041017        3.9369872524       -0.0896862684
  32
        -58.17655888
 N         -2.4471507754       -1.0581670518        0.7822663422
 N         -1.0176609972       -0.0724458753       -0.8194460893
 N         -3.2891906613        0.6060798615       -0.6849459066
 N         -0.2826664099       -1.7475990518        0.6289616343
 N         -4.6422817103       -0.4093272240        0.8567398692
 N         -1.8636664367        1.5295491901       -2.2174372555
 C         -1.2655555893       -0.9042840428        0.1854924451
 C         -3.4308429404       -0.2812647703        0.3053935489
 C         -2.0664722967        0.6688653990       -1.2136420742
 H         -0.5741033545       -2.2108636195        1.4800539764
 H         -5.3770685145        0.2055712453        0.5578309584
 H         -4.7552081354       -1.0296796849        1.6374074117
 H         -0.9522711326        1.5932903478       -2.6326516665
 H         -2.6287395468        2.0982429816       -2.5311470334
 O          1.4308578170       -0.3316915851        1.4142345155
 O          3.0042561904        0.7885803028       -1.6103059888
 O          2.8537751810       -1.8048521199       -1.1078472937
 O          2.4639463029        2.2785385363        2.5056796832
 C          1.9781755324        0.3824753167       -0.7631058516
 C          2.2840060539        0.5749244759        0.7357287122
 C          1.6545180914       -1.1227631653       -0.8373135625
 C          1.1195716384       -1.4434990782        0.5760297867
 C          2.0352563803        2.0102123184        1.1962520983
 H          1.0798354108        0.9512171506       -1.0169055535
 H          3.3320490904        0.2933119486        0.9285698354
 H          0.8891636439       -1.3261794443       -1.5871526748
 H          1.6464989798       -2.3249885484        0.9688215822
 H          0.9596366164        2.1998709919        1.1895573792
 H          2.5256591724        2.6800270773        0.4771840646
 H          3.6432646540        0.0570571996       -1.6767816389
 H          2.6678770030       -2.6917434631       -1.4434108286
 H          3.4159584268        2.1151938616        2.5735015639
  32
        -58.17651890
 N         -2.3120788419        0.6695998876       -0.8936380550
 N         -1.6170237123       -0.9322113437        0.7094111878
 N         -3.9311159692       -0.5159397193        0.3734526588
 N         -0.0990065832        0.2365206365       -0.5822289621
 N         -4.5519881073        1.0613147487       -1.1646002860
 N         -3.2126280779       -2.0437246021        1.9171764289
 C         -1.3807936312       -0.0182329900       -0.2297687356
 C         -3.5749525723        0.3833076467       -0.5492703127
 C         -2.9153498449       -1.1432685078        0.9717715415
 H          0.0372678831        0.9513862831       -1.2818438492
 H         -5.5056643386        0.8224613385       -0.9637414521
 H         -4.3084974460        1.6948429191       -1.9035143009
 H         -2.4682207203       -2.5714219372        2.3339863732
 H         -4.1768318216       -2.2617828514        2.0891173746
 O          1.5557386916        0.6598176709        1.0489990326
 O          3.9389529764       -1.2144283374        0.7107254464
 O          2.2346156600       -1.9754675525       -1.2221008072
 O          1.9933360481        2.5252841365       -0.9718475826
 C          3.4422346890       -0.1682134371       -0.0846072180
 C          2.9057657759        1.0070208663        0.7379231715
 C          2.1930233062       -0.6291856796       -0.8630592146
 C          1.0362022637       -0.2803203060        0.1059949408
 C          2.9851462006        2.3695491853        0.0138375670
 H          4.2583669417        0.1162628451       -0.7490093113
 H          3.4441358160        1.0898021307        1.6876755822
 H          2.0776910099       -0.0374685421       -1.7771563518
 H          0.6836133249       -1.1589878016        0.6583895187
 H          3.9461418858        2.4538642192       -0.4957866911
 H          2.9062896584        3.1689458923        0.7581180433
 H          3.3563829905       -1.3488946500        1.4732702293
 H          2.8754187216       -2.4227093222       -0.6380329514
 H          1.1452163992        2.6436455996       -0.5208697931
  32
        -58.17651166
 N         -2.2344836248        1.0906349771        0.1270482824
 N         -1.5948986876       -1.1231548974       -0.4211389749
 N         -3.8956551675       -0.5461984066       -0.3182606738
 N         -0.0276829347        0.5341339613       -0.0507696919
 N         -4.4628320621        1.6132241710        0.1861696474
 N         -3.2273028178       -2.6850261699       -0.7883146307
 C         -1.3251434791        0.1413488789       -0.1004187233
 C         -3.5074777650        0.6941724865       -0.0031146510
 C         -2.9003601660       -1.4156408930       -0.5089405278
 H          0.1209058999        1.4331299211        0.3917491118
 H         -5.4235229344        1.3253765819        0.1541606311
 H         -4.1937582969        2.5344684245        0.4783524598
 H         -2.4930783591       -3.3235143320       -1.0345224805
 H         -4.1920291600       -2.9037252239       -0.9585855615
 O          1.7553058879       -0.2710349738        1.2512805659
 O          4.3170022814       -0.9436943953       -0.3447278040
 O          2.1825469613       -1.4410068226       -1.8086431769
 O          1.5070007927        2.3303600441        1.9392063803
 C          3.4149769200        0.1242352398       -0.3670467736
 C          2.9130142421        0.5271131050        1.0318392089
 C          2.0903691216       -0.2375486148       -1.1018075922
 C          1.0546526475       -0.4109387551        0.0393781079
 C          2.5989974663        2.0407103850        1.1034990555
 H          3.9458476509        0.9463729944       -0.8505583092
 H          3.6232725797        0.2428668802        1.8125859838
 H          1.7699880487        0.5823055053       -1.7562507152
 H          0.6126000038       -1.4121968799       -0.0065227132
 H          2.3142798629        2.4133379809        0.1167650053
 H          3.4983160364        2.5754938741        1.4330269959
 H          3.8504516133       -1.7521554693       -0.0817588668
 H          2.8543615286       -1.3599019168       -2.5026602595
 H          1.6539770810        1.9379985164        2.8114689352
  32
        -58.17651055
 N         -2.3064548945       -0.9613420619        0.8524511664
 N         -0.9111215143       -0.0440226141       -0.8200482428
 N         -3.1453225964        0.7270211197       -0.5869606190
 N         -0.1991878692       -1.7559211449        0.6058273097
 N         -4.4596556730       -0.2062161909        1.0378577468
 N         -1.7455247812        1.6114659473       -2.1654404947
 C         -1.1466628786       -0.8675188831        0.1989033999
 C         -3.2762959219       -0.1442634921        0.4202121366
 C         -1.9474201037        0.7357913865       -1.1695535751
 H         -0.5001466606       -2.2486530762        1.4366329305
 H         -5.1925887341        0.4145936754        0.7470613376
 H         -4.5735970505       -0.8419710276        1.8057568034
 H         -0.9076670485        1.5307548581       -2.7127789069
 H         -2.5401659064        2.1152044373       -2.5170646535
 O          1.8208442827       -0.8349386130        1.4576411198
 O          3.2974528881        0.7481731968       -1.1255151352
 O          2.8209551206       -1.8354227915       -1.3783788033
 O          1.6253209046        2.8161342999        1.3780648703
 C          2.0576416214        0.3601440985       -0.5991690854
 C          2.1065822734        0.4563409237        0.9379000640
 C          1.7190403947       -1.1270133828       -0.8898853450
 C          1.2317268351       -1.6630869271        0.4683321230
 C          1.1422271523        1.5061326184        1.5125462174
 H          1.2465312510        0.9880112690       -0.9879631292
 H          3.1240418372        0.7180371352        1.2559069830
 H          0.9328226579       -1.2240000409       -1.6373063378
 H          1.6219460890       -2.6729752387        0.6407049291
 H          1.0383922281        1.3285458954        2.5853621053
 H          0.1542982394        1.3988787755        1.0430758903
 H          3.3186464732        0.5577215462       -2.0756115554
 H          3.5925009327       -1.6617252659       -0.8164606954
 H          1.7977831785        3.0079817800        0.4448722214
  32
        -58.17646218
 N         -2.4482841124        0.4684738432        0.8665971299
 N         -1.6452774793       -0.8547086092       -0.9307696422
 N         -3.9536098084       -0.3135563083       -0.7946712311
 N         -0.2239469519       -0.0204555180        0.6723473866
 N         -4.6822580441        0.9612711981        0.9603501324
 N         -3.1357963778       -1.6022117366       -2.4996755815
 C         -1.4828487000       -0.1540702387        0.1895879289
 C         -3.6709008837        0.3568069759        0.3268738836
 C         -2.9091978545       -0.9026264038       -1.3818414998
 H         -0.1420328366        0.3568162202        1.6039413856
 H         -5.6062028152        0.8938862420        0.5750378589
 H         -4.4907860348        1.4749951879        1.8004912439
 H         -2.3544029737       -1.9985916960       -2.9888582917
 H         -4.0621453153       -1.6087426259       -2.8855619650
 O          1.8659674147       -0.9450647254        1.1722841977
 O          3.6256496797        1.1332612044       -1.0879641410
 O          2.2924502481       -1.1102618888       -1.7852450814
 O          4.0136791676        1.8295199386        2.2471329468
 C          2.5018288829        0.8120559635       -0.3255247341
 C          2.8383815237        0.0934579930        1.0052518470
 C          1.5582937457       -0.1958844564       -1.0189771715
 C          0.8682378773       -0.8390837951        0.1939683554
 C          2.8529343536        1.0399140749        2.2130727566
 H          1.9583843307        1.7411452266       -0.1210785323
 H          3.8270195958       -0.3791520802        0.9397889422
 H          0.8419993812        0.2788201124       -1.6886386520
 H          0.4923221628       -1.8427560589       -0.0427452423
 H          2.8606224423        0.4462697845        3.1297982614
 H          1.9513760911        1.6686973213        2.2050543533
 H          3.7562172388        0.4291461328       -1.7485449658
 H          2.7075360014       -1.7658029626       -1.2039539509
 H          4.1048293886        2.3072814000        1.4096793509
  32
        -58.17643776
 N         -2.4735805465        0.6895343791       -0.7600532915
 N         -1.7125960810       -1.1873558889        0.4639841264
 N         -4.0270830002       -0.6599870409        0.4226005803
 N         -0.2547456228        0.1396388519       -0.7517128319
 N         -4.7172424421        1.1497260077       -0.7955768306
 N         -3.2428062237       -2.4694833800        1.5836436062
 C         -1.5207139838       -0.1236512649       -0.3084873398
 C         -3.7171553481        0.3723498711       -0.3669204025
 C         -2.9913455432       -1.4083368985        0.8091314463
 H         -0.1792933889        1.0493121512       -1.1879618049
 H         -5.6523199009        0.9474321300       -0.4928708465
 H         -4.5033050101        1.9447764197       -1.3689968800
 H         -2.4696256300       -3.0012888734        1.9394949972
 H         -4.1812949025       -2.6197281504        1.9065506764
 O          1.3065324993        0.6738914033        0.9334784181
 O          3.8571247557       -0.9625355706        0.7076011215
 O          2.3260069621       -1.9296106159       -1.2081914659
 O          3.9773875771        2.8825857307       -0.1840753654
 C          3.2945031813       -0.0063065568       -0.1485227925
 C          2.6364907042        1.1034975333        0.6766072613
 C          2.1029089095       -0.5763709426       -0.9416753791
 C          0.8954919413       -0.3028391580       -0.0149781733
 C          2.6444146137        2.4576234675       -0.0445519311
 H          4.0687822186        0.4064923155       -0.8083970858
 H          3.1470736986        1.2020210513        1.6390444954
 H          1.9736453164       -0.0094952245       -1.8731628002
 H          0.5950849463       -1.2080705409        0.5257908483
 H          2.0578974548        3.1600154949        0.5591528826
 H          2.1656750760        2.3477622084       -1.0274966797
 H          3.8230086748       -1.8222758687        0.2551641097
 H          1.5756817901       -2.2997138322       -1.6919384995
 H          3.9938803137        3.7818408223       -0.5430829174
  32
        -58.17642576
 N         -2.4360522686       -0.4064396244       -1.2358505467
 N         -1.8657062405       -0.3075463669        1.0595762176
 N         -4.1380897170       -0.1255600732        0.3947354925
 N         -0.2610108730       -0.6383954266       -0.5746709520
 N         -4.6411405672       -0.2485958424       -1.8340717153
 N         -3.5384719555       -0.0510115485        2.6016700530
 C         -1.5625636374       -0.4192315454       -0.2307595403
 C         -3.7180404448       -0.2611379166       -0.8667075795
 C         -3.1746530583       -0.1564284207        1.3180673784
 H         -0.0867674699       -0.5502124533       -1.5661968176
 H         -5.6050473459       -0.1255066831       -1.5836944034
 H         -4.3450039281       -0.3338480152       -2.7888543665
 H         -2.8233984127        0.0045736680        3.3034662204
 H         -4.5015467138        0.1349292198        2.8146263211
 O          1.3588524353        0.9854308412       -0.1086850844
 O          4.3592289596       -0.9902035442       -0.2844056239
 O          2.5033150745       -1.5549751981        1.5356262610
 O          3.4301077047        3.1673808267       -0.5626748602
 C          3.0620930984       -0.5664439807       -0.5475224029
 C          2.7746713135        0.9015219735       -0.1732418486
 C          1.9731720012       -1.2974180365        0.2618730933
 C          0.8171159106       -0.2692001812        0.2933861569
 C          3.3351233173        1.9025468216       -1.1755082703
 H          2.8917739804       -0.7035915793       -1.6200501378
 H          3.2020467950        1.1218253481        0.8162266624
 H          1.6475971616       -2.2216153374       -0.2259128089
 H          0.3953318385       -0.1806010871        1.3023371846
 H          2.6687250220        1.9356030169       -2.0453685363
 H          4.3275149502        1.5446155828       -1.4805632101
 H          4.4289956150       -1.1783911950        0.6670883417
 H          1.8920891877       -2.1019589587        2.0469733702
 H          3.7473871513        3.8126839154       -1.2102480212
  32
        -58.17636963
 N         -2.2064257412        0.4519396229       -1.0520663328
 N         -1.8318529359       -0.9103118729        0.8484880570
 N         -4.0277929104       -0.1626299536        0.3403712141
 N         -0.1133957128       -0.3296689983       -0.5853032685
 N         -4.3402790444        1.1534245687       -1.5045807261
 N         -3.6132034637       -1.4737677025        2.1694883884
 C         -1.4266319676       -0.2500498975       -0.2310492875
 C         -3.5071645646        0.4595878276       -0.7209832421
 C         -3.1500657705       -0.8309446208        1.0926420273
 H          0.1478313800        0.2921900963       -1.3361685101
 H         -5.3224769040        1.1365891638       -1.2990928689
 H         -3.9790353252        1.5866563266       -2.3343438172
 H         -2.9689382982       -1.9867596956        2.7425425217
 H         -4.5944493388       -1.4332191982        2.3756889210
 O          1.4443077248        0.3247505846        1.1006681441
 O          4.3399511267       -0.3771998516       -0.6754867385
 O          2.8243178508       -2.2388530945        0.4272994126
 O          3.2730819878        2.8980027690       -0.7071023811
 C          2.9736817945       -0.0947859175       -0.6970507466
 C          2.5329569966        0.9159791156        0.3944237318
 C          2.1104104582       -1.3460223329       -0.3839299032
 C          0.9007443315       -0.7425426911        0.3381961043
 C          2.1301512933        2.2838640148       -0.1668864117
 H          2.7402951760        0.3058670137       -1.6886037004
 H          3.3534959045        1.0725078877        1.1039555717
 H          1.8295398751       -1.8964391971       -1.2817360990
 H          0.4206245626       -1.4267969776        1.0425478203
 H          1.7093322985        2.8725950438        0.6585129765
 H          1.3527529846        2.1542311435       -0.9329701048
 H          4.4598572671       -1.2312138385       -0.2170225572
 H          2.8394290916       -1.9063804340        1.3381220807
 H          3.0452244676        3.7843834495       -1.0219850905
  32
        -58.17635474
 N         -2.3314810455        0.7645170437       -0.7680835704
 N         -1.7575347460       -1.1673881752        0.4747728317
 N         -4.0279760981       -0.4879076502        0.3212903298
 N         -0.1621820968        0.0647914675       -0.6642225745
 N         -4.5344595375        1.3788057524       -0.9006308986
 N         -3.4226087433       -2.3427415529        1.5157870569
 C         -1.4578769858       -0.1176892711       -0.2830676762
 C         -3.6102590109        0.5300279186       -0.4367216149
 C         -3.0639212814       -1.3058331641        0.7512022984
 H          0.0012040243        0.9604379821       -1.1026783028
 H         -5.4939784250        1.2384347777       -0.6425928744
 H         -4.2402756117        2.1647281659       -1.4503117371
 H         -2.7128701873       -2.9691934642        1.8477975928
 H         -4.3931670559       -2.4713637660        1.7356799946
 O          1.4303072511        0.3160389473        1.0720799202
 O          4.3078515864       -0.7353866767        0.2078431780
 O          2.3909358746       -2.2377916347       -0.7606893441
 O          3.3457654242        3.2523847865        0.0476776157
 C          3.2832160438        0.0192985544       -0.3715513539
 C          2.5980581957        0.9865746977        0.6165923914
 C          2.1097847445       -0.8722387626       -0.8775075560
 C          0.9286901677       -0.5291815751        0.0552960568
 C          2.2673573947        2.3554981761       -0.0099932992
 H          3.7553475204        0.5601607563       -1.1946576652
 H          3.2235481217        1.1582861658        1.4991962816
 H          1.8396033217       -0.6157554994       -1.9093631574
 H          0.5315034801       -1.4301044060        0.5326358610
 H          1.4652318086        2.8132824332        0.5737408822
 H          1.9240965084        2.2269443795       -1.0457258955
 H          3.9259186259       -1.3605955163        0.8431968357
 H          3.1528779448       -2.4608246550       -1.3176610365
 H          4.0966764663        2.9024098801       -0.4526253993
  32
        -58.17630879
 N         -1.0512374512       -0.4802124351       -0.5323462383
 N         -2.1397005978        0.2310536269        1.4404414021
 N         -3.1534252642        0.6161663559       -0.6697385829
 N         -0.1532147773       -0.8582925934        1.5911559325
 N         -2.0581654936       -0.0895215101       -2.5497286007
 N         -4.1872956520        1.2428915443        1.2734670006
 C         -1.1237575021       -0.3350848381        0.7869826145
 C         -2.0923325787        0.0227889979       -1.2169490340
 C         -3.1343991396        0.6857922040        0.6659681490
 H         -0.3016737619       -0.5737727338        2.5511880855
 H         -2.8158449624        0.2894647721       -3.0877654973
 H         -1.2655015075       -0.5231325727       -2.9862547921
 H         -4.1653618142        1.3580079086        2.2701175294
 H         -4.9131512082        1.6457002717        0.7092832880
 O          1.9764472946        0.1560089224        1.2712566158
 O          2.8736659479       -0.8465741937       -1.9459794183
 O          2.5842451580       -2.5977027308       -0.0472151618
 O          1.8937054195        2.9700415811        0.4780111485
 C          1.8763648576       -0.5331856706       -1.0237437792
 C          2.2803929001        0.5957563467       -0.0450398311
 C          1.4919838783       -1.7154595605       -0.1033751861
 C          1.2376267523       -1.0515886515        1.2616323595
 C          1.5639545167        1.9098422418       -0.3801500743
 H          0.9932859782       -0.2201772081       -1.5860982451
 H          3.3664762681        0.7522735378       -0.0857631076
 H          0.5859606618       -2.2050763482       -0.4623333797
 H          1.6575295689       -1.6650030845        2.0681698838
 H          0.4847611974        1.7684211374       -0.2771589783
 H          1.7898545478        2.1648966640       -1.4244787000
 H          3.4285850791       -1.5476245537       -1.5591351282
 H          2.2939654976       -3.4757292522        0.2329335578
 H          2.8533635821        3.1008441157        0.4725726702
  32
        -58.17622023
 N         -2.4464616796        0.1144120308        1.0281282094
 N         -1.5056456709       -0.6047626352       -1.0246112241
 N         -3.8386007295       -0.1892304011       -0.8722350761
 N         -0.1952569252       -0.2287490733        0.8333910278
 N         -4.7027860786        0.4861154237        1.1363605204
 N         -2.8775635323       -0.8889861320       -2.8305631760
 C         -1.4226227493       -0.2559967474        0.2560177705
 C         -3.6359867734        0.1313659914        0.4100915838
 C         -2.7422749939       -0.5522065170       -1.5432504122
 H         -0.1976849966       -0.1872536627        1.8421394843
 H         -5.6000990177        0.5310243193        0.6898605709
 H         -4.5689144884        0.7591542162        2.0922963317
 H         -2.0592917361       -1.1629398766       -3.3429759634
 H         -3.7895422067       -0.8668259387       -3.2481470506
 O          1.9647586824       -1.0321642452        1.1790397598
 O          3.9562832412        0.3683315762       -0.9727393648
 O          1.9028502278       -0.8359532866       -2.0319275415
 O          3.3256687094        2.2521860611        2.1640609314
 C          2.7626383158        0.6660093400       -0.2972210610
 C          2.8401011823        0.0907152979        1.1268998116
 C          1.5373897164       -0.0516666345       -0.9374464291
 C          0.9493765780       -0.8846107418        0.2305698283
 C          2.4684153078        1.1405800640        2.1887574740
 H          2.6051808701        1.7495819072       -0.2494969588
 H          3.8496706504       -0.2917320780        1.3130031637
 H          0.7838941467        0.6481798098       -1.2991979876
 H          0.6622139331       -1.8833485835       -0.1285276350
 H          2.4642639499        0.6593607457        3.1742595783
 H          1.4685113510        1.5279502051        1.9794444265
 H          3.9397315852        0.7738531518       -1.8522199983
 H          2.7000119082       -1.3428487190       -1.8024288793
 H          4.2229625135        1.9771996324        2.4013765541
  32
        -58.17613673
 N         -2.3304351981       -1.0256364647        0.8115270563
 N         -0.9035012411        0.0102816377       -0.7629683395
 N         -3.1571357396        0.7309824860       -0.5523667823
 N         -0.2001133274       -1.7656673019        0.5852444545
 N         -4.4934490348       -0.2968653602        0.9954261286
 N         -1.7291868771        1.7224491193       -2.0389864835
 C         -1.1532274616       -0.8759382761        0.1983362664
 C         -3.3004125326       -0.1987644579        0.3989971607
 C         -1.9423237239        0.7924737497       -1.0981244508
 H         -0.5062688998       -2.3054537878        1.3837308517
 H         -5.2464869812        0.2804027700        0.6683326098
 H         -4.6385399782       -1.0250897478        1.6703395616
 H         -0.8588565682        1.7134745005       -2.5386369998
 H         -2.5142273794        2.2519947508       -2.3726248267
 O          1.7943041192       -0.8296511376        1.4742281273
 O          3.4189044060        0.6543001666       -1.0406138699
 O          2.7906534488       -1.8368338144       -1.3902627032
 O          1.5916183929        2.7752612056        1.0648685608
 C          2.1283239330        0.3724600177       -0.5695098163
 C          2.1197182044        0.4536503134        0.9684044230
 C          1.7167009891       -1.0920215792       -0.8897400165
 C          1.2303110320       -1.6487933653        0.4620828242
 C          1.1458390229        1.5134862558        1.4949106310
 H          1.3879502973        1.0666699643       -0.9707940030
 H          3.1282720389        0.7059076086        1.3177731158
 H          0.9065464814       -1.1361935225       -1.6189223386
 H          1.6387450687       -2.6544969678        0.6156243348
 H          1.1280849206        1.4434805513        2.5895291097
 H          0.1402598374        1.2968619114        1.1100952565
 H          3.3772736613        0.9583557873       -1.9584009293
 H          3.6117369651       -1.3508827948       -1.1841225461
 H          1.0224315191        3.4640802284        1.4369736143
  32
        -58.17610260
 N         -2.6007059427       -0.6719326824       -1.1736695856
 N         -1.8364853400       -0.0983988465        0.9923389416
 N         -4.1644977153       -0.1198866249        0.5248910640
 N         -0.3702473066       -0.7140669788       -0.6895207506
 N         -4.8546304175       -0.6913340422       -1.5800745687
 N         -3.3756024655        0.4464110847        2.5965285585
 C         -1.6427535911       -0.4632841976       -0.2720529031
 C         -3.8502549743       -0.4896344794       -0.7203682763
 C         -3.1231832012        0.0645068322        1.3394721437
 H         -0.2753026297       -0.8179122160       -1.6897179086
 H         -5.7974929852       -0.5556493277       -1.2645374458
 H         -4.6407487993       -0.9636714560       -2.5216155415
 H         -2.6088690018        0.5575813556        3.2339939938
 H         -4.3300300450        0.5432583232        2.8909451599
 O          1.2415570957        0.9695552684       -0.5952975280
 O          4.2282463313       -0.4363009413        0.6254890119
 O          2.1079049916       -1.9233244132        1.2157790309
 O          4.5372120358        2.5121807291       -0.7333944629
 C          3.1897178578       -0.3193288693       -0.3040132850
 C          2.6075665779        1.1062527675       -0.2583538761
 C          1.9613227551       -1.2174716358        0.0215345185
 C          0.7651933565       -0.2272594575        0.0158080990
 C          3.2860787399        2.0914797453       -1.2106971047
 H          3.5499303012       -0.5401246700       -1.3192998583
 H          2.7093551934        1.4867366866        0.7710131169
 H          1.8108665531       -1.9772320014       -0.7484012082
 H          0.4378616415       -0.0237190143        1.0454711491
 H          2.6658549693        2.9863916051       -1.2905240596
 H          3.3744372740        1.6369159520       -2.2067513219
 H          4.4426931160       -1.3741156636        0.7499025985
 H          2.2763932829       -1.3077588693        1.9461944591
 H          5.0716957533        1.7374999605       -0.5028381618
  32
        -58.17604665
 N         -2.2834839804       -0.8513523013        0.8485540255
 N         -0.8871444760       -0.0222691386       -0.8696904917
 N         -3.1312414155        0.7364268293       -0.6962145714
 N         -0.1630548727       -1.6283770122        0.6678171531
 N         -4.4512645629       -0.1240021854        0.9640519762
 N         -1.7330200085        1.5359335993       -2.3196660337
 C         -1.1195482943       -0.7827046344        0.1983156432
 C         -3.2594218665       -0.0753204596        0.3598480252
 C         -1.9293684271        0.7233437939       -1.2713018176
 H         -0.4541820617       -2.0570818454        1.5364621548
 H         -5.1787383507        0.4918520570        0.6496583331
 H         -4.5527412007       -0.6886927327        1.7872912172
 H         -0.8821582989        1.4488056650       -2.8447520483
 H         -2.5276359567        2.0180064080       -2.6999295408
 O          1.8610409970       -0.6127159349        1.3994705620
 O          3.3489798913        0.6659076008       -1.3244635710
 O          2.8093025958       -1.9131057272       -1.3477794161
 O          1.1885576319        1.9650367398        2.5606369322
 C          2.0977643381        0.3624552802       -0.7714595700
 C          2.1530734676        0.6151119130        0.7469131135
 C          1.7300756239       -1.1402460813       -0.9081271539
 C          1.2658138255       -1.5366369794        0.5070323976
 C          1.1982445237        1.7377913899        1.1763468204
 H          1.3033384022        0.9708969875       -1.2164515846
 H          3.1783854092        0.8837527246        1.0322494859
 H          0.9227854968       -1.2960093207       -1.6224401308
 H          1.6659787754       -2.5223026677        0.7733746616
 H          0.1737263156        1.4665771206        0.9113126339
 H          1.4741748561        2.6507377937        0.6313223336
 H          3.3300930390        0.5021705063       -2.2794001627
 H          3.6154362133       -1.6297509490       -0.8869892405
 H          2.0890886137        2.1530973454        2.8643343694
  32
        -58.17602542
 N         -1.1187382571       -0.0370297680       -0.5605942613
 N         -2.3384425032       -0.7325373528        1.3381799336
 N         -3.3807607129        0.6352711617       -0.2957930822
 N         -0.1932179188       -1.4330710963        1.0750413358
 N         -2.1486059992        1.3075351047       -2.1021210438
 N         -4.5261077705       -0.0904615181        1.5479975815
 C         -1.2314451681       -0.6815297382        0.5974152670
 C         -2.2253861515        0.6139592476       -0.9586394107
 C         -3.3887362580       -0.0597462981        0.8472470709
 H         -0.3984049341       -1.7506612731        2.0136470263
 H         -2.9877127144        1.7221754343       -2.4657245283
 H         -1.3280821649        1.2118982893       -2.6725375792
 H         -4.5418656065       -0.5769218781        2.4255441996
 H         -5.3116738052        0.4420052142        1.2213728636
 O          1.5848781426        0.0920690928        1.3961935330
 O          3.9871847035       -0.6716363633       -0.3370356400
 O          2.1111339871       -2.3726301129       -1.1033874241
 O          2.2466675933        2.7864460402       -0.9587756901
 C          2.7464510900       -0.0993614524       -0.6579986958
 C          2.3223922494        0.8617327200        0.4552858636
 C          1.6167210599       -1.1448301169       -0.6452987734
 C          1.1995188361       -1.1624888536        0.8418622550
 C          1.4719199384        2.0263807752       -0.0634616022
 H          2.8127924580        0.4246664269       -1.6197337116
 H          3.2114934347        1.2525782747        0.9612145659
 H          0.7727254144       -0.7914015534       -1.2435185310
 H          1.7636641115       -1.9516457798        1.3602671235
 H          1.1581976772        2.6218828453        0.8023490667
 H          0.5777708689        1.6169698950       -0.5525450442
 H          4.0403882577       -1.5310373541       -0.7874273559
 H          1.3845548389       -2.9991530752       -1.2161960404
 H          1.7609923233        3.5877880234       -1.2016839939
  32
        -58.17600774
 N         -2.2289454214       -0.8309332031        0.8595314246
 N         -0.8968161463       -0.1122520329       -0.9522621204
 N         -3.0435827714        0.8427611226       -0.6122422825
 N         -0.1822851580       -1.7671179089        0.5352982102
 N         -4.3158544298        0.0710915983        1.1271978475
 N         -1.7240212100        1.4802072824       -2.3715976567
 C         -1.1074395156       -0.8403424840        0.1379114699
 C         -3.1688453034        0.0266761668        0.4399011024
 C         -1.8922225862        0.7282962080       -1.2745273675
 H         -0.4703318882       -2.1835696528        1.4130289301
 H         -5.0228554217        0.7267530467        0.8495954342
 H         -4.4175270011       -0.5120428101        1.9371817280
 H         -0.8183050929        1.4953830770       -2.8049311428
 H         -2.4036078796        2.1928876058       -2.5677827044
 O          1.7736616063       -0.8240690795        1.4807568411
 O          3.0259241232        1.0139039401       -1.3011817832
 O          2.9987180412       -1.6266288864       -1.2565938800
 O          0.4462987671        1.7862909428        1.4689570026
 C          2.0235216713        0.4215876083       -0.5356586993
 C          2.3418087257        0.3742816350        0.9725529588
 C          1.7672217265       -1.0575441039       -0.8841784899
 C          1.2502090816       -1.6404526126        0.4400235935
 C          1.8212101476        1.5934889050        1.7336114331
 H          1.1017321530        0.9889920438       -0.6868727496
 H          3.4312023449        0.3219746146        1.1151707336
 H          1.0144559360       -1.1538114081       -1.6673832240
 H          1.6585030896       -2.6469653224        0.6032098503
 H          2.4026754044        2.4629174269        1.4027903928
 H          1.9844936629        1.4214246312        2.8039295366
 H          3.6953112181        0.3327793061       -1.4895623551
 H          2.8532554993       -2.4613196320       -1.7214646961
 H          0.1472976532        2.5565863240        1.9729393796
  32
        -58.17599313
 N         -2.2929715434        0.6310797621       -0.9334173216
 N         -1.8720040711       -1.0778834894        0.6506229753
 N         -4.0965923456       -0.3432875240        0.2635725240
 N         -0.1668665663       -0.1332938656       -0.5926728642
 N         -4.4545728954        1.3024803833       -1.2846561748
 N         -3.6403925058       -2.0000396690        1.7743867818
 C         -1.4871194889       -0.1868737030       -0.2584528638
 C         -3.5961494983        0.5084217768       -0.6360289114
 C         -3.1949749479       -1.1132013124        0.8773830401
 H          0.0702799864        0.6497852208       -1.1845142596
 H         -5.4333899257        1.2321267257       -1.0750281221
 H         -4.0998543241        1.9507038556       -1.9630943910
 H         -2.9739924353       -2.5460359816        2.2888064607
 H         -4.6182890972       -2.0086895005        1.9998721813
 O          1.4142436451        0.3827581493        1.0999674598
 O          4.2992716192       -0.3248750076       -0.8169121252
 O          2.7531403302       -2.1709894961        0.2350050509
 O          3.6975878927        2.8891258589       -0.1957409036
 C          2.9526796900        0.0058079011       -0.7015758985
 C          2.6147355424        0.8898224986        0.5251862850
 C          2.0341653287       -1.2223831180       -0.5071324612
 C          0.8569167807       -0.6308136136        0.2848323352
 C          2.4463408791        2.3731025846        0.1820144939
 H          2.6895609877        0.5344902383       -1.6224850807
 H          3.4152283355        0.8000164754        1.2697528515
 H          1.6971783695       -1.6347898538       -1.4635006299
 H          0.3732629963       -1.3529900732        0.9481372030
 H          2.0559168104        2.8798396433        1.0741501353
 H          1.7129305768        2.4786319099       -0.6299707896
 H          4.4861271553       -1.0559864929       -0.2036059634
 H          2.2424042212       -2.9874278126        0.3185359542
 H          3.6114867781        3.8332493258       -0.3900355697
  32
        -58.17597798
 N         -1.9214473563       -0.9602702564        0.0844032878
 N         -2.2071778807        1.2509962998       -0.7105847553
 N         -4.0962512254       -0.0152400900       -0.0305613503
 N         -0.1269629720        0.3052340438       -0.6461886483
 N         -3.7695843684       -2.1537006080        0.7167204172
 N         -4.3267488742        2.1118667992       -0.8397357067
 C         -1.4633853118        0.1943349020       -0.3892179215
 C         -3.2527982101       -1.0106115292        0.2518069831
 C         -3.5256508182        1.0906628786       -0.5174063756
 H          0.1569789370        1.2548519831       -0.8472438078
 H         -4.7528839249       -2.1923015955        0.9142917761
 H         -3.1449136928       -2.8851273616        1.0030971225
 H         -3.9168995513        2.9664150524       -1.1687711887
 H         -5.3106811074        2.0300214947       -0.6598285346
 O          1.3566454196        0.1329712058        1.1848454932
 O          3.7994129498       -1.6275647332        0.6425860649
 O          2.0991026521       -2.2157472571       -1.2408157707
 O          4.1034455052        2.5141867138        0.7828075197
 C          3.2737468606       -0.5157389340       -0.0266506013
 C          2.7163078870        0.4973095182        0.9841379762
 C          2.0337144484       -0.8676527653       -0.8773753686
 C          0.8355019579       -0.5157440270        0.0392054073
 C          2.8426965573        1.9587588262        0.5149304555
 H          4.0586905231       -0.0698715107       -0.6536827657
 H          3.2177441302        0.3876380728        1.9508601541
 H          1.9987095418       -0.2242008453       -1.7658938332
 H          0.3003301191       -1.4127426936        0.3698863489
 H          2.1258534481        2.5586702625        1.0802189590
 H          2.6024921605        2.0334347225       -0.5546050157
 H          3.5670657817       -2.4231938708        0.1339311448
 H          1.3445843666       -2.4490575373       -1.7973170559
 H          4.7920134485        2.0178024913        0.3182807277
  32
        -58.17595516
 N         -1.9191241241       -0.8719870387        0.1861844268
 N         -1.9210325841        1.1412511954       -1.0605610289
 N         -3.9506010031        0.3102365995       -0.1535788719
 N          0.0144822837       -0.0322003977       -0.7667280353
 N         -3.8964024787       -1.6377915097        1.0460097160
 N         -3.9080361731        2.2297338982       -1.3991545291
 C         -1.3194195350        0.0843308574       -0.5155097057
 C         -3.2418227155       -0.7065821165        0.3435353400
 C         -3.2449294975        1.2029230656       -0.8537895435
 H          0.4211619345        0.7984608529       -1.1720514617
 H         -4.8800839778       -1.5217963925        1.2065638826
 H         -3.3744012883       -2.3890340507        1.4579519435
 H         -3.3859281320        2.9473059164       -1.8675290715
 H         -4.8865140380        2.3312666476       -1.2002917078
 O          1.4006911346       -0.2274789120        1.1573928461
 O          4.4253921856       -0.9053357244       -0.1919723486
 O          2.4666440002       -2.6716537131       -0.4758519798
 O          2.1469160427        2.5074616845        1.8931459436
 C          3.1764905853       -0.3257037292       -0.4439287014
 C          2.6672834963        0.3453725758        0.8486439679
 C          2.0773530973       -1.3682699834       -0.7924875911
 C          0.8638480862       -0.8786247512        0.0234074606
 C          2.6010448619        1.8751171075        0.7254210055
 H          3.2538080997        0.4180970784       -1.2494735538
 H          3.3387125696        0.0843232618        1.6764841498
 H          1.8413405443       -1.3797644307       -1.8576786717
 H          0.2355029664       -1.6973654393        0.3847051973
 H          1.8887427696        2.1602821483       -0.0522936052
 H          3.5999797729        2.2385932949        0.4468199196
 H          4.6676733110       -1.4903962998       -0.9259233599
 H          2.7160567678       -2.7207837450        0.4595788119
 H          2.7090138550        2.2537576712        2.6391758532
  32
        -58.17600099
 N         -2.2424152677        1.0909772938       -0.0793955991
 N         -1.5873294176       -1.1811593653       -0.2261112364
 N         -3.8921939478       -0.6136912574       -0.1753347869
 N         -0.0335055662        0.5286994916       -0.1996147072
 N         -4.4755831631        1.5946600822       -0.0362490122
 N         -3.2094166128       -2.7966032218       -0.2730730667
 C         -1.3256258169        0.1235750218       -0.1494980492
 C         -3.5125094277        0.6663903296       -0.0974382521
 C         -2.8902643045       -1.4944333268       -0.2328261975
 H          0.1165209569        1.5002947379        0.0471454404
 H         -5.4339680221        1.2984422774       -0.0176335431
 H         -4.2128770166        2.5590189260        0.0480270880
 H         -2.4749224439       -3.4609206290       -0.4365698630
 H         -4.1742732226       -3.0453274314       -0.3955803973
 O          1.7036558107       -0.0495431713        1.2663787031
 O          4.0656612293       -1.2543031389       -0.0430407581
 O          2.2135100629       -1.4013478322       -1.8849900038
 O          1.5155431848        2.6139557400        1.4326093376
 C          3.4570356045       -0.0117164881       -0.2808308358
 C          2.9197213878        0.6386966962        1.0027704619
 C          2.1499847947       -0.2771267610       -1.0680124064
 C          1.0657425175       -0.3647711024        0.0478134979
 C          2.6998283537        2.1636964965        0.8258521380
 H          4.1284129094        0.6566125326       -0.8299231671
 H          3.5553408664        0.4382218828        1.8690689255
 H          1.9115827136        0.5673360613       -1.7205077996
 H          0.6478530913       -1.3743118040        0.1147376340
 H          2.5927511582        2.4100979215       -0.2328453428
 H          3.5692270004        2.7014309226        1.2243128146
 H          4.9419269277       -1.1304489898        0.3460794968
 H          2.7427473776       -2.0778563013       -1.4280160663
 H          1.5004380626        2.3320056305        2.3583843805
  32
        -58.17598149
 N         -2.2469262094       -0.7462031108        0.8972363361
 N         -0.9199929630       -0.1152154519       -0.9538946414
 N         -3.1308661209        0.7252185283       -0.7407890515
 N         -0.1579714220       -1.5987325617        0.6830330049
 N         -4.3882370218        0.0525154936        1.0484567425
 N         -1.7934865340        1.3321155857       -2.4952471708
 C         -1.1163707074       -0.7676737634        0.1877310717
 C         -3.2271460415        0.0113590847        0.3866583362
 C         -1.9595135495        0.6274974659       -1.3695275090
 H         -0.4255952416       -1.9554736578        1.5915219945
 H         -5.1158753570        0.6552038525        0.7097202116
 H         -4.4666952033       -0.4348063334        1.9220478592
 H         -0.9437872746        1.2222530298       -3.0179165171
 H         -2.5737820305        1.8461825137       -2.8617970182
 O          1.9278095820       -0.6821187888        1.3829562258
 O          3.1144929689        0.8257600003       -1.4689938051
 O          2.8974535042       -1.7908126366       -1.3114853780
 O          1.3126675250        1.8597376768        2.6997766928
 C          1.9936937108        0.3945312338       -0.7530611736
 C          2.1578631819        0.5844457852        0.7741299443
 C          1.7306241046       -1.1247286086       -0.9125775094
 C          1.2672190848       -1.5579523864        0.4836114658
 C          1.2098144588        1.6626674029        1.3146540378
 H          1.1166470493        0.9513062856       -1.0973931302
 H          3.1925642003        0.8627646450        1.0097784635
 H          0.9737617885       -1.3257697950       -1.6680948923
 H          1.6334982328       -2.5641883220        0.7220112467
 H          0.1746756731        1.3619682785        1.1335402520
 H          1.4057368713        2.5945011540        0.7671328798
 H          3.5310053077        0.0399113871       -1.8725848854
 H          3.5203772515       -1.8356496521       -0.5691582363
 H          2.2236292638        2.0995676868        2.9250476785
  32
        -58.17594962
 N         -2.4110905426        0.5943442571        0.7707573578
 N         -1.5641927896       -0.8418022598       -0.9158855018
 N         -3.8813137678       -0.3246998650       -0.8516404901
 N         -0.1791582664        0.1245600370        0.6472824303
 N         -4.6525392012        1.0582651920        0.8009456724
 N         -3.0157027509       -1.7067879876       -2.4583180978
 C         -1.4267214504       -0.0619826322        0.1535556193
 C         -3.6236525434        0.4267598656        0.2237777277
 C         -2.8194662624       -0.9369532901       -1.3821027377
 H         -0.1309613866        0.5683940804        1.5516941875
 H         -5.5697682382        0.9517674119        0.4087505634
 H         -4.4794522383        1.6337152610        1.6042332264
 H         -2.2227153038       -2.1461338021       -2.8885956581
 H         -3.9394509986       -1.7770126159       -2.8436696687
 O          1.9355761472       -0.6572511584        1.2430001237
 O          3.8207866186        0.7639228957       -1.2636795101
 O          2.1538011147       -1.2691891930       -1.7935439431
 O          3.2066186016        1.0917414647        3.2008765974
 C          2.6222794034        0.7882943390       -0.5434536705
 C          2.9024238925        0.3443554218        0.9030463169
 C          1.5762885281       -0.2388667469       -1.0499854353
 C          0.9351228006       -0.7212591505        0.2697886776
 C          2.8495457065        1.5012410882        1.9055270407
 H          2.1783055675        1.7931158822       -0.5449046214
 H          3.8925542674       -0.1235823040        0.9603742113
 H          0.8140105396        0.2071203152       -1.6895710650
 H          0.5954707396       -1.7614835323        0.1765815055
 H          1.8415662258        1.9396353879        1.9029751695
 H          3.5734361604        2.2643461945        1.6134818855
 H          3.6535123679        0.9829962276       -2.1922250003
 H          2.9350055997       -1.6088359258       -1.3305420227
 H          2.6892925966        0.3048344608        3.4270303453
  32
        -58.17586438
 N         -2.2928437155       -0.8868682678        0.8234340765
 N         -0.8756348797        0.0010830210       -0.8475148672
 N         -3.1200170696        0.7594245055       -0.6711240575
 N         -0.1692526091       -1.6624028189        0.6335354134
 N         -4.4603692054       -0.1588929189        0.9411552105
 N         -1.7093171109        1.5927396977       -2.2655032093
 C         -1.1224026434       -0.7965449627        0.1891745514
 C         -3.2615243272       -0.0903210425        0.3524123640
 C         -1.9119611306        0.7635472761       -1.2345608711
 H         -0.4631116694       -2.1145917170        1.4891581032
 H         -5.1797457546        0.4763935630        0.6475082932
 H         -4.5688271061       -0.7457706399        1.7479069749
 H         -0.8188200887        1.5944433573       -2.7273995632
 H         -2.4740368305        2.1555228289       -2.5903436377
 O          1.8064057749       -0.5891845689        1.4064831760
 O          3.3801181573        0.6219259062       -1.3720362249
 O          2.8271025553       -1.9391679387       -1.2533441704
 O          1.1251492993        2.0046154663        2.5143097429
 C          2.1492245027        0.3568819477       -0.7695906802
 C          2.1509913198        0.6251881511        0.7541589239
 C          1.7286950881       -1.1336086052       -0.9051339741
 C          1.2594441927       -1.5278875292        0.5024292048
 C          1.2002802156        1.7695998324        1.1324458869
 H          1.4108711004        0.9962430008       -1.2556762423
 H          3.1654702250        0.8783722794        1.0894313837
 H          0.9041381153       -1.2468098059       -1.6084998392
 H          1.6890044174       -2.5007917954        0.7703384924
 H          0.1851860955        1.5185607743        0.8168685053
 H          1.5234549093        2.6736650499        0.5985792727
 H          3.9763048898       -0.1239742512       -1.1790895669
 H          2.9189359635       -1.9605825819       -2.2168557067
 H          2.0144102357        2.1677414878        2.8618822665
  32
        -58.17586130
 N         -2.3899440259       -1.1466297221        0.7294657968
 N         -1.0216453581        0.1786944249       -0.6689038119
 N         -3.3387825172        0.6634558608       -0.4751071823
 N         -0.2033282245       -1.6803695250        0.4980446030
 N         -4.6198619409       -0.6536445816        0.8891402683
 N         -1.9656251641        1.9436460408       -1.7816572486
 C         -1.2153562732       -0.8300064542        0.1787211959
 C         -3.4215073477       -0.3728258744        0.3676759168
 C         -2.1199157046        0.8973414057       -0.9588500023
 H         -0.4899623224       -2.3279193030        1.2194255076
 H         -5.4068460106       -0.0866215221        0.6317958271
 H         -4.7062976550       -1.4318134047        1.5165472496
 H         -1.0834315244        2.0698183085       -2.2437323120
 H         -2.7874910795        2.4312857598       -2.0897114100
 O          1.7011210048       -0.6725712784        1.4932565449
 O          3.9958046529       -0.0000264088       -0.6036269536
 O          2.4092730665       -1.8399405138       -1.6089297839
 O          1.8592661163        2.9004622734        0.8255739093
 C          2.6409241046        0.3160772795       -0.4476990162
 C          2.2289152188        0.5549107642        1.0149334517
 C          1.7163938550       -0.8496590623       -0.8960248683
 C          1.2170012880       -1.4718725838        0.4212595579
 C          1.2114277901        1.6934360549        1.1496859968
 H          2.4841834639        1.2234409924       -1.0330995429
 H          3.1048385271        0.7968413859        1.6263671394
 H          0.8606141763       -0.4697080822       -1.4608398765
 H          1.6705978052       -2.4663212883        0.5321736728
 H          0.8466389343        1.7003170426        2.1848625632
 H          0.3681777696        1.4988994474        0.4741051797
 H          4.1653643087       -0.8819241300       -0.2385030884
 H          2.7779500073       -1.4515767103       -2.4163745498
 H          1.2504408478        3.6394021258        0.9656332581
  32
        -58.17582972
 N         -2.4325600527        0.7106798512       -0.7575765463
 N         -1.7172978785       -1.1617983828        0.5041878367
 N         -4.0325826501       -0.6574244025        0.3389037835
 N         -0.2181335775        0.1792811386       -0.6410778663
 N         -4.6736571050        1.1642936987       -0.8882353205
 N         -3.2923334728       -2.4467485931        1.5564772675
 C         -1.4947213486       -0.0989167738       -0.2635578634
 C         -3.6900277712        0.3833159832       -0.4261748814
 C         -3.0099634698       -1.3951759145        0.7790301853
 H         -0.1156593809        1.0753267145       -1.0960794196
 H         -5.6238497926        0.9271230361       -0.6701136813
 H         -4.4401509904        1.9383195653       -1.4820174738
 H         -2.5402802305       -3.0230600254        1.8858850672
 H         -4.2521137616       -2.6514622519        1.7654299111
 O          1.4025909777        0.5642380607        1.0274870358
 O          3.8899896360       -1.0495651419        0.5841989146
 O          2.2475120136       -1.9871786523       -1.2378629749
 O          3.7283641624        3.1688790432       -0.0835260123
 C          3.3182422430       -0.0315965204       -0.1957057284
 C          2.6736168876        1.0775201370        0.6482022266
 C          2.0970033346       -0.6416136471       -0.9204597876
 C          0.9216551332       -0.3459541829        0.0505065525
 C          2.5409975638        2.4187762618       -0.1013728348
 H          4.0490817702        0.3617784699       -0.9116805032
 H          3.2210178031        1.2574520332        1.5794019745
 H          1.9106860202       -0.1233435233       -1.8658164354
 H          0.5815455173       -1.2531331976        0.5601892517
 H          1.7957452934        3.0205219528        0.4241328379
 H          2.1954595106        2.2471387042       -1.1277380877
 H          4.6671099388       -0.7181187398        1.0544741741
 H          2.7277990268       -2.4216501654       -0.5121533680
 H          4.3909210564        2.7624813794       -0.6593782206
  32
        -58.17581736
 N         -2.5291285367       -0.2748822352        1.0454337813
 N         -1.3323732707       -0.3887694865       -0.9965489485
 N         -3.7028721794       -0.3202210121       -1.0188537297
 N         -0.2466348661       -0.3241378280        1.0336311210
 N         -4.8145867634       -0.1894746379        0.9763525019
 N         -2.5065708900       -0.4351121749       -2.9639558272
 C         -1.4013512503       -0.3386570185        0.3401331826
 C         -3.6546083518       -0.2614882314        0.3171895710
 C         -2.5191824223       -0.3815561879       -1.6278733233
 H         -0.2995736793       -0.3439304087        2.0394150340
 H         -5.6716335506       -0.1826847418        0.4543323094
 H         -4.8006741920       -0.1469150680        1.9787493665
 H         -1.6315049427       -0.4820602784       -3.4533615701
 H         -3.3825557529       -0.4307573525       -3.4536587054
 O          1.9881520709       -0.7354280001        1.4512421936
 O          3.6088090957       -0.5663552553       -1.1920109897
 O          1.1517007472        0.2541222498       -1.8548438406
 O          2.5469853241        2.2320814963        1.9024217648
 C          3.0418696799        0.4036200978       -0.3520423578
 C          3.1868072198       -0.0269186960        1.1135035285
 C          1.5173230215        0.4800515891       -0.5270291887
 C          1.0295921226       -0.6232897473        0.4372439584
 C          3.4137941708        1.1376319943        2.0950297794
 H          3.5219672875        1.3728125884       -0.5407551645
 H          4.0176929792       -0.7344589116        1.2082368850
 H          1.1413684965        1.4474578649       -0.1646504324
 H          0.9607590954       -1.5757951107       -0.1227116254
 H          4.4609376949        1.4473480977        2.0368546108
 H          3.2073884539        0.7600651803        3.0990616015
 H          3.1152707787       -0.5506414761       -2.0300345138
 H          0.1944374152        0.0066236666       -1.8241798718
 H          2.9110917103        2.8282048838        1.2351929345
  32
        -58.17578779
 N         -2.2377342277        1.0976802936        0.0921650598
 N         -1.6075493860       -1.1366101530       -0.3806955226
 N         -3.9056843450       -0.5444454338       -0.3032590226
 N         -0.0333898444        0.5220257286       -0.0539917380
 N         -4.4627980729        1.6346429219        0.1239300110
 N         -3.2479282237       -2.6997856447       -0.7055464205
 C         -1.3325292077        0.1366267738       -0.0994184376
 C         -3.5121033253        0.7037511356       -0.0286331655
 C         -2.9144474211       -1.4244907234       -0.4637236514
 H          0.1197840271        1.4328997270        0.3597570889
 H         -5.4247521607        1.3496257283        0.1049085285
 H         -4.1884284504        2.5607231678        0.3955649853
 H         -2.5177049902       -3.3511553550       -0.9283983362
 H         -4.2140817238       -2.9189857637       -0.8664997288
 O          1.7635039342       -0.2395577055        1.2549091615
 O          4.3079409600       -0.9103380469       -0.2963965677
 O          2.2246876483       -1.4997461417       -1.8213959298
 O          1.5534757408        2.3682521284        1.9390500408
 C          3.3865496326        0.1414716708       -0.4096042586
 C          2.9131457715        0.5524423753        0.9897178117
 C          2.0666882823       -0.3139945304       -1.1034567196
 C          1.0431895109       -0.4298004932        0.0631593849
 C          2.6011828881        2.0663763553        1.0536240231
 H          3.8395402775        0.9917531256       -0.9312566981
 H          3.6474918582        0.2692345888        1.7480841702
 H          1.7190022568        0.4302489772       -1.8222285128
 H          0.5823659165       -1.4236439181        0.0816087556
 H          2.2648060748        2.4214964210        0.0764348960
 H          3.5157555451        2.6070463752        1.3273553061
 H          4.6461753137       -1.1336041049       -1.1769900266
 H          2.5759564166       -2.1820699622       -1.2257079599
 H          1.7494730829        1.9987366562        2.8115015181
  32
        -58.17574150
 N         -2.1738243131        0.0808258304       -1.2063953566
 N         -1.8014527018       -0.6179310102        1.0251260208
 N         -3.9900084282       -0.0272173246        0.3179089296
 N         -0.0876385955       -0.5506836095       -0.5269186260
 N         -4.2992551175        0.6462581837       -1.8467176467
 N         -3.5806270727       -0.7144357605        2.4615235533
 C         -1.3965041395       -0.3392466556       -0.2094403842
 C         -3.4703063084        0.2191308883       -0.8878014315
 C         -3.1157285050       -0.4431312349        1.2376001108
 H          0.1715085450       -0.1942843242       -1.4353413826
 H         -5.2771234914        0.7321910264       -1.6383836034
 H         -3.9349676615        0.8079690560       -2.7674024015
 H         -2.9366537468       -1.0102611904        3.1717693332
 H         -4.5562503467       -0.5764729393        2.6515506444
 O          1.5080775574        0.6344253012        0.7867011802
 O          4.3247624223       -0.7863451312       -0.7806604809
 O          2.8452012295       -2.0123828533        1.1011793999
 O          2.5172653897        3.2387122472       -0.2778135324
 C          2.9680844812       -0.4658684178       -0.7584698775
 C          2.6574418896        0.8659668395       -0.0289479901
 C          2.1134897063       -1.4886192908        0.0262979957
 C          0.9312592245       -0.6250815056        0.4802917293
 C          2.4508992791        2.0310337588       -0.9989312268
 H          2.6305246893       -0.4071901838       -1.7986328723
 H          3.4813417073        1.1422679552        0.6402246569
 H          1.8028752168       -2.3358542430       -0.5848222333
 H          0.4425543363       -0.9907008608        1.3873504418
 H          1.4758379688        1.9232877454       -1.4910684979
 H          3.2499047807        1.9853014651       -1.7510701717
 H          4.5059971846       -1.3840905896       -0.0316225824
 H          2.8841425522       -1.3583129760        1.8156137727
 H          2.3607987039        3.9827699664       -0.8765062551
  32
        -58.17570389
 N         -2.3941478398       -1.2276984078        0.6796102325
 N         -1.0456811901        0.1951268620       -0.6389263544
 N         -3.3636160778        0.6525708841       -0.3929421304
 N         -0.1993721304       -1.7231257126        0.4054084305
 N         -4.6278678072       -0.7682245107        0.8806287584
 N         -2.0141670495        2.0158481267       -1.6368919419
 C         -1.2260356788       -0.8639407064        0.1476710397
 C         -3.4343680956       -0.4395312221        0.3768501453
 C         -2.1510819745        0.9234410119       -0.8734747861
 H         -0.4759315271       -2.4104821777        1.0935143619
 H         -5.4172348531       -0.1804518324        0.6841505921
 H         -4.6997342106       -1.5776874927        1.4691991629
 H         -1.1376772142        2.1826202224       -2.0966685793
 H         -2.8418639948        2.5211861193       -1.8970364914
 O          1.5543272012       -0.5568044512        1.4849820204
 O          4.0404166604       -0.2588374659       -0.3602650605
 O          2.3316355394       -1.7615715944       -1.6818891649
 O          2.0321415592        2.9498749275        0.6287731573
 C          2.7424234963        0.2746685335       -0.3927231831
 C          2.2328850173        0.6009657141        1.0173025585
 C          1.7207018426       -0.7737472216       -0.8948378684
 C          1.2041012134       -1.4159784910        0.4073784111
 C          1.3000739659        1.8172536618        1.0320111467
 H          2.7540221713        1.1825759098       -1.0059791832
 H          3.0796651684        0.7841211179        1.6870889129
 H          0.8838925468       -0.2901788421       -1.4004860721
 H          1.7248754109       -2.3727609258        0.5545930393
 H          0.9141689542        1.9302301941        2.0523115697
 H          0.4579005432        1.6229199061        0.3538795559
 H          4.0055255381       -1.1396333549       -0.7791332696
 H          2.3350333352       -1.4894063727       -2.6111111266
 H          1.4918861842        3.7426836554        0.7565110149
  32
        -58.17569333
 N         -2.3195069642       -1.0854133057        0.7080334587
 N         -0.9658706564        0.1848194266       -0.7528472664
 N         -3.2564166294        0.7451854041       -0.4731777252
 N         -0.1458373296       -1.6703448755        0.4197698262
 N         -4.5359518648       -0.5476959470        0.9156083528
 N         -1.9141663397        1.9324305056       -1.8924784774
 C         -1.1569571444       -0.7993982892        0.1219198419
 C         -3.3420124118       -0.2870678420        0.3730264444
 C         -2.0512932218        0.9366319195       -1.0068580127
 H         -0.4253010192       -2.2735994547        1.1826557877
 H         -5.2972375017        0.0795287136        0.7298386928
 H         -4.6066322945       -1.2771121252        1.6012502374
 H         -0.9975749709        2.1602283127       -2.2322330348
 H         -2.6846607113        2.5636957489       -2.0193339950
 O          1.6044751372       -0.3946540389        1.3842371183
 O          4.1080251311       -0.3375071858       -0.3741232800
 O          2.4193604504       -1.8435972510       -1.7170183765
 O          0.8157919846        2.3497899076        1.8708167554
 C          2.8288732727        0.2106499441       -0.5446025163
 C          2.2956856989        0.7060012109        0.8046475255
 C          1.7897106154       -0.8518622585       -0.9532627566
 C          1.2608671313       -1.3644459211        0.4054185549
 C          1.3802890916        1.9292597613        0.6545392653
 H          2.8711537360        1.0247122923       -1.2806071846
 H          3.1307028920        0.9342649362        1.4767395704
 H          0.9670795922       -0.3751302145       -1.4922552090
 H          1.7817471311       -2.2967424867        0.6677377859
 H          0.5364834070        1.6608214773        0.0136750336
 H          1.9520082416        2.7439481806        0.1909606049
 H          4.2190319908       -1.0451311151       -1.0315562425
 H          1.7590953557       -2.4196717055       -2.1240952125
 H          1.5217866829        2.5186455866        2.5117675806
  32
        -58.17561770
 N         -2.3776446039       -1.1455182003        0.7354940694
 N         -1.0355374118        0.1821117314       -0.6860871992
 N         -3.3572131097        0.6400130276       -0.4794444293
 N         -0.1903023031       -1.6589895062        0.4962831170
 N         -4.6122000759       -0.6794458163        0.9070514128
 N         -2.0132049867        1.9221861161       -1.8115876083
 C         -1.2111839095       -0.8206132110        0.1724554196
 C         -3.4209996738       -0.3875063138        0.3751578017
 C         -2.1451782699        0.8836599128       -0.9750356949
 H         -0.4752254171       -2.3048008975        1.2201834905
 H         -5.4051922221       -0.1154254448        0.6621001138
 H         -4.6815549538       -1.4442602444        1.5527150024
 H         -1.1431119545        2.0498335588       -2.2951537300
 H         -2.8458529570        2.3960531031       -2.1121485195
 O          1.7002732137       -0.6177573025        1.4841291063
 O          4.0424670735       -0.2617022768       -0.4326611578
 O          2.2995619838       -1.7412539304       -1.7678891622
 O          1.7965266785        3.0106935379        0.9735184790
 C          2.7381156381        0.2608110596       -0.4232805747
 C          2.2372967481        0.6015199485        0.9830741233
 C          1.7235931971       -0.8074749259       -0.9033317310
 C          1.2265370377       -1.4406407494        0.4194950786
 C          1.2009318956        1.7388902669        1.0144177230
 H          2.7592736708        1.1214879533       -1.0923094160
 H          3.0620220737        0.8786016099        1.6499295621
 H          0.8719267497       -0.3456508400       -1.4069997417
 H          1.6850546787       -2.4302006116        0.5491333149
 H          0.6740769426        1.6842350776        1.9706937147
 H          0.4714503696        1.6018744364        0.2078010306
 H          4.1704743402       -0.8370985722        0.3364362111
 H          3.2701405176       -1.6623866329       -1.6877526470
 H          2.2162796564        3.1544332018        0.1137467452
  32
        -58.17557529
 N         -2.3087873668       -0.9485630762        0.7721658100
 N         -0.9302612975        0.1461499496       -0.8052645850
 N         -3.2140746036        0.7655981450       -0.5953133962
 N         -0.1507761286       -1.5973377670        0.5490093266
 N         -4.5113501333       -0.3430622801        0.9298664116
 N         -1.8474173682        1.7747493585       -2.1262950392
 C         -1.1396065716       -0.7466080167        0.1609711017
 C         -3.3145328674       -0.1676511803        0.3584216405
 C         -2.0058269440        0.8775012038       -1.1447761849
 H         -0.4382579097       -2.1344387296        1.3560734151
 H         -5.2579130969        0.2821064068        0.6863959213
 H         -4.5897186214       -0.9869055042        1.6956080333
 H         -0.9320055088        1.9234896634       -2.5087983033
 H         -2.6160715195        2.3782472570       -2.3547560001
 O          1.7965477733       -0.5401614699        1.4075421738
 O          3.9505746395        0.1504285608       -0.8919397628
 O          2.5577825042       -1.9709345190       -1.4984546563
 O          0.7575341221        1.9884791907        2.2339219485
 C          2.5827420269        0.3334267226       -0.6611508179
 C          2.2607206529        0.6628892482        0.8114960521
 C          1.7600488053       -0.9567202225       -0.9467785059
 C          1.2745606815       -1.4284018749        0.4368389028
 C          1.2337493241        1.7998020697        0.9255041938
 H          2.2717118335        1.1565093581       -1.3077407328
 H          3.1742253925        0.9349438005        1.3531308943
 H          0.8935402407       -0.7321611789       -1.5711770404
 H          1.7105667476       -2.4145996708        0.6460071661
 H          0.3585373366        1.5527353055        0.3198549796
 H          1.6895873693        2.7216862172        0.5400809765
 H          4.1852246773       -0.7675863383       -0.6734909483
 H          2.7259580234       -1.7790155566       -2.4328097481
 H          1.5072959923        2.1269395758        2.8310457536
  32
        -58.17557371
 N         -2.5335552118       -0.0021937121       -1.1729938888
 N         -1.7248565960       -0.5439969533        0.9855774540
 N         -4.0637741052       -0.3869518229        0.6006268073
 N         -0.2943558703       -0.2319586161       -0.8080897128
 N         -4.7942009304        0.1397267331       -1.5039867866
 N         -3.2330153432       -0.8809750303        2.6740297509
 C         -1.5549324287       -0.2422263373       -0.2997029269
 C         -3.7731920578       -0.0930174110       -0.6705880964
 C         -3.0045381386       -0.5979988166        1.3859378762
 H         -0.2183967585        0.1579167849       -1.7366417866
 H         -5.7322765836        0.0435316188       -1.1612592092
 H         -4.5964280772        0.3229420933       -2.4703237789
 H         -2.4534452952       -1.0750106759        3.2747896428
 H         -4.1816711593       -0.9568374095        2.9917876160
 O          1.3319022879        1.1807969480        0.0749935334
 O          4.0630449825       -0.7569451164        0.8554482438
 O          2.1004164153       -2.2927319957       -0.0349184971
 O          3.4646087567        2.3067282680       -1.5783847399
 C          3.3014944192       -0.1455416484       -0.1525791024
 C          2.7119101924        1.1680138610        0.3955189961
 C          2.0537062017       -0.9916330286       -0.5337985865
 C          0.8664053041       -0.1592979669        0.0117188111
 C          3.3732627337        2.4205751526       -0.1763674479
 H          3.9088661459        0.0651582238       -1.0373352813
 H          2.8366749473        1.1628897409        1.4894913451
 H          1.9606355471       -1.0798126863       -1.6185232322
 H          0.5789479200       -0.5137191406        1.0121741838
 H          4.3716681460        2.5162746195        0.2691344675
 H          2.7560242551        3.2787601589        0.1092929757
 H          4.5969084701       -1.4663303116        0.4676346813
 H          2.3716441512       -2.2582528532        0.8982674745
 H          3.7608404425        3.1511854678       -1.9461518249
  32
        -58.17546507
 N         -2.5156801168       -1.2540157348        0.7068360670
 N         -1.0550818550        0.0268174223       -0.6415465619
 N         -3.3660079186        0.5716191434       -0.5445863156
 N         -0.3193899118       -1.8186961093        0.5850446563
 N         -4.7424222203       -0.7199744062        0.7495271057
 N         -1.9162269823        1.8064261034       -1.8049076378
 C         -1.3136294352       -0.9624615515        0.2095713923
 C         -3.5131957269       -0.4601001774        0.2934430442
 C         -2.1216776092        0.7705926928       -0.9789079224
 H         -0.6206074415       -2.4214063758        1.3382594978
 H         -5.4993022859       -0.1217299928        0.4730660102
 H         -4.8706929948       -1.4775244152        1.3947957661
 H         -1.0189685907        1.9137857065       -2.2403476562
 H         -2.7168765257        2.3117794298       -2.1391212645
 O          1.3308177048       -0.4029112415        1.4752244549
 O          3.1398272199        0.7797321739       -1.3349106420
 O          2.7531402088       -1.8603951239       -1.1375908662
 O          3.1187122921        2.7531666111        1.1570249832
 C          1.9901993446        0.4014838129       -0.6313975622
 C          2.2428151771        0.4990161833        0.8813589165
 C          1.6299588073       -1.0887661863       -0.8067237054
 C          1.0732151419       -1.4871276718        0.5802556743
 C          2.0418703747        1.9030753075        1.4528858240
 H          1.1143807973        1.0063547072       -0.8893550524
 H          3.2773922709        0.1799572616        1.0899178508
 H          0.8587350999       -1.2426145212       -1.5662582214
 H          1.6182508748       -2.3760911291        0.9263215402
 H          1.9852324603        1.8362031189        2.5412384750
 H          1.0943884288        2.3153081501        1.0791219516
 H          2.9443997543        0.8352552849       -2.2824615837
 H          3.5241651178       -1.2662165964       -1.1969274584
 H          3.3200492944        2.6957927353        0.2105473732
  32
        -58.17540211
 N         -2.4937503704        0.1106273214       -1.1596216466
 N         -1.7375378562       -0.6676872405        0.9437949336
 N         -4.0609186153       -0.3594850568        0.5603714457
 N         -0.2694948194       -0.2604029262       -0.8012041766
 N         -4.7435782134        0.3799652472       -1.4942648010
 N         -3.2785009811       -1.0888441581        2.5828515332
 C         -1.5387691905       -0.2545305720       -0.3044762077
 C         -3.7425784802        0.0354983623       -0.6761643586
 C         -3.0228683438       -0.6976400432        1.3289830760
 H         -0.1734223112        0.2362176775       -1.6768657336
 H         -5.6840418520        0.3569418184       -1.1452751757
 H         -4.5253671515        0.6983991618       -2.4201684617
 H         -2.5156732771       -1.3864462555        3.1626141227
 H         -4.2335559043       -1.1585831374        2.8826151436
 O          1.3122020057        1.1003057735        0.2245953361
 O          4.2811433130       -0.7696602720        0.5054261056
 O          2.1656888760       -2.2586113080        0.1380405547
 O          3.2284918038        2.4683809839       -1.4520758993
 C          3.3024797572       -0.1260949540       -0.2558372935
 C          2.7098746414        1.1129981888        0.4565027363
 C          2.0664653778       -1.0294240256       -0.5281984539
 C          0.8742710462       -0.2370271683        0.0510547617
 C          3.2925280579        2.4332286791       -0.0445152371
 H          3.7735556485        0.1852924995       -1.1911354143
 H          2.9050325514        1.0273155464        1.5367423011
 H          1.9122692511       -1.1653086971       -1.6019374511
 H          0.5765107704       -0.6797619058        1.0123235823
 H          4.3331350326        2.4971424033        0.2980849423
 H          2.7059275459        3.2481638310        0.3938741581
 H          3.8366768008       -1.4188886735        1.0805696105
 H          2.6518204349       -2.8924097451       -0.4096649877
 H          3.5161087059        3.3395091204       -1.7588949991
  32
        -58.17538005
 N         -2.5103304441       -0.6021626060       -1.1858677843
 N         -1.7179522596       -0.1435314728        0.9975146381
 N         -4.0478944282       -0.0708940050        0.5425569554
 N         -0.2811504589       -0.7352363972       -0.7194239830
 N         -4.7659148740       -0.5468163518       -1.5774936217
 N         -3.2318484589        0.3900189993        2.6294141749
 C         -1.5411443135       -0.4619408990       -0.2821757304
 C         -3.7509616999       -0.4006534350       -0.7181604327
 C         -2.9970296426        0.0471161365        1.3573861259
 H         -0.1960195278       -0.7985836275       -1.7238906226
 H         -5.6994962023       -0.3604562199       -1.2603575402
 H         -4.5613538854       -0.7584637858       -2.5365967969
 H         -2.4598618449        0.4456796363        3.2676867432
 H         -4.1820105025        0.4977587832        2.9335706706
 O          1.3787876361        0.8917667584       -0.5422723913
 O          4.1917696313       -0.5935084390        0.8724335761
 O          2.1064872734       -2.2237202305        0.9863111813
 O          3.0587671018        3.2913754172       -0.9958363698
 C          3.3119693152       -0.4335977464       -0.2040309745
 C          2.7403719153        0.9977785143       -0.1719530972
 C          2.0487711225       -1.3388213089       -0.0891584003
 C          0.8768691961       -0.3248834506       -0.0030253896
 C          3.4750455862        1.9568127141       -1.1099444640
 H          3.8220458877       -0.6098121388       -1.1584424626
 H          2.8133880479        1.3609972459        0.8664108072
 H          1.9261331899       -1.9577494925       -0.9805933813
 H          0.5736112815       -0.1841105102        1.0445173789
 H          3.2685318227        1.6718942011       -2.1434574511
 H          4.5513237549        1.8651192932       -0.9115990491
 H          4.6131887624       -1.4649486309        0.8204389854
 H          2.3690191604       -1.7394367574        1.7863492524
 H          3.1861435631        3.5958750292       -0.0859222857
  32
        -58.17532773
 N         -2.4686296913       -1.0874760730        0.7773898545
 N         -1.0450871401       -0.0731540850       -0.8113497142
 N         -3.3268543157        0.5718201536       -0.6865364051
 N         -0.2930786682       -1.7464218214        0.6296904171
 N         -4.6717205843       -0.4664807482        0.8467829209
 N         -1.9001177583        1.5385407431       -2.1922330660
 C         -1.2863430016       -0.9144672778        0.1873044991
 C         -3.4609125657       -0.3223800300        0.2988330338
 C         -2.1015654656        0.6563128870       -1.2063365716
 H         -0.5784673151       -2.2175093325        1.4784738337
 H         -5.4195581036        0.1247501624        0.5331551234
 H         -4.7851255680       -1.1075303937        1.6103827976
 H         -1.0000643423        1.5779616486       -2.6347288896
 H         -2.6827839818        2.0602853593       -2.5425019685
 O          1.3804042654       -0.2833786277        1.4061740745
 O          2.9747090063        0.8247112084       -1.6163273317
 O          2.8346790409       -1.7792140446       -1.1074256541
 O          2.7992651510        2.1817175171        2.4451778524
 C          1.9648618844        0.4092332552       -0.7557302759
 C          2.2850016876        0.5823053987        0.7416048724
 C          1.6377636971       -1.0945578611       -0.8349108663
 C          1.1023631095       -1.4137480180        0.5802294714
 C          2.1177650039        2.0168839664        1.2238993465
 H          1.0625770406        0.9805039107       -0.9905905473
 H          3.3177086292        0.2596770946        0.9446749523
 H          0.8718248510       -1.2956845487       -1.5851302033
 H          1.6493776458       -2.2790103954        0.9821191218
 H          1.0454514834        2.2186250547        1.3379487966
 H          2.5387385571        2.6752882584        0.4526970152
 H          3.6405941275        0.1167885181       -1.6609622814
 H          2.6457576965       -2.6718936961       -1.4257924647
 H          2.6727003776        3.0876515347        2.7611790038
  32
        -58.17510899
 N         -2.1940365517       -0.7195089775        0.9034135869
 N         -0.9002426365       -0.1075137090       -0.9759168514
 N         -3.0692496561        0.8143027394       -0.6817407073
 N         -0.1410119411       -1.6353648037        0.6216365121
 N         -4.2821901170        0.1838336673        1.1548709340
 N         -1.7858349984        1.3480546020       -2.5009441735
 C         -1.0804442855       -0.7593843451        0.1676743158
 C         -3.1563588195        0.0850376077        0.4362433442
 C         -1.9230113803        0.6767248075       -1.3492883494
 H         -0.3997964010       -1.9987822991        1.5305308419
 H         -5.0402461870        0.7319161213        0.7917130634
 H         -4.3899868285       -0.4015737865        1.9625374805
 H         -0.8968263649        1.3274628689       -2.9662999716
 H         -2.4996561618        2.0026628556       -2.7641225267
 O          1.9742005004       -0.9221747630        1.4332164646
 O          3.0205351036        1.0608464935       -1.2756795053
 O          2.9392140691       -1.6048217052       -1.3751895363
 O          0.3353551362        1.5602056448        1.5816888366
 C          2.0134615509        0.4637632975       -0.5131428051
 C          2.3651616897        0.3741977343        0.9887160942
 C          1.7591406129       -1.0090556740       -0.9028449563
 C          1.2818865486       -1.6307871297        0.4112394875
 C          1.7252648514        1.4814468184        1.8281696708
 H          1.0894639915        1.0360918969       -0.6346093202
 H          3.4527993556        0.4538501734        1.1212401301
 H          1.0142370050       -1.1003750768       -1.6904846884
 H          1.6092005733       -2.6757537261        0.4962865768
 H          2.2159260630        2.4246792129        1.5572687506
 H          1.9133581625        1.2559965051        2.8847768130
 H          3.5086293513        0.3483072767       -1.7300798150
 H          3.5483116790       -1.7595938640       -0.6367553885
 H         -0.0242755997        2.2668418789        2.1360791968
  32
        -58.17507369
 N         -2.3073676513       -0.9815825145        0.8340028838
 N         -0.9045514766       -0.0499232818       -0.8231074621
 N         -3.1170403027        0.7680049631       -0.5497581410
 N         -0.2072289243       -1.8000780349        0.5590865875
 N         -4.4436442299       -0.1874699115        1.0517141879
 N         -1.7167287458        1.6379000794       -2.1365796532
 C         -1.1487194142       -0.8891665737        0.1783323897
 C         -3.2636924375       -0.1355322750        0.4255838707
 C         -1.9218147102        0.7677923665       -1.1414936865
 H         -0.5081704366       -2.2981494349        1.3872851002
 H         -5.1800231167        0.4241738362        0.7505231537
 H         -4.5814724071       -0.8722587027        1.7720422030
 H         -0.8100680643        1.6864294432       -2.5643315421
 H         -2.4444459816        2.2888310638       -2.3690909656
 O          1.7775276337       -0.8523172973        1.4714853564
 O          3.2555447111        0.7898314117       -1.1737185646
 O          2.9040901944       -1.7658388914       -1.2934105514
 O          1.5869209981        2.7596967225        1.1650412346
 C          2.0704616868        0.3684485970       -0.5724968880
 C          2.1029917190        0.4360960028        0.9733870981
 C          1.7279303653       -1.1111318805       -0.8871831957
 C          1.2252590085       -1.6720616297        0.4545179078
 C          1.1392932968        1.4833565443        1.5427203450
 H          1.2740412960        1.0183833885       -0.9416366137
 H          3.1169025629        0.6825257802        1.3099185783
 H          0.9430064715       -1.1701922757       -1.6402860180
 H          1.6373364977       -2.6735461721        0.6261643396
 H          1.1240564652        1.3708416329        2.6348216627
 H          0.1298197099        1.2858446797        1.1553392330
 H          3.8383164986        0.0136420091       -1.2578258389
 H          2.6963230630       -2.4892966423       -1.8990670954
 H          1.0026484188        3.4325895027        1.5431140878
  32
        -58.17505636
 N         -1.0463692946       -0.4269801833       -0.5274230702
 N         -2.1605000452        0.0571490696        1.4989641747
 N         -3.1300102534        0.7111256836       -0.5658002936
 N         -0.1893333155       -1.0696273226        1.5490028130
 N         -2.0117777072        0.2140648188       -2.4995653657
 N         -4.1789801402        1.1355804991        1.4233697359
 C         -1.1395414645       -0.4409809918        0.7982564436
 C         -2.0671184051        0.1713374185       -1.1638908796
 C         -3.1352588241        0.6166747145        0.7683105907
 H         -0.3583470924       -0.9185025709        2.5355419126
 H         -2.7441485276        0.6821197746       -3.0014224844
 H         -1.2034099139       -0.1535084085       -2.9673566970
 H         -4.2220556502        1.0375251386        2.4211004442
 H         -4.9375392675        1.5250119278        0.8939043144
 O          1.9729007115       -0.0767279015        1.4862838918
 O          2.9992691373       -0.4922563443       -1.7860285845
 O          2.5708983841       -2.5533119268       -0.2873117708
 O          1.9156711825        2.6826944490       -0.8682436045
 C          1.9372125208       -0.3240096066       -0.8991785798
 C          2.2591943809        0.6208906339        0.2839748036
 C          1.4976431760       -1.6478312682       -0.2233969955
 C          1.2066425814       -1.2427308407        1.2314461782
 C          1.4680374397        1.9326292240        0.2311595537
 H          1.1043907320        0.0905784940       -1.4715304063
 H          3.3279791091        0.8649511521        0.2809269042
 H          0.5987482356       -2.0419177089       -0.6975162542
 H          1.5874976965       -2.0029292274        1.9238810245
 H          1.6364988333        2.4657532487        1.1761565108
 H          0.3965475425        1.7018187285        0.1449708591
 H          3.5426385620       -1.2335535636       -1.4639031993
 H          2.2482651168       -3.4617399910       -0.2228530576
 H          1.4488080340        3.5302747091       -0.8940637485
  32
        -58.17506490
 N         -2.3324516963       -1.1000818639        0.6955127904
 N         -0.9633532991        0.2261719498       -0.7018250801
 N         -3.2869087621        0.6914358963       -0.5316044171
 N         -0.1353725858       -1.6063507160        0.5013311612
 N         -4.5721208930       -0.6407199359        0.8142084349
 N         -1.9201675928        1.9608966823       -1.8511129082
 C         -1.1550843040       -0.7740811386        0.1560502623
 C         -3.3673825446       -0.3406501864        0.3157355413
 C         -2.0653114308        0.9329900860       -1.0056170172
 H         -0.4205722634       -2.2355631438        1.2391003201
 H         -5.3522544447       -0.0541030039        0.5813250498
 H         -4.6481768316       -1.3877216629        1.4796044995
 H         -1.0212466093        2.1417386322       -2.2576353632
 H         -2.7344594237        2.4841975378       -2.1158318154
 O          1.6764306299       -0.3804448969        1.4123268150
 O          4.0747941918       -0.4439525698       -0.4531891697
 O          2.2783065240       -1.8627559263       -1.7414178487
 O          0.8504627760        2.3724256596        1.8705050178
 C          2.8370543014        0.2155347537       -0.5548338608
 C          2.3285198070        0.7275332322        0.8017098972
 C          1.7793091039       -0.8439792557       -0.9329621944
 C          1.2745349110       -1.3395528426        0.4444289511
 C          1.3906345326        1.9346606608        0.6488560566
 H          2.8777402902        1.0150447986       -1.3004754892
 H          3.1586049108        0.9825792525        1.4713748911
 H          0.9427685319       -0.3833642978       -1.4612023425
 H          1.7716664664       -2.2869332690        0.6952273995
 H          0.5363728983        1.6415929320        0.0331664501
 H          1.9374537104        2.7501241701        0.1564120090
 H          4.7937210726        0.1989321256       -0.3855649535
 H          3.1970838221       -2.0384525697       -1.4716371249
 H          1.5682720697        2.5737384107        2.4889185378
  32
        -58.17495180
 N         -1.1192119172       -0.5879598594       -0.4908830550
 N         -2.0367973160        0.3585766489        1.4704399155
 N         -3.1370826870        0.6582291938       -0.6102438716
 N         -0.1353669919       -0.8702332271        1.6097887036
 N         -2.2111880548       -0.2861074024       -2.4775171448
 N         -3.9794742155        1.5621733021        1.3155802852
 C         -1.1050372212       -0.3375760980        0.8138593186
 C         -2.1579888223       -0.0612820395       -1.1606680098
 C         -3.0337438494        0.8344592274        0.7111121641
 H         -0.2409220830       -0.5583986979        2.5671848724
 H         -2.9657037365        0.1096817997       -3.0079231727
 H         -1.4700407893       -0.8019881839       -2.9152873315
 H         -3.9561389684        1.6517088749        2.3148374268
 H         -4.7650914247        1.8749589898        0.7746924526
 O          2.1213992665       -0.1319069059        1.4663031135
 O          2.8459845089       -0.5652432652       -1.8547108322
 O          2.4995003013       -2.6105549378       -0.2472478044
 O          1.8631694439        2.6541508206       -0.8495202654
 C          1.8470827332       -0.3619143053       -0.8988493087
 C          2.2918292978        0.5799303915        0.2464012176
 C          1.4603564466       -1.6731778733       -0.1654265179
 C          1.2215627449       -1.2166494122        1.2767333911
 C          1.5096254139        1.8971274881        0.2793006521
 H          0.9696486644        0.0595560262       -1.3987833592
 H          3.3559476553        0.8183373896        0.1392307966
 H          0.5762949896       -2.1355046178       -0.5986893246
 H          1.5299315499       -1.9887774244        1.9919680723
 H          1.7689229921        2.4196299066        1.2094495132
 H          0.4319701946        1.6789571720        0.2890464859
 H          3.1448534821       -1.4923515836       -1.7780211719
 H          3.2375727923       -2.3289005244        0.3159534466
 H          1.4096256492        3.5087477464       -0.8216167204
  32
        -58.17492374
 N         -2.4638744906        0.0728490301        1.0321156145
 N         -1.5000631196       -0.5522307649       -1.0409047542
 N         -3.8498600573       -0.2576760475       -0.8676517609
 N         -0.2012231656       -0.1695810425        0.8243194156
 N         -4.7333841400        0.3541298645        1.1523174521
 N         -2.8668951323       -0.8478228834       -2.8505871631
 C         -1.4281607664       -0.2343199628        0.2478463636
 C         -3.6559657982        0.0489745596        0.4193504574
 C         -2.7409702521       -0.5494799288       -1.5521586019
 H         -0.2045631023       -0.1527446329        1.8336782763
 H         -5.6386159662        0.3164255651        0.7213491778
 H         -4.6148576131        0.5628548697        2.1262991374
 H         -2.0480129478       -1.1336515007       -3.3557202010
 H         -3.7870613348       -0.9206051477       -3.2444183770
 O          1.9464033556       -0.9902624404        1.1869662374
 O          4.0302723715        0.0091118203       -0.9754675090
 O          1.7359908504       -0.6178454612       -2.0484118764
 O          3.4225765344        2.2026870160        2.1530166007
 C          2.9542399305        0.5694705219       -0.2797225196
 C          2.8624535958        0.0997646413        1.1835851146
 C          1.5831228494        0.1328046235       -0.8788872932
 C          0.9663434211       -0.7737648843        0.2130274495
 C          2.4063800615        1.2288835765        2.1167628966
 H          3.1061706916        1.6492356528       -0.3231640505
 H          3.8255983435       -0.2824620560        1.5326170114
 H          0.9252921909        0.9935839128       -1.0425231108
 H          0.6952336661       -1.7396352380       -0.2364477436
 H          2.2316574898        0.8006344757        3.1115284276
 H          1.4686928198        1.6537816262        1.7355919512
 H          3.8701563674       -0.9401427407       -1.0976042987
 H          2.1168559681       -0.0577405413       -2.7417953413
 H          3.1734475620        2.9031917111        2.7726954062
  32
        -58.17489435
 N         -2.3563231688       -0.0715029200        1.0800112622
 N         -1.3359244211       -0.2926947168       -1.0440668800
 N         -3.6848601291        0.0130497197       -0.8847764952
 N         -0.0887622774       -0.3057094682        0.9054082223
 N         -4.6250795872        0.2243697641        1.1902222128
 N         -2.6493647967       -0.2096010072       -2.9150834334
 C         -1.3033376958       -0.2366921181        0.2806388243
 C         -3.5300398195        0.0570661730        0.4420900530
 C         -2.5610193181       -0.1665979958       -1.5817477515
 H         -0.1632561194       -0.5613712880        1.8829942278
 H         -5.5104028783        0.3423762310        0.7325009966
 H         -4.5287910534        0.2869279895        2.1870088416
 H         -1.8226347001       -0.4259747699       -3.4416431626
 H         -3.5582936955       -0.1906834372       -3.3406168312
 O          2.0576169516       -1.1304046537        1.2027919870
 O          4.1214238701        0.0332221772       -0.9400608770
 O          1.8495900024       -0.6931546365       -2.0043978351
 O          1.5838027380        1.9553253812        1.7473380662
 C          3.0240935649        0.5058816524       -0.2140680906
 C          2.9696413309       -0.0302605505        1.2293652381
 C          1.6680617507        0.0399756767       -0.8263832450
 C          1.0676155652       -0.8950899506        0.2463321867
 C          2.5551685695        1.0604324888        2.2346857540
 H          3.1085147989        1.5942172000       -0.2126318531
 H          3.9321913114       -0.4460717923        1.5375950163
 H          0.9936162869        0.8873358210       -0.9861921202
 H          0.8005043771       -1.8550994150       -0.2190798702
 H          3.4277710164        1.6755576290        2.4615589882
 H          2.2128864314        0.5715743045        3.1548697324
 H          3.9997004171       -0.9126527148       -1.1210036072
 H          2.2408946378       -0.1162226702       -2.6781857182
 H          0.7664752094        1.4653547131        1.5568418669
  32
        -58.17483832
 N         -2.3794551791       -0.1136082660       -1.2435644417
 N         -1.8486991138       -0.5262001629        1.0261906826
 N         -4.1085588885       -0.1830952234        0.3812864580
 N         -0.2193134723       -0.5080218710       -0.6182758857
 N         -4.5735100067        0.1891095324       -1.8280095690
 N         -3.5430417224       -0.5753330659        2.5634382203
 C         -1.5234351790       -0.3580241690       -0.2515739586
 C         -3.6660923707       -0.0387114117       -0.8713103348
 C         -3.1608507957       -0.4243392358        1.2906106684
 H         -0.0333518598       -0.2009321265       -1.5630885866
 H         -5.5356266227        0.2989595134       -1.5647852270
 H         -4.2574798274        0.3522772747       -2.7661367672
 H         -2.8467889685       -0.7727016986        3.2582787096
 H         -4.5197554245       -0.5212937145        2.7867811732
 O          1.3990362254        0.9458731539        0.2460492266
 O          4.3696544839       -0.8800662665       -0.3609692540
 O          2.4984390001       -1.8849576131        1.2522532752
 O          3.0619566064        3.3214155560       -0.3990648415
 C          3.0612913029       -0.4808939458       -0.6506439970
 C          2.7888294620        0.9026036102       -0.0382291936
 C          2.0013598916       -1.3578304226        0.0533314837
 C          0.8519408389       -0.3648397266        0.3235446901
 C          3.1963176782        2.0471028641       -0.9696370567
 H          2.8676052696       -0.4489569320       -1.7279800340
 H          3.3508143550        0.9790989338        0.9058649388
 H          1.6406605453       -2.1773803484       -0.5800886135
 H          0.4274103392       -0.5307797458        1.3197627656
 H          2.5459402529        2.0503775149       -1.8468523231
 H          4.2338874647        1.8685800015       -1.2842327943
 H          4.6471244357       -1.5888622636       -0.9602021902
 H          3.4677041926       -1.7665516552        1.2510900373
 H          3.5747019682        3.3671944751        0.4204541502
  32
        -58.17477136
 N         -2.3180542217        0.6080656093       -0.9402274186
 N         -1.6462279920       -0.9842049211        0.6801612563
 N         -3.9515434683       -0.5011863649        0.3773905214
 N         -0.1146721175        0.0831122384       -0.6864311459
 N         -4.5533123787        1.0330982316       -1.2085797397
 N         -3.2509407365       -2.0053494008        1.9525480052
 C         -1.3985611280       -0.0984075516       -0.2809321120
 C         -3.5844819043        0.3613889574       -0.5751986363
 C         -2.9452221504       -1.1422346499        0.9768076440
 H          0.0118287110        0.8704611417       -1.3054168303
 H         -5.5085077273        0.8549046270       -0.9587171178
 H         -4.3047203587        1.6726350144       -1.9401401538
 H         -2.5113379219       -2.5217242668        2.3914935722
 H         -4.2166150668       -2.1690763907        2.1704204106
 O          1.5622769488        0.6717391494        0.8785832237
 O          3.9868230219       -1.0587200027        0.7592007930
 O          2.2446976720       -2.2970535098       -0.8334545976
 O          2.3738219207        3.3740008013        0.0228025212
 C          3.4124775233       -0.2307073622       -0.2168258464
 C          2.8342667778        1.0600891221        0.3701768774
 C          2.1555324283       -0.9063599481       -0.8182158598
 C          1.0079754864       -0.3666565348        0.0798761616
 C          2.7569783904        2.2002368511       -0.6530956383
 H          4.1871675155       -0.0594554862       -0.9646151826
 H          3.4060622221        1.4221733601        1.2300132433
 H          1.9891344287       -0.5772550402       -1.8486246857
 H          0.6181563057       -1.1437854468        0.7463137954
 H          2.0354067851        1.9444015218       -1.4382862167
 H          3.7504427259        2.3212526518       -1.1040792276
 H          3.4565813767       -1.0164269846        1.5696879049
 H          2.9239009247       -2.5612901035       -0.1838584829
 H          2.3015695739        4.1039328360       -0.6083372006
  32
        -58.17456565
 N         -2.4952234336       -0.6638895794       -1.1742887646
 N         -1.7885194164       -0.1116125327        1.0158878803
 N         -4.0956465818       -0.0264854798        0.4591087095
 N         -0.2881326530       -0.8049547622       -0.6074769974
 N         -4.7317097142       -0.5940809488       -1.6640125823
 N         -3.3610792362        0.5002744072        2.5613301991
 C         -1.5630618194       -0.4912652648       -0.2376593015
 C         -3.7514800816       -0.4224475693       -0.7699646825
 C         -3.0784363789        0.1127196603        1.3127641351
 H         -0.1712163771       -0.9020401086       -1.6069251749
 H         -5.6754228721       -0.3865958325       -1.3933922523
 H         -4.4922164291       -0.8605287520       -2.6010296118
 H         -2.6079374310        0.6200860987        3.2132641920
 H         -4.3154122079        0.6886284241        2.8075154622
 O          1.3422679432        0.8546744738       -0.5150694479
 O          4.4091863776       -0.7734005380        0.3412649396
 O          2.2039615394       -1.7533793316        1.4839632740
 O          3.2493306467        3.2070308768       -0.7671925868
 C          3.2326034564       -0.5251565993       -0.3609168228
 C          2.7318614181        0.9315310778       -0.2546450887
 C          2.0121704459       -1.3365213364        0.1576826474
 C          0.8443066597       -0.3213187608        0.1111034191
 C          3.4114919759        1.8859601312       -1.2285032406
 H          3.4378214869       -0.7669711349       -1.4069834359
 H          2.8951877776        1.3026462371        0.7690039957
 H          1.7844504008       -2.1836849897       -0.4946072907
 H          0.5174252404       -0.1063900447        1.1378037286
 H          2.9562468386        1.7535261561       -2.2166877009
 H          4.4765394240        1.6210369464       -1.2693835838
 H          4.2122703677       -0.7395178713        1.2931438854
 H          2.6623594718       -2.6064471794        1.4964992236
 H          3.6188019480        3.8200580631       -1.4182704291
  32
        -58.17452206
 N         -2.2268982219       -0.8485678009        0.8507790945
 N         -0.8990641578       -0.0687297679       -0.9409459169
 N         -3.0748776126        0.8240290912       -0.6000843573
 N         -0.1740985272       -1.7520545180        0.5160799993
 N         -4.3284989582        0.0134783792        1.1354713954
 N         -1.7470521921        1.5660298630       -2.3060678249
 C         -1.1021634989       -0.8264183748        0.1326498983
 C         -3.1823791365       -0.0029045482        0.4453740914
 C         -1.9167429729        0.7477193924       -1.2555178710
 H         -0.4677028660       -2.1994947741        1.3760591854
 H         -5.0550302874        0.6467431232        0.8563774870
 H         -4.4269009510       -0.5979737616        1.9246221220
 H         -0.9578699423        1.4143978264       -2.9069153411
 H         -2.5446200350        2.0845675750       -2.6283342593
 O          1.7757586000       -0.8275891036        1.4725123972
 O          3.2266706459        0.9065786355       -1.1771476260
 O          2.9409738109       -1.7174248709       -1.3094030173
 O          0.4024300655        1.7914222444        1.3880238121
 C          2.0758505733        0.4264925427       -0.5357348654
 C          2.3275465192        0.3830528037        0.9799211852
 C          1.7793614626       -1.0468891334       -0.8965893436
 C          1.2578602751       -1.6344887928        0.4222552917
 C          1.7606505391        1.5934124723        1.7240495634
 H          1.1886927917        1.0313780469       -0.7403040613
 H          3.4133142333        0.3589552818        1.1552649205
 H          1.0133152635       -1.1343832577       -1.6713829902
 H          1.6662021310       -2.6438496309        0.5613478498
 H          2.3579594855        2.4691280975        1.4408143241
 H          1.8684547594        1.4037557570        2.7979945132
 H          3.0037459571        1.2334128211       -2.0604084686
 H          3.6584203257       -1.0572110367       -1.3628467286
 H          0.0739054125        2.5460966618        1.8970415260
  32
        -58.17441679
 N         -2.3521717922       -0.0426764381        1.0787363665
 N         -1.3400341573       -0.3208557274       -1.0414554795
 N         -3.6822634164        0.0299031942       -0.8867454992
 N         -0.0868962729       -0.3135314157        0.9040872598
 N         -4.6166312367        0.2835844108        1.1860930366
 N         -2.6492433935       -0.2538378721       -2.9127929771
 C         -1.3028726229       -0.2389155496        0.2814732156
 C         -3.5246495483        0.0913413010        0.4391708325
 C         -2.5621985618       -0.1808684781       -1.5816098955
 H         -0.1651469758       -0.5513253039        1.8861890706
 H         -5.4994337816        0.4142964848        0.7269224151
 H         -4.5164265943        0.3694885242        2.1807793123
 H         -1.8138799630       -0.4409560656       -3.4372591799
 H         -3.5502520198       -0.1824102165       -3.3488787697
 O          2.0651849939       -1.1314492668        1.1997124711
 O          4.0889492784        0.1613079905       -0.9144089854
 O          1.9382343145       -0.7907020048       -2.0275427847
 O          1.5748146476        1.9424596391        1.8243309590
 C          2.9265894286        0.5603494454       -0.2364828492
 C          2.9525630019       -0.0127146750        1.1888176763
 C          1.6464500023       -0.0598467947       -0.8757332135
 C          1.0555050730       -0.9425361057        0.2538371654
 C          2.5736268506        1.0435561875        2.2435443927
 H          2.8500690895        1.6516052161       -0.1945654562
 H          3.9428559371       -0.4138938233        1.4201029272
 H          0.9174777492        0.6976822322       -1.1635861680
 H          0.7728063151       -1.9269043152       -0.1474731572
 H          3.4481849961        1.6608491959        2.4560223029
 H          2.2735394196        0.5205828618        3.1595728713
 H          4.1542715016        0.6404081978       -1.7537063031
 H          2.7588712775       -1.2912486128       -1.8742471199
 H          0.7670391412        1.4462238099        1.6103297085
  32
        -58.17440436
 N         -1.9697964538       -0.7637221573        0.2420559098
 N         -2.3926316177        0.9799611407       -1.3015193077
 N         -4.1995890690       -0.0499921629       -0.1572329163
 N         -0.2622647033        0.2343094425       -0.9650598011
 N         -3.7373072930       -1.7153968801        1.3420079135
 N         -4.5569685015        1.6343693103       -1.6641903718
 C         -1.5837085637        0.1531563050       -0.6396280018
 C         -3.2948225547       -0.8216079889        0.4499686005
 C         -3.6972154560        0.8336623298       -1.0248703217
 H         -0.0244144150        1.0619920206       -1.4942616862
 H         -4.7267078859       -1.8119905896        1.4793237907
 H         -3.0783472672       -2.3401464689        1.7688165940
 H         -4.1997407956        2.3044400464       -2.3197700224
 H         -5.5375168553        1.5465122034       -1.4704239525
 O          1.2556976147        0.7455096137        0.7232102638
 O          4.2388461167       -1.0911399898        0.0146330584
 O          1.9775818845       -2.2471999947       -0.7648741869
 O          4.5405301314        1.4150058518        2.0388791971
 C          3.2042889300       -0.1897556782       -0.2245324775
 C          2.6036160699        0.4586805813        1.0415042231
 C          1.9652257558       -0.8524559547       -0.8988337329
 C          0.7576666869       -0.2891578451       -0.1198787978
 C          3.2880822347        1.7465692412        1.4929839731
 H          3.6253065920        0.5803853329       -0.8755700513
 H          2.6512082100       -0.2683144372        1.8681816408
 H          1.8870283586       -0.5654601126       -1.9536850601
 H          0.3091095275       -1.0938295516        0.4782635386
 H          2.6397335849        2.2233121506        2.2394667121
 H          3.3890359124        2.4190183234        0.6323052208
 H          3.9198754769       -1.7972831707        0.5987409117
 H          2.7008022649       -2.6096208029       -1.3007347483
 H          5.0034612995        2.2248058830        2.2960519963
  32
        -58.17436519
 N         -2.1988788284       -0.7706879640        0.8869921739
 N         -0.9017689834       -0.0817369707       -0.9634481837
 N         -3.0766037340        0.8186855159       -0.6391986773
 N         -0.1516167946       -1.6859714833        0.5678898446
 N         -4.2959419476        0.1047901592        1.1617806400
 N         -1.7748006492        1.4696883439       -2.4039774018
 C         -1.0842536924       -0.7824708233        0.1519398236
 C         -3.1628001887        0.0493786660        0.4517248325
 C         -1.9275652609        0.7120998930       -1.3066449668
 H         -0.4273085859       -2.0906444142        1.4545037388
 H         -5.0345095728        0.7087796476        0.8514702330
 H         -4.3858365126       -0.4739504673        1.9761346370
 H         -0.9811939086        1.2999569817       -2.9941645128
 H         -2.5751043178        1.9681187619       -2.7494117435
 O          1.8887193076       -0.8833184765        1.4566937249
 O          3.2337225437        0.9542254387       -1.1384894759
 O          2.8838759420       -1.6821548298       -1.4281549293
 O          0.3183318614        1.6502146100        1.4611868210
 C          2.0829028133        0.4502574729       -0.5177072606
 C          2.3366474609        0.3844992777        0.9976823009
 C          1.7681376491       -1.0132933407       -0.9099175611
 C          1.2792374981       -1.6285376064        0.4119619460
 C          1.6908655720        1.5316364563        1.7777245385
 H          1.1997693435        1.0684330396       -0.7160801127
 H          3.4200214253        0.4385777150        1.1770952091
 H          0.9833451612       -1.0761934951       -1.6626286761
 H          1.6449513669       -2.6589354834        0.5112349076
 H          2.2258877432        2.4523731627        1.5139853089
 H          1.8215231882        1.3213215379        2.8456512345
 H          3.0939048052        1.0010642915       -2.0953328991
 H          3.6790809425       -1.4103999817       -0.9441653138
 H         -0.0430883792        2.3834601444        1.9792965588
  32
        -58.17434803
 N         -2.3513467959       -1.1736946187       -0.4505414857
 N         -1.2152412530        0.7089278741        0.4120131831
 N         -3.5839708537        0.7145897728        0.2896834017
 N         -0.0801095731       -1.1675210965       -0.3835609680
 N         -4.6370420071       -1.1219166714       -0.5768001209
 N         -2.4346679719        2.5131263922        1.1192436795
 C         -1.2433995621       -0.5188110967       -0.0988174758
 C         -3.4973489993       -0.5116049046       -0.2384533412
 C         -2.4175573074        1.2854366805        0.5886013789
 H         -0.2551703705       -2.1002273421       -0.7362234249
 H         -5.5072768886       -0.6520391241       -0.4056938665
 H         -4.5983313242       -2.0463845332       -0.9648543128
 H         -1.5646366891        3.0048561971        1.2264059535
 H         -3.3122643800        2.9993073912        1.1653970252
 O          1.4140266834        0.1666247095        0.9230201664
 O          4.3266215675       -0.5297034397        0.5258285569
 O          2.9633864227       -2.6530145931       -0.2341356148
 O          0.6777657625        2.4928770691       -0.5040513653
 C          3.3068565843       -0.2256698391       -0.3884481739
 C          2.3577105370        0.8664030640        0.1098148851
 C          2.3556164750       -1.4410360208       -0.5587753173
 C          1.1598257090       -1.0911547686        0.3776754019
 C          1.6604403149        1.6373859731       -1.0223404746
 H          3.8014782195        0.0381718794       -1.3237407658
 H          2.8476767310        1.5828629429        0.7748992769
 H          1.9906792402       -1.5033905924       -1.5891554487
 H          1.1101799669       -1.8037488882        1.2179027105
 H          1.2164017784        0.9273613431       -1.7331915176
 H          2.3871105469        2.2647429746       -1.5423332234
 H          3.9847992523       -0.4591836670        1.4304269482
 H          3.8184342393       -2.4528267141        0.1947981236
 H          0.0343351054        1.9143015372       -0.0275816449
  32
        -58.17422946
 N         -2.3932517685       -1.1306419166        0.6962595150
 N         -0.8942689476        0.0491100240       -0.7002577385
 N         -3.1523575450        0.7607084026       -0.5159580810
 N         -0.2352503965       -1.8235170952        0.5287420678
 N         -4.5790061255       -0.4537013157        0.7984621436
 N         -1.6755304551        1.8619784990       -1.8694599966
 C         -1.1879567298       -0.9133184264        0.1670523296
 C         -3.3468415464       -0.2720405570        0.3107695050
 C         -1.9119440570        0.8731535504       -0.9921184820
 H         -0.5613544571       -2.4014975322        1.2916087288
 H         -5.3037407075        0.1889466972        0.5366995781
 H         -4.7427538571       -1.2121226535        1.4342712295
 H         -0.7199525996        2.0720688228       -2.0942298703
 H         -2.3840540771        2.5670477709       -1.9733207894
 O          1.4758389320       -0.5233349198        1.4843251349
 O          3.3502485951        0.6806454733       -1.2579932848
 O          2.8597070801       -1.9082834446       -1.1579303005
 O          0.9003748029        2.3366525401        1.0451821793
 C          2.1571383287        0.3552483640       -0.5998782299
 C          2.3648835250        0.4222252621        0.9193544040
 C          1.7500603840       -1.1181674925       -0.8226423484
 C          1.1719415387       -1.5490848547        0.5407531927
 C          2.1204508312        1.8077510109        1.5144558242
 H          1.3209766732        1.0048343117       -0.8667397054
 H          3.4024616258        0.1276952072        1.1450511729
 H          0.9830278435       -1.2202034953       -1.5958617735
 H          1.6754107748       -2.4754609033        0.8512723017
 H          2.9578226236        2.4513259363        1.2148458872
 H          2.1073776567        1.7016050368        2.6046924312
 H          3.1611934645        0.9650899282       -2.1637980094
 H          3.6134403838       -1.3040076572       -1.3065912237
 H          0.7227764206        3.1643010302        1.5141208872
  32
        -58.17419901
 N         -2.3714952308       -0.0945384328        1.0848396153
 N         -1.3143925166       -0.3263078654       -1.0194179261
 N         -3.6635711361       -0.0130063586       -0.9065867741
 N         -0.0963636117       -0.3157330593        0.9415427786
 N         -4.6434317470        0.1855064530        1.1516441800
 N         -2.5847869353       -0.2686841381       -2.9150606737
 C         -1.3039092581       -0.2592161907        0.3035978858
 C         -3.5327105932        0.0274261392        0.4231638828
 C         -2.5264327187       -0.1968309671       -1.5822790332
 H         -0.1679111856       -0.5856158348        1.9151765306
 H         -5.5163795117        0.3240881961        0.6763837449
 H         -4.5618121345        0.2707504615        2.1481066948
 H         -1.7231073343       -0.3674413137       -3.4211983621
 H         -3.4669398875       -0.1429876994       -3.3765520530
 O          2.0675836032       -1.0933945441        1.2300485176
 O          4.0615625556       -0.2368436314       -0.9426430303
 O          1.7076437783       -0.4024160078       -2.0561046495
 O          1.5737425329        1.9930121140        1.6756732562
 C          3.0801354908        0.4511150347       -0.2148454771
 C          2.9880339138        0.0013155540        1.2466668944
 C          1.6617837221        0.1383006860       -0.7715088098
 C          1.0752360786       -0.8559649278        0.2702334108
 C          2.5633874846        1.1383638526        2.1944289853
 H          3.3174557897        1.5117604351       -0.3025874715
 H          3.9339398964       -0.4100177667        1.6086424695
 H          1.0419934461        1.0402997064       -0.7894419035
 H          0.8292003279       -1.8073193663       -0.2238531353
 H          3.4302169123        1.7761796466        2.3779041390
 H          2.2404846099        0.6928313921        3.1430078204
 H          4.0528325225       -1.1746756859       -0.6956607100
 H          2.6495897605       -0.4780005022       -2.3090799668
 H          0.7490987249        1.4929483615        1.5592947978
  32
        -58.17418690
 N         -2.2181824165       -0.6978209398        0.9232297293
 N         -0.9622933381       -0.1973538947       -1.0146467933
 N         -3.1476448499        0.6966836037       -0.7562722120
 N         -0.1590326443       -1.6121523449        0.6630910884
 N         -4.3173379400        0.1881994126        1.1448198024
 N         -1.8789023732        1.1723543968       -2.6003758594
 C         -1.1204177042       -0.7835271586        0.1676577116
 C         -3.2046754261        0.0536425959        0.4151057369
 C         -2.0065119836        0.5399978081       -1.4284408910
 H         -0.4072062965       -1.9378970403        1.5892859824
 H         -5.0875912100        0.7042182190        0.7605028800
 H         -4.4012397139       -0.3320427646        1.9989165774
 H         -1.0509580395        1.0215586138       -3.1473078521
 H         -2.6627685919        1.6847925398       -2.9614349299
 O          1.9333652929       -0.7261716202        1.3691426680
 O          2.9897207477        0.9317578927       -1.4777991924
 O          2.9281091526       -1.7084548569       -1.3169695766
 O          1.6215780316        1.8609702830        2.7365112081
 C          1.9272091394        0.4219844251       -0.7284662349
 C          2.1402853912        0.5617018616        0.7989326516
 C          1.7256751474       -1.0997654443       -0.9311305809
 C          1.2652324270       -1.5771184877        0.4492862004
 C          1.2162369301        1.6159998240        1.4125500145
 H          1.0136221994        0.9484370209       -1.0208796822
 H          3.1729943857        0.8493162258        1.0268280015
 H          0.9919831051       -1.3140580980       -1.7054985415
 H          1.6302994538       -2.5902928966        0.6579214038
 H          0.1808164668        1.2498959926        1.3767030179
 H          1.2951730599        2.5272198116        0.8048825281
 H          3.4952178343        0.1749021095       -1.8319740728
 H          3.5314472281       -1.7466808628       -0.5583604281
 H          1.0330211742        2.5135719633        3.1415412909
  32
        -58.17385556
 N         -2.2549851411       -0.8149648125        0.8764032764
 N         -0.9141097017       -0.0964513481       -0.9319479215
 N         -3.1301563833        0.7264381355       -0.7001178099
 N         -0.1627049611       -1.6575590163        0.6385561214
 N         -4.3848952219        0.0005850495        1.0718960013
 N         -1.7823367731        1.4121933213       -2.4183809297
 C         -1.1176813290       -0.8041615606        0.1767368292
 C         -3.2316170350       -0.0336646923        0.3963523456
 C         -1.9548812322        0.6554867268       -1.3248211828
 H         -0.4393931042       -2.0602826625        1.5249553776
 H         -5.1445057694        0.5453827711        0.7065415464
 H         -4.4973272609       -0.6014801572        1.8668798164
 H         -0.9583992273        1.2686147669       -2.9737033202
 H         -2.5830676877        1.8831559756       -2.7999022266
 O          1.8571485369       -0.6543203466        1.3901482971
 O          3.2696526048        0.7570049891       -1.3172196474
 O          2.8453520383       -1.8501794314       -1.3641860620
 O          1.4354817748        1.9853172930        2.5948346815
 C          2.0426951523        0.3855233822       -0.7533421337
 C          2.1105319976        0.5981849259        0.7709684363
 C          1.7326656015       -1.1256773425       -0.9259343839
 C          1.2673488754       -1.5612996279        0.4754649325
 C          1.1435716740        1.6837943167        1.2527395842
 H          1.2161029318        0.9710801754       -1.1719808614
 H          3.1234953856        0.8972868008        1.0654170213
 H          0.9421554027       -1.2968399060       -1.6553128466
 H          1.6705455158       -2.5510338829        0.7203603628
 H          0.1128445405        1.3213117959        1.1435575878
 H          1.2823573384        2.5684572506        0.6177345180
 H          3.2555794518        0.5767766924       -2.2695497484
 H          3.6275243245       -1.5755996426       -0.8598274622
 H          0.8165684630        2.6550444113        2.9190106366
  32
        -58.17380255
 N         -2.3728930763       -0.0944860696        1.0818880277
 N         -1.3171108669       -0.3312962048       -1.0221217096
 N         -3.6666674520       -0.0192143453       -0.9088750604
 N         -0.0980765717       -0.3160752392        0.9397104090
 N         -4.6440007948        0.1904693314        1.1493293522
 N         -2.5877679120       -0.2763693178       -2.9172139944
 C         -1.3051699824       -0.2617656573        0.3008550436
 C         -3.5344833505        0.0256736943        0.4206631940
 C         -2.5295186642       -0.2037176703       -1.5844670865
 H         -0.1744574197       -0.5785609187        1.9152540945
 H         -5.5202619462        0.3107041519        0.6753001835
 H         -4.5636672301        0.2630886411        2.1467907211
 H         -1.7265871849       -0.3833135122       -3.4225248447
 H         -3.4710592081       -0.1596054365       -3.3788174886
 O          2.0627567381       -1.0863308089        1.2452363770
 O          4.0288577247       -0.2089609897       -0.9590533125
 O          1.7191835918       -0.4501108221       -2.0605346202
 O          1.5859208227        1.9918646440        1.7011055152
 C          3.0535425158        0.4809234488       -0.2187770817
 C          2.9860190909        0.0028874896        1.2419673192
 C          1.6577036700        0.1026982723       -0.7854012807
 C          1.0757474119       -0.8719523242        0.2799276606
 C          2.5784950303        1.1313019093        2.2071466584
 H          3.2041612111        1.5623563288       -0.2669685281
 H          3.9359347922       -0.4241741388        1.5734489923
 H          1.0113794628        0.9815242337       -0.8461588886
 H          0.8307581997       -1.8345479481       -0.1917457764
 H          3.4459785992        1.7675588687        2.3931137712
 H          2.2602775130        0.6772754622        3.1531090584
 H          4.8875101854        0.2248306358       -0.8704671906
 H          2.5903926201       -0.8755170436       -2.1604237597
 H          0.7672499583        1.4874949496        1.5640884418
  32
        -58.17373871
 N         -2.2595355543       -0.8930518469        0.8329600418
 N         -0.9000169324       -0.0725915675       -0.9148335407
 N         -3.0933313310        0.7892409532       -0.6174349821
 N         -0.1834404676       -1.7629992683        0.5344324424
 N         -4.3798290923       -0.0641452196        1.0726683010
 N         -1.7222942001        1.5779980391       -2.2710461487
 C         -1.1189139145       -0.8488464820        0.1410563548
 C         -3.2167276139       -0.0562267148        0.4115567557
 C         -1.9165323323        0.7404149745       -1.2420216761
 H         -0.4807684288       -2.2222988531        1.3864993216
 H         -5.1120388951        0.5539972502        0.7751357202
 H         -4.4951327972       -0.6982064501        1.8414706659
 H         -0.8960256623        1.4652435509       -2.8297017371
 H         -2.5060504969        2.1099965447       -2.6041750017
 O          1.7384399632       -0.7821457370        1.4873073886
 O          3.0898925005        0.8998547111       -1.3341371937
 O          2.9559808427       -1.7387551938       -1.2106401400
 O          0.5658919594        1.9410579593        1.3868984267
 C          2.0383967399        0.4211252642       -0.5399776172
 C          2.3633343109        0.3831833341        0.9661123066
 C          1.7759820227       -1.0588920863       -0.8700012130
 C          1.2464317859       -1.6241824729        0.4509203438
 C          1.8947983487        1.6179109634        1.7396025895
 H          1.1077300203        0.9748469954       -0.6947095170
 H          3.4509260654        0.2769260635        1.0977161726
 H          1.0268875994       -1.1645622432       -1.6613850533
 H          1.6713322605       -2.6236694946        0.6107319020
 H          2.5667225760        2.4534507453        1.5053028400
 H          1.9676998314        1.3817395386        2.8068900786
 H          3.0818832129        1.8655991284       -1.3487782052
 H          3.5062318546       -1.1265084512       -1.7283773434
 H          0.2595583168        2.6578272442        1.9602198928
  32
        -58.17366431
 N         -1.5160896383       -0.7668895758       -0.3740771009
 N         -2.0893193538        1.2344564082        0.7480053162
 N         -3.6912591456        0.1519616417       -0.6273233402
 N          0.0185518278        0.3983721963        0.9298894976
 N         -3.0945069006       -1.7951470581       -1.6714947194
 N         -4.1977128387        2.0869821639        0.4853285945
 C         -1.2406678363        0.2611648447        0.4193294522
 C         -2.7649723608       -0.7762078994       -0.8723637854
 C         -3.3050530157        1.1376120045        0.1887702819
 H          0.0455132393        1.0421040351        1.7120697517
 H         -4.0198539757       -1.8304543431       -2.0582086901
 H         -2.4105037028       -2.5035414231       -1.8648661701
 H         -3.9135672378        2.8567130755        1.0631070641
 H         -5.1029275212        2.0528348761        0.0533664084
 O          2.1606079450       -0.1842347967        1.6053840357
 O          3.4735656744       -1.0238359613       -1.5081409816
 O          1.8713801937       -2.6143729446       -0.1206788386
 O          2.0746917233        2.4152779987       -0.1463575730
 C          2.4941318682       -0.3615437461       -0.7630222183
 C          3.0376954418        0.2452997655        0.5527569436
 C          1.3742597532       -1.3122682749       -0.2777686894
 C          0.9694745633       -0.6896403558        1.0644239445
 C          3.1486256972        1.7773470435        0.5006601549
 H          2.0772166322        0.4392067296       -1.3836068510
 H          4.0291311631       -0.1584307770        0.7825071707
 H          0.5303788333       -1.3721092276       -0.9624607250
 H          0.5904542756       -1.4556260747        1.7583142707
 H          4.0358163342        2.0437139795       -0.0762010502
 H          3.2592772188        2.1470846356        1.5279916511
 H          3.3389714773       -1.9831508017       -1.3896748160
 H          2.4516496609       -2.6508294050        0.6561518143
 H          1.2419284269        2.1508519201        0.2740301424
  32
        -58.17363403
 N         -2.4158618881       -1.0617170954        0.7602718876
 N         -0.9700946783       -0.0166364344       -0.7894049217
 N         -3.2527291000        0.6291894048       -0.6778255074
 N         -0.2487913689       -1.7291506375        0.6248327849
 N         -4.6167789078       -0.4327129471        0.8224822374
 N         -1.8081271177        1.6354237283       -2.1387643070
 C         -1.2247339314       -0.8832045921        0.1869880196
 C         -3.3994375670       -0.2822962377        0.2907972752
 C         -2.0225688557        0.7189366007       -1.1817771251
 H         -0.5514579300       -2.2349169322        1.4462236796
 H         -5.3559050499        0.1758857394        0.5215327107
 H         -4.7379334392       -1.0817556746        1.5780997481
 H         -0.9393262979        1.6071597931       -2.6412628137
 H         -2.6080772657        2.1021199169       -2.5278160227
 O          1.5143237703       -0.3803406975        1.4117482453
 O          3.1069764951        0.6313165957       -1.6100345768
 O          2.8649374998       -1.9235857741       -1.0462851164
 O          2.0893193573        2.2859240435        2.4994420908
 C          2.0069546613        0.3492519793       -0.7907582552
 C          2.2569491489        0.6048150869        0.7094253307
 C          1.7075376207       -1.1611047715       -0.8354761047
 C          1.1628181790       -1.4704660793        0.5678201938
 C          1.8179692558        2.0032974012        1.1521748134
 H          1.1039520758        0.8829790681       -1.1026796225
 H          3.3275953663        0.4543065424        0.9234337838
 H          0.9520710666       -1.3924668556       -1.5946465324
 H          1.6639270026       -2.3738318968        0.9397590845
 H          0.7333388767        2.0812035948        1.0440139766
 H          2.2996688986        2.7470185655        0.5022443721
 H          3.1722738014        1.5816433901       -1.7709191104
 H          3.4341714172       -1.4324661928       -1.6635541642
 H          3.0305988282        2.1442214967        2.6773231886
  32
        -58.17352935
 N         -2.2075316053        0.1466895687       -1.1979783360
 N         -1.8032974455       -0.6855882522        0.9812223510
 N         -4.0082969869       -0.0889850932        0.3303781408
 N         -0.1033578016       -0.4808131022       -0.5769931067
 N         -4.3507662629        0.6934002472       -1.7924738425
 N         -3.5670378823       -0.9020560385        2.4230550550
 C         -1.4125713693       -0.3191308063       -0.2346349944
 C         -3.5031683447        0.2392828614       -0.8622403540
 C         -3.1180088359       -0.5468645123        1.2143381271
 H          0.1337540362       -0.0385293443       -1.4539368406
 H         -5.3210725369        0.7924829990       -1.5567989310
 H         -3.9891176973        0.9646289393       -2.6879935764
 H         -2.9102216051       -1.2305087848        3.1066460407
 H         -4.5428715053       -0.7925251248        2.6296487559
 O          1.4940068611        0.6816645738        0.7248481802
 O          4.3553190978       -0.8539376850       -0.6282325599
 O          2.7031652923       -2.0726141903        1.0237219434
 O          2.3832251592        3.3097196545       -0.2010550304
 C          3.0306756622       -0.4186574243       -0.7433007224
 C          2.7242829691        0.8843242357        0.0328067208
 C          2.0987220019       -1.4503508455       -0.0737671461
 C          0.9335548882       -0.5775231203        0.4128690519
 C          2.6436832023        2.1123688591       -0.8850120635
 H          2.7399900448       -0.3031003730       -1.7946302810
 H          3.4974743371        1.0422734983        0.7979107991
 H          1.7460303093       -2.2031054186       -0.7907790318
 H          0.4764930064       -0.9781838143        1.3210116496
 H          1.8138135900        1.9935998050       -1.5859007825
 H          3.5822271785        2.1924393010       -1.4519022776
 H          4.9383473259       -0.3370127664       -1.1999098695
 H          3.6421906703       -2.2109802570        0.8100754233
 H          3.0268992637        3.4246443459        0.5125986127
  32
        -58.17347226
 N         -2.4687647875       -1.1504074424        0.7258047173
 N         -1.0077743173        0.0089982725       -0.7275134076
 N         -3.3112210536        0.5873761938       -0.6509836034
 N         -0.2771650674       -1.7445081436        0.6278620267
 N         -4.6857796977       -0.5778941160        0.7600026183
 N         -1.8583075889        1.7032526338       -2.0171708617
 C         -1.2676615281       -0.9102444130        0.1985547896
 C         -3.4606655973       -0.3764330169        0.2644595334
 C         -2.0690675874        0.7364938396       -1.1115022868
 H         -0.5738484988       -2.2836616820        1.4294719140
 H         -5.4458288473       -0.0181922925        0.4191800994
 H         -4.8228107129       -1.3102776984        1.4319093122
 H         -0.9663322722        1.7528014181       -2.4737489973
 H         -2.6569360955        2.1830577031       -2.3917452827
 O          1.3729806047       -0.2568950574        1.3809916734
 O          3.2137200172        0.6355573244       -1.5017929322
 O          2.7811865488       -1.9466709235       -1.1001462459
 O          2.5418013767        2.3035664639        2.3714722327
 C          2.0395044360        0.3562728328       -0.7954336779
 C          2.2573859373        0.6153595114        0.7029547209
 C          1.6656666180       -1.1422726301       -0.8299748089
 C          1.1178230185       -1.4138599064        0.5895868634
 C          1.9847708781        2.0619585753        1.1016212780
 H          1.1838005630        0.9454518643       -1.1371804052
 H          3.2970411090        0.3698153974        0.9682132906
 H          0.8871791725       -1.3553241924       -1.5679324346
 H          1.6629642321       -2.2698081254        1.0109818847
 H          0.8985501174        2.2146720475        1.1073943430
 H          2.4500943028        2.7119464283        0.3489897689
 H          3.0215358198        0.7126901036       -2.4482425041
 H          3.5477925881       -1.3576898979       -1.2366640157
 H          2.3095991266        3.1983106710        2.6586806816
  32
        -58.17325149
 N         -2.3760610407       -1.1958358926        0.7167233208
 N         -1.1275318379        0.1431875215       -0.7728354527
 N         -3.4301265239        0.6003581440       -0.4197067644
 N         -0.1790339442       -1.6697217453        0.3624265821
 N         -4.6073437812       -0.7618191341        0.9938074526
 N         -2.1787919136        1.8538801459       -1.8698304613
 C         -1.2453375427       -0.8474910458        0.1016480121
 C         -3.4445936411       -0.4443546022        0.4145503500
 C         -2.2496156944        0.8489656836       -0.9886650760
 H         -0.4166113167       -2.3110452987        1.1093641088
 H         -5.4144739208       -0.1962361623        0.8046972251
 H         -4.6336234427       -1.5281982437        1.6408459024
 H         -1.2776723517        2.1125302564       -2.2289342648
 H         -2.9779380859        2.4514666736       -1.9808097463
 O          1.3931769913       -0.3141662264        1.4623424492
 O          4.0962190372       -0.5702756326       -0.3060884720
 O          2.1286069258       -1.3802513382       -1.8780424875
 O          1.4170164464        2.4962337661        0.4463027438
 C          2.9377895265        0.2225249233       -0.2801950785
 C          2.5349713616        0.4904004449        1.1798007605
 C          1.7182623650       -0.5193807534       -0.8527256560
 C          1.1858300866       -1.2401698550        0.4007423148
 C          2.2257552547        1.9597375051        1.4685364490
 H          3.1141440066        1.1623262512       -0.8174985249
 H          3.3580620957        0.1670703244        1.8320112942
 H          0.9654439763        0.2031801442       -1.1801781853
 H          1.8021509055       -2.1381675634        0.5752695081
 H          3.1779885618        2.5012678387        1.5301552948
 H          1.7130114287        2.0048655398        2.4365146428
 H          4.0893569676       -1.0729729784       -1.1378072302
 H          1.3534224580       -1.7429700912       -2.3253075708
 H          1.2250851327        3.4207805272        0.6606312278
  32
        -58.17323644
 N         -2.3213502222       -1.1051786557       -0.5750664791
 N         -1.2305915164        0.6631924300        0.5512736925
 N         -3.5804863988        0.7365999334        0.2335919832
 N         -0.0629751009       -1.1565820270       -0.3266496495
 N         -4.5896822102       -0.9940328779       -0.8702268626
 N         -2.4780577410        2.4257751739        1.3156918423
 C         -1.2368923178       -0.5077598844       -0.0779317990
 C         -3.4710411487       -0.4397381651       -0.3934575260
 C         -2.4338308733        1.2506620854        0.6779134930
 H         -0.2301998612       -2.0670436545       -0.7348695268
 H         -5.4613038036       -0.5140062268       -0.7398193979
 H         -4.5329698301       -1.8750180038       -1.3470189462
 H         -1.6132715646        2.8865438985        1.5384475994
 H         -3.3475781752        2.9283995032        1.3251294762
 O          1.4604376818        0.1721021522        0.9369204551
 O          4.4220337272       -0.3697002489       -0.2734619240
 O          3.1390982682       -2.4929645104        0.5503444016
 O          0.6674387910        2.5009566952       -0.3349140937
 C          3.0898706888       -0.3833159537       -0.7074119623
 C          2.3268811457        0.7657930955       -0.0253625928
 C          2.3385391189       -1.6688756356       -0.2419894705
 C          1.1143508636       -1.1120518761        0.5314251138
 C          1.5239964520        1.6245478978       -1.0168760525
 H          3.0314750717       -0.2767183330       -1.7961991642
 H          3.0114662825        1.4040516006        0.5412170814
 H          2.0152109330       -2.2772533022       -1.0884034033
 H          0.9347880614       -1.6916646318        1.4509364981
 H          0.9454706763        0.9671286465       -1.6820012592
 H          2.2028480917        2.2383513281       -1.6117273987
 H          4.9397020999       -1.0158703566       -0.7772256470
 H          3.6831107121       -1.9357139278        1.1325430247
 H          0.0801601208        1.9300866311        0.2106502665
  32
        -58.17318727
 N         -1.2162237599       -0.2436673468       -0.6240361288
 N         -2.2650395195       -0.3659868246        1.4864854761
 N         -3.4220580344        0.5892725737       -0.3519025072
 N         -0.1599610651       -1.1975120587        1.2318857107
 N         -2.3687778622        0.6546405252       -2.3837322350
 N         -4.4142919301        0.3987011091        1.7003642648
 C         -1.2298367378       -0.5498566069        0.6666090255
 C         -2.3359427283        0.3379998587       -1.0840703891
 C         -3.3427582284        0.2014180281        0.9251750012
 H         -0.3076583934       -1.2898413090        2.2297692171
 H         -3.1607345233        1.1611260277       -2.7360234255
 H         -1.5272812616        0.5561623246       -2.9220920412
 H         -4.3719595387        0.1327649340        2.6667391719
 H         -5.2238702508        0.8399085814        1.3040530773
 O          1.5760585742        0.3826264417        1.2743491049
 O          4.0102560498       -0.9893306192       -0.3308642374
 O          1.8426251616       -2.3433133089       -1.0348165690
 O          1.4441240222        2.1778312341       -1.1104284986
 C          2.8809906429       -0.2126296754       -0.6349795234
 C          2.6658275123        0.8311712939        0.4729134268
 C          1.5851183374       -1.0392255228       -0.5947559533
 C          1.2083212970       -0.9400449911        0.8955715491
 C          2.3820391890        2.2364671666       -0.0595248773
 H          3.0094768507        0.2705960684       -1.6112537412
 H          3.5664158416        0.8654113252        1.1010710108
 H          0.8093171892       -0.5391424982       -1.1815938641
 H          1.8208486456       -1.6628390200        1.4605050071
 H          3.3287883450        2.6644992409       -0.4115137808
 H          1.9959371482        2.8331584773        0.7754187493
 H          3.8936649286       -1.8557490226       -0.7551984079
 H          1.0090787576       -2.8218195531       -1.1289770741
 H          1.2813015810        3.0786198518       -1.4260941385
  32
        -58.17294433
 N         -2.1785547053       -0.7427361136        0.9115941749
 N         -0.8910510578       -0.1182312042       -0.9685889415
 N         -3.0402412531        0.8358888201       -0.6353322769
 N         -0.1486903600       -1.6986219211        0.5832590483
 N         -4.2676606925        0.1612414135        1.1745453066
 N         -1.7444739354        1.4199963107       -2.4296827440
 C         -1.0759463769       -0.7919137717        0.1614850731
 C         -3.1299675773        0.0896900611        0.4707494015
 C         -1.9031766460        0.6924366956       -1.3160436159
 H         -0.4199498927       -2.0937169364        1.4753616337
 H         -4.9427905304        0.8585344170        0.9181828371
 H         -4.3151815966       -0.3127125084        2.0578999422
 H         -0.9281089726        1.2680987565       -2.9933516753
 H         -2.5165144243        1.9693599365       -2.7603289315
 O          1.9422944889       -0.9664678794        1.4361079992
 O          3.0393751237        1.0338016320       -1.2257274408
 O          2.9792697658       -1.6320523882       -1.3431388542
 O          0.3367487259        1.8690975673        1.3416618259
 C          2.0089631958        0.4271916767       -0.5022244471
 C          2.2938075533        0.3522885357        1.0149411918
 C          1.7820581070       -1.0496456058       -0.8993901811
 C          1.2790722555       -1.6800262469        0.4009777437
 C          1.5652384063        1.4162968309        1.8676057891
 H          1.0806411098        0.9775051835       -0.6799613628
 H          3.3700688353        0.4638578295        1.1969232028
 H          1.0582833080       -1.1464207564       -1.7061351030
 H          1.6126084625       -2.7220265337        0.4893936943
 H          2.2418716296        2.2584535522        2.0334607409
 H          1.3357291173        0.9521173531        2.8307691307
 H          3.5530575747        0.3278523316       -1.6606372905
 H          3.5674057735       -1.7905357558       -0.5886498257
 H          0.5043026997        2.6164035657        0.7518499462
  32
        -58.17292078
 N         -1.0880960850       -0.5797709348       -0.4940847900
 N         -1.9765714405        0.4905025251        1.4159674714
 N         -3.0844932884        0.6947759433       -0.6715088880
 N         -0.1020071553       -0.7670222939        1.6164883043
 N         -2.1696704774       -0.3421393537       -2.4952488223
 N         -3.9282166889        1.6724493609        1.2188765162
 C         -1.0587558751       -0.2518367999        0.7932758617
 C         -2.1196099440       -0.0685580015       -1.1849387465
 C         -2.9681986680        0.9411923482        0.6376829129
 H         -0.1938986313       -0.3855390959        2.5500079391
 H         -2.9672622871       -0.0352833349       -3.0214379317
 H         -1.4934750492       -0.9734705605       -2.8842816255
 H         -3.8060515846        1.9473415401        2.1763309096
 H         -4.6235404019        2.1002474426        0.6348497799
 O          2.1597763356       -0.0669652533        1.4600690445
 O          2.7466838044       -0.6469106208       -1.9517562233
 O          2.5344208059       -2.6133341304       -0.1576286012
 O          0.7583652094        2.2104264616       -0.4014602072
 C          1.8759362847       -0.3951484054       -0.8880998559
 C          2.4907537092        0.5155130542        0.1984020909
 C          1.4929762736       -1.6738924012       -0.1088517469
 C          1.2509206066       -1.1493611490        1.3077870886
 C          2.0432096795        1.9938526655        0.1395397227
 H          0.9601010085        0.0576069351       -1.2792368322
 H          3.5852722350        0.4987405286        0.1209356617
 H          0.6081217371       -2.1524319183       -0.5233259270
 H          1.5384664569       -1.8953629376        2.0600702758
 H          2.7914072757        2.5662269576       -0.4146318246
 H          2.0100708312        2.3591173698        1.1696628842
 H          3.1133393478       -1.5422444426       -1.8284193005
 H          3.2654191475       -2.3239339859        0.4099340835
 H          0.8348016758        2.3155587725       -1.3592763769
  32
        -58.17232434
 N         -2.2588630153        0.5058391438       -1.0638142688
 N         -1.8178565400       -0.8894921912        0.7985254312
 N         -4.0541835591       -0.2929153137        0.2682183895
 N         -0.1208747654       -0.1261436973       -0.5724173659
 N         -4.4309940101        1.0550957916       -1.5412665734
 N         -3.5777722279       -1.6461773844        2.0508789113
 C         -1.4419031625       -0.1610331408       -0.2491844834
 C         -3.5620584398        0.4028967506       -0.7611691991
 C         -3.1422666450       -0.9192729915        1.0155987118
 H          0.1146489912        0.5322397742       -1.3010799259
 H         -5.4121793717        0.9711508970       -1.3483426615
 H         -4.0869817065        1.5588659087       -2.3377291969
 H         -2.9049465633       -2.0856205901        2.6516333875
 H         -4.5586908080       -1.6465822213        2.2627570666
 O          1.4996575574        0.6600583299        0.9425006738
 O          4.3205493824       -0.6009696686       -0.8972500025
 O          2.6824636592       -2.1599627998        0.5378337515
 O          2.3475906751        2.8038360275       -0.6881306580
 C          3.0307805941       -0.1200506280       -0.6724139380
 C          2.8709302768        0.7815691876        0.5650402081
 C          2.0564006145       -1.2630919323       -0.3369133690
 C          0.9102065972       -0.4917005286        0.3539488055
 C          3.1807284538        2.2593956945        0.3061385754
 H          2.6463027489        0.4189970392       -1.5512431778
 H          3.5086394401        0.3954032420        1.3718352711
 H          1.6997222549       -1.7635269850       -1.2419359960
 H          0.4313439154       -1.0802973569        1.1426217699
 H          4.2045415858        2.3645613453       -0.0550044644
 H          3.0739995682        2.8121483729        1.2461570150
 H          4.8906406274        0.1221050837       -1.1939519839
 H          2.1808758246       -2.9858074411        0.5790243309
 H          1.4378774127        2.7730968687       -0.3592548787
