  32
        -58.18146928
 N         -2.4057625937       -1.3653339159        0.4029514547
 N         -1.0094219829        0.4559755889       -0.1662929747
 N         -3.3669192826        0.6738919874       -0.3371996184
 N         -0.1587548187       -1.6028408036        0.5253852318
 N         -4.6749806291       -1.1116555652        0.2418560584
 N         -1.9828635350        2.4109540753       -0.8733357048
 C         -1.2091192919       -0.7958437769        0.2465148324
 C         -3.4530035915       -0.5891903288        0.0950946612
 C         -2.1280030712        1.1533548295       -0.4459314619
 H         -0.4283136081       -2.4813586186        0.9384356028
 H         -5.4714038611       -0.5603549641       -0.0205078907
 H         -4.7612576320       -2.0715361076        0.5211215011
 H         -1.0644975188        2.8194429925       -0.9206286055
 H         -2.8093820592        2.9510490770       -1.0545489922
 O          1.4493146519       -0.1668991196        1.4556728033
 O          4.1006779469       -0.6575396475       -0.2643986169
 O          2.1832904850       -1.8268405036       -1.6349508656
 O          1.0349656373        2.2804450391       -0.2122754645
 C          2.9510690294        0.1455974092       -0.3821061574
 C          2.4755038870        0.7032619031        0.9724676096
 C          1.7913517999       -0.7743872144       -0.8125363835
 C          1.2221095003       -1.2341267225        0.5529575426
 C          1.9266080758        2.1320606377        0.8604462127
 H          3.0997604825        0.9534053150       -1.1038431457
 H          3.2929150583        0.6834154921        1.7043425765
 H          1.0238788369       -0.2084012139       -1.3449197763
 H          1.7830063992       -2.1204986026        0.8862493774
 H          2.7467881429        2.8316957989        0.6836399710
 H          1.4366970587        2.3811223773        1.8110130641
 H          4.8957477909       -0.1081689764       -0.2625987622
 H          3.0826521118       -2.0931766582       -1.3719008006
 H          0.3460921563        1.5734209953       -0.1339143443
