32
melamine_ribose  charge=0 mult=1  seed=1_b3lyp_pcm
N     -2.57298600     0.68334800     1.15938800
N     -1.77886400    -0.28626900    -0.86468300
N     -4.09519800    -0.41917400    -0.30822600
N     -0.36129500     0.83221600     0.59286100
N     -4.81313000     0.54676800     1.64803400
N     -3.27647400    -1.35131600    -2.24032100
C     -1.61234500     0.38230800     0.27701800
C     -3.79591500     0.25638800     0.81067300
C     -3.04714400    -0.65991000    -1.10592500
H     -0.27269000     1.24004600     1.51046000
H     -5.71970700     0.14925100     1.47988300
H     -4.61439100     0.95192900     2.54494500
H     -2.53535300    -1.47146800    -2.90676200
H     -4.21924900    -1.57181100    -2.50584600
O      1.41453100    -0.69945400     0.39259800
O      4.35607300     1.19996200    -0.40055700
O      2.07959700     2.32393700    -1.24677200
O      3.14022600    -3.05226100     0.51296100
C      3.21372900     0.77333000     0.30769000
C      2.79811100    -0.67851300     0.02787800
C      1.92988500     1.57967300    -0.04381200
C      0.82008900     0.50482400    -0.12414200
C      3.53598500    -1.72201600     0.83599400
H      3.41627100     0.88128100     1.37503600
H      2.91173400    -0.89535600    -1.04206700
H      1.71201100     2.31396200     0.72759700
H      0.54128600     0.33726600    -1.16673200
H      3.39075600    -1.52281400     1.90250200
H      4.60106600    -1.65511800     0.61731400
H      4.04673100     1.76904700    -1.12040200
H      1.84824400     1.78245000    -2.00990600
H      2.20112600    -3.14166100     0.70653300
