30
DFT refinement start; not an optimized result
O 0.161803 0.335978 -2.538499
O 2.380137 2.426627 0.991110
O 2.725844 -2.028595 0.333180
N 1.481199 -0.827994 -1.131215
N 2.568798 0.207947 0.645594
C 0.807099 1.414884 -0.503632
C 0.789996 0.286834 -1.502237
C 1.997744 1.427536 0.423436
C 2.264410 -0.966213 -0.008464
H 0.712754 2.377884 -1.009047
H 1.324590 -1.676183 -1.669522
H 3.259271 0.139220 1.389169
O -0.297214 0.009137 1.132182
O -3.595587 -0.440439 -0.191674
O -2.744292 1.986016 0.363013
O -0.556085 -2.613065 -0.143185
C -2.216359 -0.264087 -0.223659
C -1.499339 -0.744538 1.053146
C -1.781616 1.216898 -0.310721
C -0.428652 1.233227 0.433971
C -1.193006 -2.239502 1.058806
H -1.834017 -0.820817 -1.084312
H -2.127150 -0.513085 1.926609
H -1.671149 1.527959 -1.351763
H -0.418650 2.057903 1.160901
H -0.544104 -2.455058 1.916862
H -2.147585 -2.764675 1.173885
H -3.983683 0.312436 0.288868
H -2.760284 2.892162 0.027083
H -0.516738 -3.578946 -0.177689
