31
DFT refinement start; not an optimized result
N -1.732042 2.621636 0.114662
N -1.757757 4.386962 -1.211452
C -2.754825 3.423843 0.540019
C -1.171458 3.251879 -0.946193
C -2.755489 4.504207 -0.291228
H -3.379918 3.157498 1.365436
H -0.327434 2.858772 -1.474337
H -3.401590 5.358053 -0.289905
P 2.328394 -2.453469 -0.024262
O 0.033555 1.244277 0.711929
O -1.237166 -1.704673 1.090960
O -3.144481 -0.251587 0.023612
O 1.930611 -1.330350 -1.085618
O 3.494594 -1.761513 0.797962
O 2.962341 -3.537828 -0.956696
O 1.245067 -3.003905 0.807929
C -0.775232 -0.907382 0.034383
C 0.464877 -0.078373 0.416322
C -1.848486 0.162093 -0.247825
C -1.371857 1.341206 0.643877
C 1.511409 -0.035572 -0.696973
H -0.574098 -1.522451 -0.849964
H 0.923329 -0.502131 1.318635
H -1.813966 0.480651 -1.295384
H -1.817445 1.245758 1.645912
H 2.370004 0.547426 -0.355379
H 1.090065 0.422389 -1.595085
H -0.595432 -2.423104 1.229090
H -3.104558 -0.935585 0.716467
H 3.746958 -2.198613 1.619074
H 3.628348 -3.233631 -1.587329
