31
DFT refinement start; not an optimized result
N -1.087699 1.686715 0.404721
N -1.163410 3.867072 0.753220
C -0.195877 2.257872 -0.462793
C -1.638825 2.706746 1.109157
C -0.253493 3.598907 -0.225526
H 0.418348 1.676119 -1.116137
H -2.387224 2.558875 1.860796
H 0.295135 4.389042 -0.696311
P 2.453305 -0.588168 -0.145524
O -0.277767 -0.492714 0.673091
O -2.992102 -2.242087 0.292198
O -3.472598 0.089856 -0.859827
O 1.812543 -2.058334 0.038091
O 3.999341 -0.932520 -0.109610
O 2.288651 0.221614 1.181669
O 1.982613 0.088843 -1.363129
C -1.923490 -1.788295 -0.495298
C -0.576673 -1.826067 0.260851
C -2.142762 -0.277512 -0.728632
C -1.431104 0.308589 0.517352
C 0.582631 -2.320871 -0.603228
H -1.863414 -2.332522 -1.441137
H -0.661715 -2.443102 1.165166
H -1.610332 0.061103 -1.622682
H -2.090219 0.199970 1.395180
H 0.565791 -1.793335 -1.561840
H 0.532882 -3.400147 -0.750354
H -3.082674 -3.202994 0.230179
H -4.007248 -0.495489 -0.292715
H 4.369872 -1.300201 -0.918432
H 2.705041 -0.178717 1.955356
