31
DFT refinement start; not an optimized result
N -1.770040 2.613118 0.033362
N -2.868348 4.519041 -0.152081
C -1.220297 3.288536 -1.023384
C -2.757994 3.404650 0.516218
C -1.907533 4.461630 -1.116311
H -0.396197 2.894865 -1.578738
H -3.374346 3.126253 1.346438
H -1.779212 5.267216 -1.809941
P 2.361297 -2.457763 0.156081
O -0.000089 1.238990 0.623575
O -1.301010 -1.744035 0.810221
O -3.106376 -0.250042 -0.365750
O 2.089450 -1.333141 -0.942237
O 3.396399 -1.754377 1.129932
O 3.130356 -3.528575 -0.685862
O 1.185094 -3.029580 0.833669
C -0.743256 -0.901002 -0.161325
C 0.450573 -0.086496 0.375698
C -1.793269 0.177458 -0.496004
C -1.403923 1.310636 0.491405
C 1.626881 -0.040141 -0.598338
H -0.454166 -1.476411 -1.048140
H 0.789267 -0.525662 1.323072
H -1.664798 0.543699 -1.519921
H -1.899575 1.136311 1.459167
H 2.436957 0.538413 -0.147908
H 1.320939 0.425612 -1.537995
H -0.664490 -2.457617 0.994435
H -3.129150 -0.955015 0.306166
H 3.545739 -2.199943 1.971277
H 3.881364 -3.216217 -1.207811
