  33
        -57.87732857
 N         -2.8922237610       -1.4265253277        0.3789265451
 N         -3.3393105113        0.8287140859       -0.2055044074
 N         -0.7772697888       -2.2670914855        0.5383286382
 N         -1.6877033728        2.2967413037       -0.7913648577
 N         -5.0391260425       -0.6394231402        0.2469717509
 C         -1.5797417347       -1.2211497137        0.2005131235
 C         -2.0320508297        1.0385376735       -0.3927662328
 C         -1.0821680300        0.0131811459       -0.2415729399
 C         -3.7108263275       -0.4036344757        0.1438525999
 H         -1.2531299452       -3.1507124890        0.6191028824
 H          0.1444970959       -2.2608194353        0.1306859450
 H         -2.4398673296        2.9628709206       -0.7161576776
 H         -0.7725509732        2.6344637600       -0.5361729597
 H         -5.3181092378       -1.4857985417        0.7100017092
 H         -5.6431210733        0.1625650859        0.2698116561
 O          1.1544693228       -0.8302696856       -0.7840224806
 O          3.4597657424        1.4319652955        0.6868975871
 O          1.1024371919        2.4517744437        0.3995207629
 O          4.6867458873       -1.2121638948       -0.1390994130
 C          2.4799302540        0.4329793207        0.6878839758
 C          2.4966513095       -0.4495530784       -0.5766572141
 C          1.0725859016        1.0721272791        0.6468009518
 C          0.3614885753        0.3214409689       -0.5179160030
 C          3.3893148734       -1.6768575642       -0.4335959099
 H          2.5726868522       -0.2014335180        1.5794129985
 H          2.8506273163        0.1684727902       -1.4183659967
 H          0.5374580683        0.8942211477        1.5896856242
 H          0.4173636854        0.9822521897       -1.3997878174
 H          3.0008980091       -2.3047801215        0.3784577461
 H          3.3664541938       -2.2466188049       -1.3689533647
 H          4.3289165444        1.0106379923        0.6077184980
 H          2.0245038823        2.7519984701        0.4901485918
 H          5.2962653170       -1.9620936371       -0.0923767556
