33
tap_C5link_ribose  charge=0 mult=1  seed=1_b3lyp_pcm
N     -2.64516900    -1.37589200     0.41191100
N     -3.30008500     0.77809000    -0.36624700
N     -0.45738800    -2.00931300     0.57548400
N     -1.80641600     2.39004300    -0.97133800
N     -4.86535500    -0.79362400     0.24605100
C     -1.35382200    -1.04391700     0.23749300
C     -2.00720300     1.10787300    -0.53277700
C     -0.95343900     0.22760200    -0.23084700
C     -3.54887200    -0.44414100     0.10599000
H     -0.84420700    -2.91697000     0.77325800
H      0.48694700    -1.98306900     0.21952500
H     -2.61799000     2.84130600    -1.36013600
H     -0.93126300     2.64555100    -1.39227700
H     -5.06503600    -1.59189000     0.82417900
H     -5.53515700    -0.04392700     0.27069800
O      1.21877100    -0.36240800    -1.11431500
O      3.34369700     1.84643000     0.19942000
O      1.07100800     1.93381600     1.65991100
O      2.68735800    -2.35274100     0.21118400
C      2.76009000     0.56766700     0.46949600
C      2.62442800    -0.21582000    -0.85238800
C      1.30037900     0.73535100     0.95280100
C      0.48911600     0.61794100    -0.35842700
C      3.25559900    -1.59070300    -0.85569400
H      3.36470500     0.03224100     1.19747700
H      3.08537800     0.37930600    -1.64589200
H      1.03977600    -0.08274100     1.62057800
H      0.57701500     1.58412900    -0.86605200
H      3.06315100    -2.07348200    -1.81708600
H      4.33682500    -1.48727700    -0.73070200
H      3.92099200     2.08959300     0.92898800
H      1.59702600     2.62155100     1.22950800
H      3.07840300    -3.23134600     0.21343300
