  16
        -32.01461049
 O         -0.1719046383        2.6462083135       -0.0002190021
 N          2.1594733985        0.5653503065       -0.0002105094
 N         -1.4944462464        0.7897122171        0.0006729028
 N         -0.7188363939       -1.4466893448        0.0006016967
 N          1.6950788942       -1.6134573785        0.0000236625
 N         -2.9573314803       -1.0081028448       -0.0023612349
 C          0.7906332401        0.4571072020       -0.0000189041
 C          0.5227110685       -0.9229580941        0.0001617308
 C         -0.2545576197        1.4147954067        0.0000539966
 C         -1.6933994515       -0.5736092237        0.0005875159
 C          2.6313852646       -0.6969191909       -0.0001929000
 H          2.6841585534        1.4255803876       -0.0003546240
 H         -2.2963833220        1.4104033560       -0.0003793143
 H          3.6776166789       -0.9281343504       -0.0002449669
 H         -3.7358926825       -0.3747464847        0.0107256893
 H         -3.1060987751       -2.0018738486        0.0043786212
