16
guanine  charge=0 mult=1  seed=1_b3lyp_pcm
O     -0.07933200     2.65492300     0.00079200
N      2.19592400     0.51110200    -0.00016300
N     -1.45755000     0.82064000     0.00057900
N     -0.74112000    -1.43125300     0.00505000
N      1.67303400    -1.65814500     0.00164600
N     -2.99650200    -0.92295100    -0.05796600
C      0.82061200     0.43698100     0.00029500
C      0.51750900    -0.92068000     0.00097100
C     -0.19107800     1.43018600     0.00102500
C     -1.69465500    -0.53440100    -0.00083500
C      2.64649500    -0.76287300     0.00057300
H      2.75812600     1.34674400    -0.00162300
H     -2.23925900     1.46085200    -0.01619500
H      3.69893600    -0.99224800     0.00015300
H     -3.17079700    -1.89717400     0.12442400
H     -3.72214200    -0.28857100     0.23071400
