30
calc_26db644a050cbc88; angstrom; first printed source-job orientation; unoptimized start
O -1.057251 -1.158593 0.507120
O -1.535869 2.238192 1.094382
O -3.660393 1.123812 0.090152
O -2.031565 -1.749053 -2.061868
O 4.872441 0.388482 -0.105706
N 0.948285 0.030704 0.680162
N 2.776312 -0.103151 -0.810309
N 0.698133 -0.543557 -1.582938
C -1.219469 1.210215 0.207017
C -2.486345 0.525829 -0.385999
C -0.474712 0.048190 0.927794
C -2.408259 -0.922602 0.136585
C -2.808877 -1.963128 -0.904692
C 1.499298 -0.218500 -0.562555
C 1.807387 0.368740 1.692775
C 3.127982 0.485107 1.489045
C 3.670061 0.263255 0.152450
H -0.579264 1.627101 -0.575777
H -2.439803 0.522464 -1.477037
H -0.614516 0.178909 2.012410
H -3.059735 -1.008417 1.017507
H -2.619891 -2.955733 -0.483112
H -3.877403 -1.849602 -1.119805
H -2.478629 2.142174 1.337312
H -3.949289 1.823658 -0.512782
H 1.352132 0.540528 2.656606
H -2.216676 -2.443882 -2.708134
H 3.808439 0.748089 2.279976
H 1.180797 -0.786711 -2.432948
H -0.221470 -0.939363 -1.432274
