  38
        -78.51957400
 P          0.7632658022        2.5133019800        0.2170392145
 O          1.8059571246       -0.1345375348        0.8099406465
 O          1.7277797907       -3.5922327040        0.1014975524
 O          3.8691197473       -2.1135590301       -0.2441761282
 O          1.6495516171        2.0746231899       -1.0510905401
 O          0.5461312085        4.0333693284       -0.0936759090
 O          1.7443908827        2.5778350367        1.4631286074
 O         -4.7138756386       -0.0325677806        0.6349094914
 O         -0.4929275084        1.7719344994        0.3895157403
 N         -0.2765829917       -1.1891540612        1.1386741733
 N         -2.1802117038       -0.8349472969        2.2611490044
 N         -1.0773327543       -0.8360556328       -1.1304404254
 N         -3.3563192483       -0.2343461507       -1.1635595168
 N         -2.1256451001       -0.4087516384       -3.1159087027
 C          1.4959024949       -2.2662125518       -0.2420980636
 C          2.7291474853       -1.5569354816       -0.8442134598
 C          1.1395102146       -1.3729087255        0.9740071517
 C          2.5100634431       -0.0931589842       -0.4318816022
 C          1.7160494786        0.7176850884       -1.4550534819
 C         -1.2266401881       -0.8887194553        0.2066313767
 C         -0.9221717608       -1.1224877502        2.3494641627
 C         -2.4124315971       -0.6733552020        0.9170045358
 C         -3.5901110445       -0.2931261055        0.2120853080
 C         -2.1656036619       -0.4888066295       -1.7832088874
 H          0.6612502809       -2.2450571535       -0.9460031736
 H          2.7531542592       -1.6699421109       -1.9304398498
 H          1.5030634938       -1.8313206359        1.9043973674
 H          3.4555596654        0.4174687467       -0.2221109642
 H          0.7051900135        0.3037605020       -1.5329613497
 H          2.2175292949        0.7295700993       -2.4233696869
 H          2.6590626660       -3.6767727375        0.3771547029
 H          4.6615362476       -1.9082338695       -0.7593493782
 H         -0.4153120418       -1.3141475336        3.2735046197
 H         -4.1552467913        0.0537882143       -1.7186154114
 H         -1.2516440123       -0.5836319199       -3.5796165321
 H         -2.9264787225       -0.1116440909       -3.6442704110
 H          1.3530414416        4.5545136297       -0.1943401123
 H          1.8686980141        1.7358128574        1.9120838344
