38
guanine_ribose_phosphate  charge=0 mult=1  seed=1_b3lyp_pcm
P      3.48225600    -1.49054100    -0.32339100
O      0.43545600     1.45807200    -1.03244700
O     -1.41262000     3.53356600     1.18031000
O      1.07792500     4.18237400     0.33447900
O      2.78164300    -0.10264500    -0.61859100
O      4.89782300    -1.04175100     0.24814800
O      3.85036300    -1.99385000    -1.78499700
O     -4.62062500    -2.63544200    -0.62057100
O      2.73031500    -2.43913000     0.51573300
N     -1.85430700     1.03831600    -0.75904500
N     -3.67991000     0.12154100    -1.68914400
N     -1.29818400    -0.67981700     0.87503000
N     -2.82825500    -2.47281000     0.78807900
N     -1.04229700    -2.49695500     2.27608500
C     -0.55153000     2.45545900     0.86373600
C      0.93292000     2.85983400     0.82972000
C     -0.79237400     2.00442400    -0.58275100
C      1.52799800     1.88668800    -0.19045900
C      2.19961000     0.68578300     0.44515400
C     -2.05028900    -0.16462600    -0.11768000
C     -2.86774200     1.13950700    -1.69528800
C     -3.18436100    -0.71253000    -0.70465700
C     -3.65405600    -1.97877400    -0.24498800
C     -1.72475000    -1.84717200     1.30591300
H     -0.69558900     1.61870600     1.54327000
H      1.39984400     2.76717100     1.81277200
H     -1.07147400     2.87083900    -1.18669300
H      2.25029200     2.41103100    -0.81662500
H      1.48273300     0.07555400     0.99278300
H      2.99239200     1.02031900     1.11468600
H     -1.63234300     3.50534700     2.11666200
H      0.35468000     4.70596300     0.70582800
H     -2.93772300     1.99975200    -2.34076700
H     -3.09703000    -3.37830600     1.14832800
H     -0.32596500    -1.97684100     2.75330800
H     -1.46832000    -3.25132100     2.78628400
H      5.34576600    -1.72732700     0.75899100
H      3.15476700    -2.51579800    -2.20370900
