29
calc_17f23c48dae66527; angstrom; atom order from source job; valid
O -1.161052 0.317829 -1.147896
O -1.239631 -2.317466 1.248606
O -3.390268 -1.657645 -0.274678
O -1.681645 2.922818 -0.437053
O 0.528486 1.497267 0.855764
O 4.830639 0.274976 0.195584
N 0.898522 -0.447198 -0.297657
N 2.659706 0.838788 0.494158
C -1.326457 -0.996822 0.805515
C -2.737675 -0.574576 0.361653
C -0.522998 -0.732072 -0.478997
C -2.435857 0.606131 -0.549012
C -2.402335 1.921860 0.235464
C 1.302366 0.686097 0.383378
C 1.826009 -1.314358 -0.822051
C 3.149349 -1.148240 -0.698043
C 3.658821 0.001426 0.009383
H -0.976401 -0.348489 1.605518
H -3.358455 -0.291792 1.209440
H -0.546313 -1.636209 -1.092173
H -3.154059 0.682981 -1.365657
H -3.427949 2.271037 0.355404
H -1.983684 1.756731 1.231276
H -1.878124 -2.830364 0.740269
H -3.197758 -1.664652 -1.214535
H 1.410389 -2.159701 -1.350121
H -0.755069 2.669519 -0.369692
H 2.957944 1.665496 0.991617
H 3.842308 -1.854598 -1.123209
