  13
        -24.45917746
 N         -1.5594618781        1.0896804981       -0.0000216544
 N         -1.5249689714       -1.1475126846       -0.0000244781
 N          0.8868115557       -1.4014616092        0.0000193385
 N          2.0910032197        0.6528873019       -0.0000221926
 C         -0.2404746094        0.7352780647        0.0000211528
 C         -0.2385000244       -0.6947328119        0.0000239754
 C          0.9827089455        1.3780922039        0.0000177010
 C         -2.2602777036       -0.0715152952        0.0000085806
 C          1.9854569850       -0.6718931420       -0.0000204838
 H         -1.9369599185        2.0250283547       -0.0000717892
 H          1.1046026658        2.4523805198        0.0000935892
 H         -3.3320976364       -0.0991211416        0.0000541909
 H          2.9182695340       -1.2182815530       -0.0000020956
