13
purine  charge=0 mult=1  seed=1_b3lyp_pcm
N     -1.57381500     1.02468100    -0.00000200
N     -1.49369100    -1.21660100     0.00000100
N      0.92745500    -1.40830600     0.00000100
N      2.09782400     0.68561500    -0.00000100
C     -0.23950800     0.69491400     0.00000200
C     -0.21271400    -0.71594400     0.00000100
C      0.95986500     1.38222200     0.00000100
C     -2.26157500    -0.14926300    -0.00000100
C      2.02386800    -0.65577300    -0.00000100
H     -1.97847000     1.94742800     0.00000700
H      1.02283600     2.46325200     0.00000100
H     -3.33924200    -0.16407300    -0.00000400
H      2.97085800    -1.18127200    -0.00000500
