32
calc_8fff6d635cf75f67; angstrom; atom order from source job; valid
O 1.950768 -1.861284 -0.786200
O -0.025386 2.043013 0.655076
N 3.268451 -0.129471 -0.162485
N 0.912639 0.055931 -0.030954
C 2.034716 -0.723405 -0.358194
C 3.387192 1.146803 0.300375
C 4.452018 -0.932655 -0.487476
C 2.316855 1.908077 0.592073
C 0.990095 1.388613 0.422054
H 4.397972 1.507886 0.414524
H 4.437449 -1.212264 -1.537665
H 5.334320 -0.336861 -0.280789
H 4.469111 -1.834652 0.118547
H 2.426171 2.917307 0.951299
O -1.112330 0.119495 -1.237251
O -2.883774 -2.192964 0.053779
O -1.005464 -1.721533 1.860321
O -2.765268 2.169725 0.141898
C -2.695419 -0.798453 0.306416
C -2.537787 0.003993 -0.997696
C -1.322560 -0.662734 0.987170
C -0.392973 -0.581568 -0.239735
C -3.149300 1.395268 -0.982559
H -3.499636 -0.412701 0.929594
H -2.976943 -0.562911 -1.821620
H -1.285657 0.259131 1.556482
H -0.164973 -1.592103 -0.569249
H -4.235805 1.302666 -0.952844
H -2.882749 1.898796 -1.918046
H -3.823302 -2.385959 -0.012175
H -1.434878 -2.514552 1.509968
H -1.794104 2.165744 0.210508
