32
calc_8fff6d635cf75f67; angstrom; first printed source-job orientation; unoptimized start
O -1.978836 1.863703 -0.714872
O 0.102368 -2.004260 0.532917
N -3.258495 0.095567 -0.115218
N -0.921111 -0.061981 -0.095963
C -2.050462 0.706787 -0.334673
C -3.343204 -1.192319 0.294696
C -4.478834 0.851361 -0.336224
C -2.250093 -1.945354 0.518574
C -0.939570 -1.389500 0.332319
H -4.343403 -1.575378 0.430345
H -5.072152 0.374945 -1.114308
H -5.051762 0.903042 0.587458
H -4.204355 1.855297 -0.651050
H -2.309244 -2.967940 0.845053
O 1.105587 -0.165911 -1.266015
O 2.907521 2.169989 0.023252
O 0.904061 1.835322 1.702295
O 2.933589 -2.034910 0.366216
C 2.645667 0.814534 0.288430
C 2.505958 -0.028568 -0.993736
C 1.240476 0.738325 0.918713
C 0.358985 0.581198 -0.341914
C 3.157255 -1.416065 -0.874037
H 3.396436 0.381625 0.955292
H 2.947998 0.502187 -1.846305
H 1.151773 -0.153432 1.543863
H 0.128821 1.578588 -0.747702
H 4.240580 -1.313119 -0.965011
H 2.781241 -2.034922 -1.697343
H 3.853375 2.308440 -0.121339
H 1.333015 2.621831 1.319393
H 1.978225 -2.196122 0.467062
