35
calc_02f9f94592bb03fd; angstrom; atom order from source job; valid
O -2.390714 0.162509 2.068762
O -2.327469 -1.213374 -2.490011
O -1.295408 -4.060928 0.873975
N -1.830548 -1.924551 1.437404
N -1.809046 -2.606613 -0.796079
C -2.383595 -0.253169 -0.294817
C -2.206565 -0.628372 1.168149
C -2.175036 -1.379472 -1.299160
C -1.618645 -2.945505 0.530162
H -3.423053 0.060361 -0.415621
H -1.712222 -2.174543 2.410679
H -1.671000 -3.355520 -1.462163
P 3.250920 -0.621777 -0.029141
O -0.144073 0.606005 -0.356710
O -0.176174 4.065710 0.619192
O -2.130231 3.248125 -1.030342
O 2.829252 0.903248 -0.160521
O 4.766882 -0.597647 -0.514499
O 2.559987 -1.424071 -1.211136
O 2.970532 -1.243837 1.273315
C -0.448352 2.685851 0.651459
C 0.567412 1.819272 -0.113646
C -1.798746 2.302111 -0.013977
C -1.494794 0.943559 -0.683519
C 1.823340 1.533869 0.668153
H -0.466075 2.380190 1.697475
H 0.824430 2.306334 -1.062016
H -2.596715 2.241160 0.717548
H -1.595724 1.084156 -1.761600
H 2.257985 2.471794 1.007350
H 1.609475 0.902120 1.528484
H -0.548535 4.407624 -0.206043
H -2.856242 3.799888 -0.725487
H 5.360058 -0.089195 0.052479
H 2.640198 -1.024350 -2.086269
