35
calc_63f8b75b8679c7a5; angstrom; atom order from source job; valid
O 3.211104 1.991109 0.865346
N 2.762986 -0.155569 0.193052
N 4.522399 -1.669661 -0.264952
N 2.391161 -2.248173 -0.837012
C 3.237940 -1.360321 -0.286723
C 3.665296 0.867772 0.596725
C 5.030058 0.490581 0.642057
C 5.386104 -0.754155 0.210792
H 5.752711 1.215383 0.980526
H 6.426284 -1.057150 0.221313
H 1.402365 -2.179359 -0.665643
H 2.786063 -3.147791 -1.053280
P -4.124220 -0.252085 0.377547
O 0.472659 -0.851954 0.383349
O -1.545883 1.813035 -0.864981
O 0.903297 2.508853 -0.565908
O -3.057008 -0.974467 -0.570545
O -5.533758 -0.713876 -0.185890
O -4.039741 1.273493 -0.026444
O -3.984516 -0.576653 1.805879
C -0.664682 0.705028 -0.981984
C -0.837865 -0.314137 0.165127
C 0.828161 1.130521 -0.865889
C 1.351144 0.254199 0.297454
C -1.787451 -1.470157 -0.110132
H -0.852649 0.233157 -1.943940
H -1.155423 0.226794 1.062964
H 1.366181 0.905035 -1.787276
H 1.285486 0.836947 1.217065
H -1.924626 -2.080817 0.779555
H -1.406577 -2.088878 -0.919330
H -1.027076 2.555362 -0.511725
H 1.707730 2.637714 -0.027587
H -5.756517 -0.373579 -1.061310
H -3.137940 1.559976 -0.323148
