39
DFT refinement start; not an optimized result
N 1.592369 -0.298712 -0.457999
N 3.377472 0.324664 0.737832
N 4.639783 -1.721092 0.545296
N 3.563034 -3.423880 -0.748291
N 1.526755 -3.220332 -1.777697
N 5.603545 -3.771596 0.216202
C 2.453062 -1.383657 -0.446271
C 3.568808 -0.961838 0.312420
C 2.481186 -2.683441 -0.981206
C 2.213152 0.666723 0.259921
C 4.573183 -2.930187 -0.013124
H 1.779747 1.637090 0.392538
H 0.569553 -2.911043 -1.671829
H 1.659178 -4.201130 -1.969574
H 5.655575 -4.603491 -0.343772
H 6.436476 -3.375906 0.613599
P -3.626087 2.681019 1.020981
O -0.120291 1.133570 -1.143252
O -2.909209 -0.352967 -1.218443
O -1.124682 -2.197501 -1.073946
O -2.263929 2.164179 1.676530
O -3.216951 4.100103 0.444207
O -4.507332 2.903006 2.293496
O -4.276308 1.793090 0.042806
C -1.966676 -0.060522 -0.225611
C -1.322292 1.321826 -0.410624
C -0.784262 -1.040520 -0.381674
C 0.305735 -0.200996 -1.112921
C -1.070716 2.020698 0.928474
H -2.420672 -0.142695 0.768023
H -1.965032 1.961525 -1.023949
H -0.398552 -1.338686 0.600304
H 0.427190 -0.558253 -2.146486
H -0.631705 3.004547 0.743299
H -0.398795 1.428025 1.555076
H -3.695074 0.196609 -1.058392
H -1.931235 -2.015352 -1.593501
H -3.850561 4.506209 -0.158000
H -4.115309 3.418914 3.010218
