31
calc_77e99c7202c577c8; angstrom; atom order from source job; valid
N 3.087434 -0.434709 0.150007
N 4.845882 -1.754248 -0.074537
C 2.749613 -1.380211 -0.788368
C 4.355272 -0.710684 0.543880
C 3.842569 -2.180899 -0.912319
H 1.786564 -1.407597 -1.264992
H 4.863132 -0.111124 1.282497
H 3.963021 -3.038371 -1.552976
P -3.594559 -0.489447 -0.094293
O 1.146158 0.133943 1.309502
O -0.456191 2.247780 -1.090154
O 1.839807 2.916297 0.049555
O -2.299747 0.317396 0.304975
O -3.964665 -1.183417 1.273325
O -3.122500 -1.720452 -0.974501
O -4.593137 0.377454 -0.718869
C 0.301140 1.171308 -0.606017
C -0.041206 0.727639 0.818175
C 1.759929 1.603560 -0.450122
C 2.279198 0.654176 0.640225
C -1.147462 -0.301272 0.895085
H 0.239358 0.315129 -1.284993
H -0.309958 1.606879 1.412483
H 2.331822 1.500804 -1.373625
H 2.899306 1.217033 1.337279
H -1.367267 -0.572909 1.926158
H -0.872439 -1.194179 0.332218
H -1.388970 2.041050 -0.995067
H 1.105843 3.412705 -0.326851
H -4.722430 -1.773956 1.239756
H -3.134935 -1.544794 -1.919680
