37
calc_ae92928552ba62b6; angstrom; atom order from source job; valid
N -2.360811 -0.177904 0.130024
N -3.844816 -1.816071 0.085292
C -2.348020 -0.757444 1.385361
C -3.277599 -0.859067 -0.611190
C -3.266181 -1.763198 1.336629
H -1.695618 -0.421642 2.169597
H -3.487230 -0.608570 -1.637376
H -3.542949 -2.448480 2.118838
P 2.723240 -0.948377 -0.054362
O -0.188640 0.567078 -0.281363
O -0.409395 3.963008 -0.687959
O -2.746682 3.020547 0.210294
O 2.722503 0.608629 -0.439821
O 3.903669 -1.529507 -0.906299
O 1.478417 -1.576312 -0.818740
O 2.765955 -1.188491 1.402288
C -0.269623 2.895855 0.240648
C 0.586406 1.780290 -0.391983
C -1.642391 2.211497 0.512708
C -1.566901 0.926684 -0.334222
C 1.930492 1.575635 0.273118
H 0.164509 3.261523 1.168858
H 0.726097 2.014115 -1.450063
H -1.710007 1.936448 1.563776
H -1.874639 1.137277 -1.361320
H 1.809278 1.266443 1.311308
H 2.488444 2.509091 0.242821
H -0.360670 4.803521 -0.222322
H -2.473126 3.628589 -0.492049
H 4.781438 -1.588221 -0.441585
H 0.687047 -1.009467 -0.726814
O 6.313000 -1.762974 0.178419
H 6.759786 -0.932173 0.375619
H 6.354688 -2.279112 0.991214
O -5.878715 -3.577995 -0.795277
H -5.149367 -2.985750 -0.499065
H -5.444889 -4.353488 -1.161945
