38
DFT refinement start; not an optimized result
N 4.550293 1.492026 0.408838
N 4.338166 -0.861320 0.218608
N 2.738145 2.891057 0.431574
N 2.331830 -1.906132 -0.064922
N 6.385553 0.123020 0.512206
C 3.220739 1.614415 0.358089
C 3.003827 -0.745633 0.169675
C 2.367524 0.499428 0.288358
C 5.046953 0.254863 0.368230
H 3.458317 3.590038 0.332780
H 1.891104 3.072352 -0.087904
H 1.364554 -1.913000 0.218424
H 2.874524 -2.739096 0.095311
H 6.785389 -0.764827 0.266179
H 6.936834 0.957739 0.423163
P -4.185626 -1.079112 0.037381
O 0.160137 -0.442561 0.734868
O -1.951719 1.825319 -0.567892
O 0.407331 2.442422 -1.368667
O -2.938749 -1.743322 -0.699141
O -5.377976 -1.647254 -0.800024
O -4.187199 -1.792948 1.452449
O -4.212787 0.392904 0.104254
C -1.216822 0.670323 -0.877860
C -1.178743 -0.347140 0.281857
C 0.260899 1.089776 -1.049640
C 0.879260 0.714571 0.321868
C -1.644147 -1.744243 -0.125818
H -1.612823 0.203321 -1.788698
H -1.816415 0.026795 1.096789
H 0.744782 0.500161 -1.836675
H 0.657100 1.535343 1.024159
H -0.980985 -2.143720 -0.896980
H -1.628993 -2.395155 0.751676
H -2.875348 1.568708 -0.385386
H -0.436857 2.880440 -1.152820
H -5.384022 -2.600975 -0.955125
H -4.711121 -1.361461 2.136476
