38
DFT refinement start; not an optimized result
N 3.263949 -0.353671 -0.925637
N 3.804707 0.173554 1.323801
N 1.198091 0.022749 -1.824787
N 2.263964 0.989169 2.801070
N 5.391188 -0.622687 -0.121557
C 1.990893 0.007495 -0.716787
C 2.537930 0.540600 1.539416
C 1.549098 0.428227 0.547712
C 4.104769 -0.275977 0.104562
H 1.598853 -0.474323 -2.605949
H 0.214674 -0.157978 -1.681212
H 1.528668 1.671188 2.897145
H 3.091462 1.156149 3.351685
H 5.982834 -0.745322 0.680347
H 5.592503 -1.111110 -0.975172
P -2.158571 -2.060552 -1.137809
O -0.847119 0.104329 0.130450
O -2.466711 3.125972 1.050124
O 0.056244 3.011129 1.834035
O -3.281682 -1.041030 -0.589157
O -1.327475 -2.599848 0.074586
O -3.054959 -3.318880 -1.484675
O -1.368857 -1.515114 -2.250335
C -1.678377 2.313876 0.236366
C -2.053966 0.814780 0.315037
C -0.173379 2.310017 0.641716
C 0.137215 0.809745 0.875376
C -3.046239 0.345973 -0.733494
H -1.805807 2.675013 -0.786920
H -2.456820 0.599429 1.318873
H 0.450370 2.691555 -0.173077
H -0.042259 0.606495 1.944563
H -4.008171 0.843090 -0.605804
H -2.632935 0.537610 -1.727740
H -2.140269 3.063569 1.965271
H 0.065215 3.963844 1.658116
H -1.833233 -3.122758 0.709596
H -3.569525 -3.254820 -2.295711
