38
DFT refinement start; not an optimized result
N 4.398169 -0.404991 -0.261384
N 4.460423 1.440969 1.228511
N 2.442003 -1.334283 -0.986191
N 2.574888 2.344286 2.150357
N 6.386668 0.499434 0.424595
C 3.063058 -0.445719 -0.166418
C 3.128433 1.402395 1.332884
C 2.357868 0.427865 0.676929
C 5.036546 0.514532 0.460998
H 3.041889 -2.040466 -1.379363
H 1.506925 -1.603609 -0.723752
H 1.638736 2.651008 1.941381
H 3.222553 3.058640 2.441567
H 6.867731 1.290457 0.812918
H 6.823645 -0.054877 -0.289356
P -3.993618 -1.121995 -1.134412
O 0.294575 -0.884212 0.687977
O -2.327409 1.410047 0.280341
O -0.022653 2.606392 0.469279
O -3.114509 -1.903604 -0.025764
O -5.220717 -2.067541 -1.345910
O -4.637558 0.106475 -0.382557
O -3.245138 -0.836084 -2.367692
C -1.285695 0.627401 -0.235194
C -1.098812 -0.693973 0.549117
C 0.095789 1.329047 -0.096205
C 0.869995 0.402696 0.873000
C -1.707524 -1.916591 -0.132130
H -1.520008 0.415113 -1.281703
H -1.563213 -0.576826 1.542328
H 0.612699 1.357429 -1.059646
H 0.641804 0.736548 1.898579
H -1.415723 -1.939170 -1.186115
H -1.362894 -2.822355 0.371218
H -1.938215 2.062539 0.895937
H -0.218811 3.259292 -0.218952
H -5.762210 -2.222642 -0.561119
H -4.000219 0.799720 -0.134027
