32
calc_1d0d11d7d1abd4e1; angstrom; atom order from source job; valid
O -2.079900 0.795613 -1.851121
O -0.035097 -0.621178 2.009742
N -3.355244 -0.116713 -0.214453
N -1.026939 0.126450 0.087094
C -2.144808 0.301653 -0.737957
C -3.444405 -0.696492 1.018037
C -4.544455 0.073059 -1.051071
C -2.370849 -0.891257 1.804912
C -1.065428 -0.481697 1.362804
H -4.438129 -0.991195 1.319800
H -4.446555 -0.488351 -1.976809
H -5.408714 -0.281292 -0.499907
H -4.669923 1.126212 -1.288232
H -2.462213 -1.353001 2.773587
O 1.023550 -0.615995 -0.791445
O 3.600850 1.387314 0.629787
O 1.455104 2.621185 -0.317699
O 3.111863 -2.555875 -1.380343
C 2.416123 0.600482 0.661317
C 2.407413 -0.378420 -0.515446
C 1.142322 1.447850 0.422586
C 0.261659 0.545275 -0.466846
C 3.083752 -1.703992 -0.238361
H 2.327916 0.067561 1.604150
H 2.882167 0.100868 -1.379667
H 0.649407 1.715307 1.354850
H 0.024348 1.096238 -1.370510
H 2.584649 -2.197015 0.601043
H 4.122235 -1.522238 0.036051
H 3.863096 1.605583 1.529407
H 2.384861 2.821772 -0.134863
H 2.203225 -2.755888 -1.628598
