  32
        -58.88832941
 O          1.1026151066        0.3061715409        1.2502430019
 O          1.2908250113       -2.0229791483       -1.4481349465
 O          3.4104173413       -1.6264180597        0.0039895034
 O          2.4698279978        2.4100199001       -0.5738744621
 O         -0.2857796268        1.7578267630       -0.5149107583
 O         -4.6996322561        0.9143297565       -0.1670162181
 N         -0.8846612084       -0.3339916077        0.1934050432
 N         -2.4728771134        1.2955484817       -0.3025775847
 C          1.3675103414       -0.7693596708       -0.8502638071
 C          0.5105478557       -0.6726376622        0.4358105160
 C          2.7727134724       -0.4158264813       -0.3180473665
 C          2.4884035854        0.4556729773        0.9222042837
 C          2.8250235031        1.9393865109        0.7010583231
 C         -1.8965658848       -1.2565119418        0.3633832322
 C         -1.1560780968        0.9525072083       -0.2217145846
 C         -3.1921011826       -0.8786498240        0.2407448306
 C         -1.5482722761       -2.6774659697        0.6431023200
 C         -3.5640759249        0.4689044181       -0.0727262140
 H          1.0308390728       -0.0189475479       -1.5707736038
 H          0.5415195383       -1.6393245583        0.9499028428
 H          3.3375461861        0.1537784085       -1.0606608067
 H          3.0634990599        0.0849138907        1.7803045221
 H          2.3279702324        2.5178885336        1.4882210005
 H          3.9053322487        2.0782835381        0.7790166180
 H          2.0389927755       -2.5533824268       -1.1132502401
 H          4.3683762905       -1.5069954359        0.0425627475
 H         -3.9902933102       -1.5881282686        0.3690219118
 H         -2.4510686144       -3.2780522428        0.6121328683
 H         -0.8509812823       -3.0461867575       -0.1065203998
 H         -1.0999023125       -2.7860908249        1.6288941206
 H         -2.6638246333        2.2537903845       -0.5801632219
 H          1.5014857454        2.3716815825       -0.6578868554
