32
6_methyluracil_ribose  charge=0 mult=1  seed=1_b3lyp_pcm
O      1.18319800     0.28955400     1.05224700
O      1.22139600    -2.12120300    -1.60834600
O      3.42559500    -1.70978500    -0.11179400
O      2.27567100     2.85693400     1.13167200
O     -0.33491300     1.58169400    -1.08736300
O     -4.74699200     0.86616600    -0.34757700
N     -0.89654300    -0.30944000     0.10165400
N     -2.52462700     1.17509100    -0.69842100
C      1.34167900    -0.83974300    -1.03735800
C      0.51527400    -0.67558800     0.25674100
C      2.76901100    -0.51637100    -0.54159700
C      2.53554200     0.50109900     0.57596000
C      2.69492100     1.94809500     0.12179600
C     -1.91110300    -1.06755300     0.68925600
C     -1.19003200     0.86676300    -0.59503400
C     -3.20907100    -0.70702000     0.55576100
C     -1.55289700    -2.29370000     1.47398500
C     -3.60037200     0.46716700    -0.17302000
H      1.03509000    -0.11267200    -1.78046700
H      0.51997600    -1.63287000     0.76763300
H      3.38231600    -0.11096100    -1.34337800
H      3.20619300     0.31548100     1.41732800
H      3.74995900     2.14690000    -0.06389600
H      2.13673100     2.11757200    -0.80074500
H      1.88116200    -2.68631300    -1.18084200
H      3.27051400    -1.86416200     0.82624000
H     -3.98631000    -1.30116600     1.00644300
H     -0.88716200    -2.05921500     2.30492600
H     -2.46018200    -2.72968900     1.88007400
H     -1.06503200    -3.04393300     0.85171900
H     -2.73120000     2.02182600    -1.21089300
H      1.34677600     2.67387500     1.31357800
