30
calc_46cd4512cd3591cc; angstrom; atom order from source job; valid
O 0.488837 1.524354 1.450138
O 1.651242 -2.586984 -0.665615
O 4.529827 0.898712 -0.467742
N 2.490972 1.163303 0.501914
N 3.069627 -0.842963 -0.539437
C 0.852504 -0.679922 0.551736
C 1.233593 0.755990 0.871929
C 1.867609 -1.460573 -0.275582
C 3.445793 0.437588 -0.188573
H 0.815847 -1.205827 1.512022
H 2.754319 2.109852 0.744450
H 3.756718 -1.375597 -1.056879
O -0.727350 0.233871 -1.035270
O -3.407444 -1.451164 -0.595186
O -2.019951 -1.793238 1.652607
O -2.014209 2.586386 0.268192
C -2.867162 -0.234427 -0.074040
C -2.131916 0.578498 -1.153808
C -1.744922 -0.636123 0.897988
C -0.555745 -0.791241 -0.065224
C -2.273927 2.087477 -1.037993
H -3.644383 0.346910 0.417618
H -2.482527 0.267639 -2.140570
H -1.560430 0.176005 1.594720
H -0.618246 -1.779725 -0.528712
H -1.615787 2.557468 -1.775234
H -3.299730 2.366432 -1.279319
H -4.318070 -1.309576 -0.868597
H -2.557022 -2.372792 1.094445
H -1.117460 2.337729 0.533125
