30
calc_46cd4512cd3591cc; angstrom; first printed source-job orientation; unoptimized start
O 0.253477 -0.856191 -1.906493
O 1.679161 2.403965 1.242053
O 4.341809 -0.999062 -0.036889
N 2.292434 -0.863897 -0.988803
N 2.995567 0.721989 0.558061
C 0.744640 0.943953 -0.401748
C 1.052767 -0.320762 -1.168086
C 1.825444 1.432768 0.534799
C 3.286225 -0.421265 -0.145225
H 0.522857 1.752141 -1.110218
H 2.496819 -1.720836 -1.499912
H 3.718196 1.049138 1.196323
O -0.560973 -0.588388 0.933284
O -3.408885 0.823144 1.371397
O -2.261661 2.163562 -0.620349
O -2.142644 -2.336357 -1.102522
C -2.825467 -0.012190 0.401343
C -1.903363 -1.084103 1.012910
C -1.849401 0.850822 -0.425664
C -0.557530 0.723985 0.407576
C -2.004732 -2.439864 0.292313
H -3.580675 -0.473434 -0.240262
H -2.136365 -1.226616 2.075196
H -1.702002 0.404417 -1.412409
H -0.586916 1.464586 1.222299
H -1.122902 -3.032384 0.562044
H -2.901554 -2.959412 0.635817
H -4.225083 0.430745 1.708065
H -2.718093 2.462612 0.185093
H -1.328869 -1.979900 -1.495094
