16
calc_37224311d98c4c49; angstrom; atom order from source job; valid
N 1.194673 -0.692475 0.001892
N -1.194108 -0.693399 0.001879
N 2.392116 1.268076 0.052924
N -2.393129 1.266210 0.052821
N 0.001118 -2.648938 -0.064359
C 1.182250 0.649998 0.006466
C -1.182780 0.649144 0.006442
C -0.000559 1.380609 0.002054
C 0.000481 -1.287994 -0.005481
H -0.000925 2.460772 0.000879
H 3.197836 0.718394 -0.193311
H 2.430882 2.245957 -0.178252
H -2.432914 2.244142 -0.177961
H -3.198524 0.715817 -0.192847
H -0.853584 -3.116344 0.184180
H 0.856190 -3.115600 0.184327
