16
calc_37224311d98c4c49; angstrom; first printed source-job orientation; unoptimized start
N 1.204900 -0.699500 -0.000400
N -1.204900 -0.699700 -0.000100
N 2.389600 1.365700 0.000000
N -2.389800 1.365500 -0.000300
N 0.000300 -2.713000 0.000300
C 1.167900 0.649200 -0.000100
C -1.168000 0.648900 0.000200
C 0.000000 1.384000 0.000400
C 0.000100 -1.301000 -0.000200
H -0.001500 2.468100 0.000000
H 3.242500 0.820000 0.005900
H 2.407700 2.288200 0.417300
H -2.538100 1.920300 0.838300
H -2.538000 1.919200 -0.839600
H -0.879700 -3.210100 0.001300
H 0.880300 -3.209800 0.001100
