15
calc_1632baec8f23be35; angstrom; atom order from source job; valid
N -0.737746 -1.159506 -0.001057
N 1.372862 -0.059127 -0.001147
N -0.635240 1.218463 0.000990
N 1.220813 -2.341583 0.025627
N -2.638393 0.113821 -0.022287
N 1.417819 2.228000 -0.023040
C 0.599962 -1.150877 0.001841
C -1.296769 0.055799 -0.001900
C 0.696749 1.094938 -0.001988
H 2.219524 -2.382169 -0.069376
H 0.681571 -3.183132 -0.069767
H -3.097786 1.001440 0.072277
H -3.173066 -0.730518 0.074142
H 2.415889 2.182158 0.076071
H 0.953398 3.112587 0.075335
