35
calc_7de52b9db685b71c; angstrom; atom order from source job; valid
O -2.274436 0.325185 2.498357
O -4.666759 2.389630 -1.017098
O -1.326845 -0.518580 -1.885038
N -1.813391 -0.197286 0.324171
N -2.995039 0.920978 -1.400621
C -3.701861 1.319514 0.891398
C -2.542497 0.459976 1.326758
C -3.849534 1.611943 -0.574116
C -2.001614 0.029471 -1.042449
H -3.653874 2.260270 1.437452
H -4.615525 0.821667 1.225747
H -3.082937 1.077789 -2.396519
P 2.999383 1.698756 0.008911
O 0.524470 -0.451787 0.454848
O 1.309455 -3.752209 -0.606088
O -0.630275 -3.430991 1.172787
O 3.340397 0.149091 -0.169137
O 1.920768 1.777755 1.172176
O 4.312021 2.281732 0.676397
O 2.659901 2.403769 -1.237082
C 0.643221 -2.503514 -0.691793
C 1.480933 -1.424063 -0.000989
C -0.681799 -2.490246 0.113140
C -0.729069 -1.083826 0.741786
C 2.486811 -0.752491 -0.907774
H 0.445106 -2.234859 -1.725595
H 1.994179 -1.863898 0.858853
H -1.543725 -2.682988 -0.522979
H -0.845396 -1.191173 1.814490
H 1.987172 -0.215166 -1.713269
H 3.144296 -1.506547 -1.333960
H 1.132998 -4.266151 -1.400354
H -0.032178 -4.138138 0.889518
H 1.248332 1.066124 1.095864
H 4.512692 1.936551 1.555491
