29
calc_53d55d25faa7cb2a; angstrom; atom order from source job; valid
O -2.649055 2.471288 -0.839039
O -0.555672 1.677308 -0.990438
N -1.507757 -0.759854 0.402321
N -3.542397 0.129515 0.214717
C -2.254150 0.323645 -0.016946
C -2.400860 -1.656501 0.920989
C -3.646114 -1.096764 0.790702
C -1.710219 1.528709 -0.653442
H -2.078336 -2.595311 1.333857
H -4.593907 -1.514673 1.083573
H -2.223027 3.222897 -1.277850
O 0.571031 -0.048346 1.222098
O 3.057145 -0.786188 -1.247685
O 1.018783 -2.406371 -1.244118
O 3.939488 1.197907 0.824904
C 1.901468 -0.167800 -0.705214
C 1.940420 -0.023244 0.823450
C 0.665289 -1.064924 -0.951454
C -0.073254 -1.017037 0.415397
C 2.594139 1.253156 1.309210
H 1.736182 0.805440 -1.162678
H 2.471520 -0.886466 1.243947
H 0.041992 -0.672024 -1.750646
H 0.034176 -2.007511 0.860697
H 2.571686 1.307387 2.399850
H 2.065290 2.117281 0.900628
H 3.827939 -0.304752 -0.921752
H 1.969050 -2.418288 -1.426628
H 4.374436 2.038166 0.995817
