  34
        -62.46736555
 O         -1.6451980501       -0.1951013455       -1.4200745663
 O         -2.2465179333       -1.6561535020        1.7828240090
 O         -4.2323217069       -0.6932391915        0.3510048248
 O         -1.3996842882        2.4468603958        0.1602476229
 N          0.1077027084       -1.3047164348       -0.3682665004
 N          2.0963865037       -2.3311715382       -0.4319355469
 N          0.8733851342        0.9574776035        0.1239711099
 N          3.2587733375        1.1002483557        0.3159401415
 N          4.6713759654       -0.6975755463        0.0791148284
 N          1.9304110776        2.9428912215        0.5350591240
 C         -1.9234803220       -0.6330483585        0.8985307853
 C         -1.3142387046       -1.1391529449       -0.4327190087
 C         -3.1353399634        0.1845592017        0.4112414356
 C         -2.6876433060        0.6813520135       -0.9735858114
 C         -2.1959776627        2.1392415435       -0.9512247612
 C          1.0479776770       -0.3429982283       -0.1157805904
 C          0.8136421793       -2.4672638492       -0.5522803890
 C          2.2861897327       -0.9951558882       -0.1576987616
 C          3.4306607226       -0.2017494427        0.0793649778
 C          2.0251979452        1.6206227755        0.3240909027
 H         -1.1980248276        0.0197327788        1.3922531913
 H         -1.7426196428       -2.1219986697       -0.6877449141
 H         -3.3297954055        1.0274629140        1.0800108414
 H         -3.5038735174        0.5916777170       -1.7001919089
 H         -1.6541878942        2.3226090837       -1.8875292853
 H         -3.0608255447        2.8052764978       -0.9003286801
 H         -3.1463712932       -1.9641006653        1.5688822029
 H         -5.0606215364       -0.1959133353        0.3192713175
 H          0.3220450171       -3.3948543758       -0.7663386610
 H         -0.5779429687        1.8887771118        0.1256462593
 H          4.8055167017       -1.6763238027       -0.0990745936
 H          5.4438137050       -0.0795311191        0.2537940802
 H          1.0195552063        3.3549996709        0.6384360554
 H          2.7627270248        3.4473021083        0.7789337221
