34
2_6_diaminopurine_ribose  charge=0 mult=1  seed=1_b3lyp_pcm
O     -1.66868700     0.18423000    -1.23041500
O     -2.41823100    -2.01970800     1.49542100
O     -4.35924200    -0.70069400     0.08560200
O     -1.02251600     2.81108600    -0.77141700
N      0.06219200    -1.20368500    -0.45051400
N      1.95648100    -2.41623100    -0.47486600
N      1.02565400     0.99175700     0.08277900
N      3.41602200     0.88457000     0.36442900
N      4.63731200    -1.05804200     0.09496300
N      2.26343700     2.85050400     0.66638300
C     -2.05981800    -0.80723300     0.88242400
C     -1.37376400    -0.98199500    -0.49174500
C     -3.25809700     0.09482900     0.52186500
C     -2.65974300     0.99720000    -0.55081600
C     -2.02063200     2.25803600     0.05947400
C      1.08472600    -0.32508200    -0.15339300
C      0.66275700    -2.43645600    -0.63530300
C      2.24145400    -1.09731600    -0.17100800
C      3.45032300    -0.42612000     0.09980300
C      2.23150400     1.52289100     0.34734700
H     -1.38789000    -0.28434700     1.56109000
H     -1.78748000    -1.86345000    -0.98854000
H     -3.61382100     0.65580500     1.38353800
H     -3.39476600     1.28103500    -1.30371800
H     -2.80248200     3.00482100     0.19996300
H     -1.60223400     2.02798800     1.04419700
H     -3.27172300    -2.28564200     1.12471000
H     -4.29188800    -0.88312900    -0.85803000
H      0.07427600    -3.30411500    -0.88541500
H     -0.26141900     2.20179000    -0.68136200
H      4.68863400    -2.04832800    -0.06245200
H      5.47457500    -0.55488600     0.33063200
H      1.45155200     3.40478000     0.45248900
H      3.15413300     3.31372400     0.61526500
