43
UNCONVERGED state-matched split-site hydration start
N   3.505930000  0.358365000  0.839253000
N   3.899002000 -0.718505000 -1.247152000
N   5.613159000 -0.675248000  0.409813000
N   1.896208000  0.306500000 -0.833385000
N   5.196420000  0.406853000  2.391987000
N   5.927129000 -1.735760000 -1.603379000
C   3.141931000 -0.030197000 -0.383536000
C   4.759476000  0.012628000  1.178233000
C   5.124753000 -1.016655000 -0.791491000
H   1.639145000 -0.112979000 -1.713510000
H   4.550428000  0.824969000  3.036990000
H   6.080935000  0.073626000  2.730864000
H   5.640088000 -1.916591000 -2.548376000
H   6.885929000 -1.884523000 -1.345121000
P  -4.663157000 -0.869472000  0.032096000
O   0.088747000 -0.136290000  0.616463000
O  -2.581424000  1.789567000 -0.867583000
O  -0.365223000  3.009549000 -0.181682000
O  -3.467858000 -0.727900000  1.078456000
O  -4.941055000  0.598761000 -0.485897000
O  -5.930649000 -1.184999000  0.933461000
O  -4.458309000 -1.906416000 -0.992809000
C  -1.435588000  0.962820000 -0.743085000
C  -1.285956000  0.231603000  0.601590000
C  -0.125120000  1.762050000 -0.825787000
C   0.879392000  0.894482000 -0.030009000
C  -2.092776000 -1.045541000  0.784160000
H  -1.473459000  0.232763000 -1.551014000
H  -1.521131000  0.921139000  1.421308000
H   0.201595000  1.920600000 -1.850957000
H   1.356783000  1.497972000  0.736986000
H  -2.034079000 -1.682765000 -0.096913000
H  -1.712779000 -1.592856000  1.643598000
H  -2.356433000  2.655562000 -0.493961000
H   0.196209000  3.689620000 -0.565039000
H  -5.906446427  0.803667182 -0.583337921
H  -6.207970000 -0.466485000  1.515108000
O  -7.610027162  1.165255462 -0.755287319
H  -8.026120126  2.029375138 -0.797285290
H  -8.338212028  0.544010950 -0.828786007
O   1.838679605  0.426661755  3.087721740
H   2.410308312  0.403245725  2.316818172
H   2.442247899  0.449326955  3.833906438
