  15
        -27.80982944
 O         -0.4540808228        2.5586793546        0.0000107152
 O         -2.0992793075       -1.6678039350        0.0000447515
 N          1.0130743955        0.8299892298       -0.0000005931
 N         -1.2559626311        0.4309007805       -0.0000234860
 C          1.2824111339       -0.5109962817       -0.0000356888
 C          0.2604363376       -1.3991663029       -0.0000028769
 C         -0.2486839760        1.3561856589        0.0000342091
 C         -1.1049163356       -0.9517264782       -0.0000810617
 C          2.7186978761       -0.8903380894        0.0000113779
 H          1.7779832623        1.4954155321        0.0000035161
 H          0.4302075352       -2.4607974117        0.0002732068
 H          3.2121902685       -0.4833203129       -0.8799624935
 H          3.2119810568       -0.4838606832        0.8803709830
 H          2.8266304303       -1.9690761647       -0.0003247611
 H         -2.2047321005        0.7901792208       -0.0000240088
