  15
        -27.80982944
 O         -0.4540808228        2.5586793546        0.0000107152
 O         -2.0992793075       -1.6678039350        0.0000447515
 N          1.0130743955        0.8299892298       -0.0000005931
 N         -1.2559626311        0.4309007805       -0.0000234860
 C          1.2824111339       -0.5109962817       -0.0000356888
 C          0.2604363376       -1.3991663029       -0.0000028769
 C         -0.2486839760        1.3561856589        0.0000342091
 C         -1.1049163356       -0.9517264782       -0.0000810617
 C          2.7186978761       -0.8903380894        0.0000113779
 H          1.7779832623        1.4954155321        0.0000035161
 H          0.4302075352       -2.4607974117        0.0002732068
 H          3.2121902685       -0.4833203129       -0.8799624935
 H          3.2119810568       -0.4838606832        0.8803709830
 H          2.8266304303       -1.9690761647       -0.0003247611
 H         -2.2047321005        0.7901792208       -0.0000240088
  15
        -27.80887596
 O         -0.4582850095        2.5611327916       -0.0003729029
 O         -2.0951045328       -1.6691803163       -0.0002329267
 N          1.0127126968        0.8357640929        0.0005827446
 N         -1.2567087017        0.4320890094        0.0000241473
 C          1.2852837681       -0.5019812046        0.0011492095
 C          0.2632158140       -1.3930121241        0.0006235744
 C         -0.2522654516        1.3586805176        0.0003984867
 C         -1.1016923582       -0.9512122185       -0.0001065369
 C          2.7163772892       -0.9078126058       -0.0010537478
 H          1.7722992206        1.5074844810       -0.0004484417
 H          0.4404463066       -2.4536626768        0.0003687003
 H          2.9164214394       -1.5619262131        0.8437969439
 H          2.9381671587       -1.4678622066       -0.9065082723
 H          3.3738109596       -0.0463907370        0.0520055497
 H         -2.2064626328        0.7886521865       -0.0000785371
