15
6_methyluracil  charge=0 mult=1  seed=1_b3lyp_pcm
O     -0.98882000     2.46044700    -0.00000000
O     -1.83722400    -2.01699100    -0.00000000
N      0.77395900     1.00937600     0.00000000
N     -1.38831200     0.20966200     0.00000000
C      1.28326000    -0.26852700    -0.00000000
C      0.43926800    -1.32663100    -0.00000000
C     -0.56959400     1.31426200     0.00000000
C     -0.98876700    -1.13116800     0.00000000
C      2.77197800    -0.37858900     0.00000000
H      1.39894200     1.80137000    -0.00000000
H      0.81453900    -2.33631400    -0.00000000
H      3.19035300     0.11256500     0.88006900
H      3.08011900    -1.41944300     0.00000000
H      3.19035300     0.11256400    -0.88006900
H     -2.38236000     0.39225700     0.00000000
