30
unoptimized sampling seed; angstrom
O 0.334944 1.531762 1.184111
O 4.847803 0.592703 0.127476
O 1.521597 -1.974547 -1.497967
N 0.861024 -0.282284 -0.086997
N 3.139827 -0.667784 -0.641219
C 2.650326 1.146795 0.893640
C 1.188581 0.836668 0.679961
C 3.657753 0.360443 0.108298
C 1.815307 -1.038514 -0.787925
H 2.860485 0.995159 1.955083
H 2.804424 2.208353 0.704582
H 3.793019 -1.230739 -1.170530
O -1.210296 0.349102 -1.034773
O -3.252449 -1.830807 -0.136249
O -1.213421 -2.175659 1.534264
O -2.386231 2.883402 -0.981188
C -2.802252 -0.614381 0.458828
C -2.579907 0.490849 -0.578600
C -1.382683 -0.891431 0.984066
C -0.546428 -0.656544 -0.289725
C -2.785086 1.898835 -0.034162
H -3.478869 -0.305898 1.255165
H -3.225650 0.334699 -1.443403
H -1.127884 -0.168092 1.750185
H -0.509241 -1.582082 -0.858043
H -3.846155 2.057515 0.156220
H -2.239099 2.028750 0.902910
H -4.213097 -1.836262 -0.179751
H -1.793644 -2.774806 1.044096
H -1.459478 2.719903 -1.190677
