  37
        -74.42920339
 P          0.5137594033        2.5268275455       -0.0012969442
 O          1.7109260714        0.0570151315        0.7729028481
 O          2.5439239862       -2.9984005136        1.1649411516
 O          3.3939009289       -2.1986993607       -1.1706051228
 O          1.6580701116        2.0819930009       -1.0454173502
 O          0.3751651808        4.0643663048       -0.3640811580
 O          1.1191666713        2.6121568477        1.4395397945
 O         -0.7226162863        1.7393498543       -0.1123313599
 N         -0.3781183646       -0.9455911377        1.1923314316
 N         -2.4231555491       -0.3429237574        1.8806158717
 N         -0.9003779463       -1.3852797963       -1.1573056386
 N         -3.1917764313       -0.9748553660       -1.6786849619
 N         -4.7665547467       -0.3076487627       -0.1320810896
 C          1.5702451065       -2.2978931621        0.4517375921
 C          2.1427489073       -1.6629277764       -0.8458873902
 C          1.0530236899       -1.0881363126        1.2589958454
 C          2.3041854153       -0.1724633636       -0.4976667445
 C          1.6498166184        0.7518994401       -1.5232203359
 C         -1.1942904953       -1.0223703108        0.0972773334
 C         -1.1818003250       -0.5070125436        2.2115982585
 C         -2.4718572792       -0.6536535364        0.5426515578
 C         -3.5038460290       -0.6306120924       -0.4159236967
 C         -1.9506544716       -1.3203324315       -1.9596505726
 H          0.7406226018       -2.9779521516        0.2328994325
 H          1.4146340008       -1.7736737539       -1.6524686255
 H          1.3150459550       -1.1931688490        2.3195287477
 H          3.3688004681        0.0772678084       -0.4052155156
 H          0.6154455861        0.4309862278       -1.6828564135
 H          2.2061995862        0.7525249008       -2.4607056271
 H          3.4029879885       -2.8587582525        0.7187646230
 H          3.2913437600       -2.9771050782       -1.7378546760
 H         -0.7936868233       -0.3364700801        3.1957520185
 H         -1.7624718017       -1.5900496886       -2.9907519641
 H         -4.9878799462        0.0123899222        0.7942175424
 H         -5.4337823440       -0.2547230765       -0.8824750714
 H         -0.1164522381        4.2660664805       -1.1665878483
 H          1.8589449653        3.2263560370        1.5317886655
