37
adenine_ribose_phosphate  charge=0 mult=1  seed=1_b3lyp_pcm
P      3.49902900    -1.51637200    -0.14011200
O      0.35858800     1.36717500    -1.09291100
O     -1.43330600     3.52731800     1.14881100
O      1.02834300     4.20056800     0.18850800
O      2.62597900    -0.26158100    -0.55397700
O      3.78859100    -2.05919200    -1.60602100
O      2.51991800    -2.55728100     0.56782100
O      4.66400500    -1.26887400     0.72238700
N     -1.89450400     0.86993800    -0.65748500
N     -3.73188700    -0.19735700    -1.39529400
N     -1.18424300    -0.73871000     1.05337500
N     -2.66795200    -2.62208000     1.19373000
N     -4.54025800    -2.88105700    -0.14854600
C     -0.58276600     2.46944900     0.78549800
C      0.90095300     2.86664300     0.67491900
C     -0.87272700     1.89311400    -0.61642400
C      1.46577900     1.80981800    -0.27962000
C      2.09839400     0.63772100     0.44737600
C     -1.99181400    -0.29187200     0.08487600
C     -2.96528700     0.85137000    -1.52564700
C     -3.13488800    -0.93098300    -0.38695400
C     -3.46710400    -2.15834900     0.21662300
C     -1.59770300    -1.90337300     1.54830900
H     -0.69499100     1.68200600     1.52721700
H      1.38936800     2.85761200     1.64619900
H     -1.22434800     2.68835400    -1.27761900
H      2.20980500     2.25135200    -0.94457000
H      1.35988200     0.10902400     1.04966400
H      2.91397100     0.99255100     1.07707000
H     -1.05220300     4.34001500     0.78711500
H      0.99773400     4.21860700    -0.77458600
H     -3.11755200     1.65474400    -2.22839500
H     -0.99186500    -2.32666200     2.34078500
H     -5.17250400    -2.54404400    -0.85201900
H     -4.75371400    -3.73738800     0.33205300
H      4.50833600    -2.70114800    -1.64448900
H      1.74058100    -2.80087700     0.05212600
