31
calc_217379cfb9bb4243; angstrom; atom order from source job; valid
N 3.207513 -0.411093 0.148060
N 5.061425 -1.623489 0.021532
C 3.047189 -1.267507 -0.922959
C 4.436714 -0.674390 0.677921
C 4.195968 -2.001812 -0.983691
H 2.156024 -1.285170 -1.522741
H 4.812285 -0.138147 1.533814
H 4.447703 -2.776786 -1.687536
P -3.735300 -0.462004 -0.079249
O 1.124207 -0.090249 1.173846
O -0.443588 2.295220 -1.017859
O 1.836601 2.883741 0.212133
O -2.340779 0.241399 0.189590
O -4.048975 -1.093813 1.342388
O -3.448622 -1.758222 -0.963006
O -4.710726 0.479296 -0.644926
C 0.316458 1.172119 -0.621149
C -0.062506 0.572404 0.739364
C 1.772553 1.599702 -0.386385
C 2.277919 0.574274 0.651574
C -1.177192 -0.454609 0.697471
H 0.282294 0.392093 -1.387299
H -0.330132 1.379523 1.428335
H 2.368281 1.573311 -1.299431
H 2.791371 1.108946 1.449606
H -1.390483 -0.844484 1.690665
H -0.920400 -1.275064 0.028450
H -1.379162 2.063835 -0.997343
H 1.119878 3.413017 -0.162423
H -4.861632 -1.612570 1.389864
H -3.536655 -1.606441 -1.912582
