31
calc_217379cfb9bb4243; angstrom; first printed source-job orientation; unoptimized start
N 3.207579 -0.411107 0.148107
N 5.061648 -1.623241 0.021459
C 3.047242 -1.267644 -0.922813
C 4.436885 -0.674173 0.677839
C 4.196119 -2.001787 -0.983618
H 2.156001 -1.285476 -1.522480
H 4.812480 -0.137799 1.533638
H 4.447879 -2.776797 -1.687415
P -3.735369 -0.461961 -0.079263
O 1.124188 -0.090430 1.173758
O -0.443624 2.295291 -1.017643
O 1.836691 2.883694 0.212088
O -2.340795 0.241368 0.189502
O -4.049029 -1.093711 1.342399
O -3.448802 -1.758224 -0.963006
O -4.710752 0.479378 -0.644951
C 0.316418 1.172127 -0.621104
C -0.062524 0.572264 0.739350
C 1.772545 1.599635 -0.386381
C 2.277893 0.574195 0.651595
C -1.177230 -0.454726 0.697338
H 0.282185 0.392186 -1.387338
H -0.330168 1.379299 1.428413
H 2.368257 1.573167 -1.299434
H 2.791273 1.108868 1.449675
H -1.390563 -0.844669 1.690499
H -0.920461 -1.275143 0.028260
H -1.379194 2.063870 -0.997216
H 1.119930 3.412972 -0.162396
H -4.861715 -1.612416 1.389933
H -3.537077 -1.606480 -1.912569
