32
DFT refinement start; not an optimized result
O -1.339858 -0.551775 1.310203
O -2.786987 1.895580 0.000174
O -3.488756 -0.155530 -1.542468
O -1.174788 -2.906349 -0.379890
O 0.821907 2.778361 0.815579
O 4.462237 0.429582 -0.494073
N 0.567268 0.545082 0.464469
N 2.622504 1.559050 0.170412
C -1.710512 1.083253 -0.376357
C -2.291833 -0.266382 -0.844756
C -0.846446 0.660177 0.834658
C -2.407621 -1.030608 0.489554
C -2.335261 -2.547099 0.338312
C 1.117207 -0.645038 0.077644
C 1.306656 1.698708 0.507430
C 2.416057 -0.774856 -0.263676
C 3.271154 0.395197 -0.220364
C 3.020984 -2.073651 -0.684914
H -1.095817 1.564842 -1.144473
H -1.582509 -0.783480 -1.497749
H -0.891469 1.420590 1.627159
H -3.360467 -0.772627 0.972193
H -2.319602 -2.992872 1.339833
H -3.238568 -2.862507 -0.195420
H -2.484294 2.794732 0.185354
H -4.016236 0.551551 -1.133837
H 0.435491 -1.483613 0.072089
H 3.184498 2.404881 0.206125
H -1.213509 -3.852497 -0.574939
H 3.488017 -1.961047 -1.661118
H 3.804254 -2.358417 0.014867
H 2.264463 -2.848550 -0.724113
