25
unoptimized sampling seed; angstrom
P 2.974149 0.012968 0.169457
O -1.218670 0.917505 0.759273
O -2.375553 -2.215241 -0.371093
O -3.850780 -0.413021 1.033210
O -2.287078 2.101892 -0.959669
O 1.462794 -0.213746 0.564102
O 3.012132 1.142023 -0.959782
O 3.292134 -1.297890 -0.671918
O 3.811540 0.285675 1.346540
C -2.085392 -0.842566 -0.586381
C -0.915720 -0.412852 0.314158
C -3.225607 0.090777 -0.133411
C -2.459603 1.357425 0.224576
C 0.413939 -0.465558 -0.401634
H -1.858729 -0.658266 -1.636922
H -0.877477 -1.066161 1.188373
H -3.955805 0.274344 -0.922669
H -2.947032 1.953216 0.995895
H 0.457896 0.287105 -1.187690
H 0.563095 -1.456126 -0.831235
H -2.801820 -2.578406 -1.154293
H -3.837324 -1.377682 0.968184
H -1.820811 2.917787 -0.748017
H 3.142110 2.031973 -0.609026
H 4.185809 -1.343231 -1.033615
