32
calc_c6137ff04773e906; angstrom; atom order from source job; valid
O -1.498685 0.056517 -1.347618
O -1.956684 -1.828218 1.688393
O -4.019420 -1.083820 0.121872
O -1.520915 2.507476 0.441079
N 0.354366 -1.022112 -0.408436
N 2.397846 -1.951509 -0.532362
N 1.020608 1.255079 0.237409
N 3.398637 1.478434 0.453691
N 4.880442 -0.262659 0.078424
C -1.798217 -0.685248 0.874815
C -1.096356 -0.975190 -0.466336
C -3.103599 -0.027590 0.416930
C -2.683862 0.738448 -0.843257
C -2.386791 2.216190 -0.648869
C 1.252508 -0.027741 -0.080096
C 1.111293 -2.139278 -0.670943
C 2.506568 -0.622765 -0.161437
C 3.618845 0.188857 0.125939
C 2.142637 1.927150 0.488197
H -1.217172 0.034410 1.444223
H -1.408327 -1.953065 -0.839247
H -3.519870 0.632206 1.176282
H -3.462483 0.649262 -1.602631
H -1.980001 2.610602 -1.585260
H -3.329235 2.729394 -0.453715
H -2.694620 -2.343497 1.335178
H -4.890155 -0.701711 -0.034910
H 0.641725 -3.065430 -0.959024
H -0.649658 2.071120 0.301802
H 2.020855 2.969878 0.752360
H 5.072976 -1.230761 -0.113444
H 5.640138 0.344337 0.337835
