  26
        -45.39085054
 N          1.5493956780        0.2252428469        0.2907953321
 N          3.3338173250       -1.0458113336        0.0293268107
 C          2.4280891145        0.9300503594       -0.4862886769
 C          2.1496030251       -0.9536592514        0.5727576905
 C          3.5201514561        0.1271970712       -0.6368517109
 H          2.1984393620        1.9098967511       -0.8488516470
 H          1.6892196177       -1.7053906310        1.1794656437
 H          4.4259086013        0.3135187145       -1.1769365796
 O         -0.4557486747       -0.3194180337        1.3759580728
 O         -2.7910278882        1.3452361468        0.4021962650
 O         -0.7048605692        2.5151210090       -0.6533741030
 O         -2.2557465052       -2.4299469313       -1.0560348512
 C         -1.9641506716        0.4342696037       -0.2759746298
 C         -1.5575765764       -0.7667821451        0.5903065243
 C         -0.6088712159        1.1358165873       -0.5200250436
 C          0.2436153966        0.6906512470        0.7067900776
 C         -1.1782119037       -1.9843273763       -0.2749458396
 H         -2.4154331741        0.1012254132       -1.2152410479
 H         -2.3423915592       -1.0367642601        1.3027799850
 H         -0.1424332448        0.7541458362       -1.4342056751
 H          0.3805022034        1.5367839973        1.3968568134
 H         -0.3869671712       -1.7021380349       -0.9745685736
 H         -0.7920994252       -2.7756288132        0.3762591221
 H         -3.7152619600        1.0673819746        0.3510907843
 H         -1.4709609363        2.8164346953       -0.1318589324
 H         -2.8927449348       -2.9027707278       -0.5009606927
