26
imidazole_ribose  charge=0 mult=1  seed=1_b3lyp_pcm
N     -1.74854600    -0.03965500    -0.20725800
N     -3.93303800    -0.42274100    -0.15036200
C     -2.02916100    -0.53738900     1.04851400
C     -2.93099200     0.00488500    -0.88366900
C     -3.37521000    -0.76600200     1.06309000
H     -1.26865500    -0.69395000     1.79115500
H     -2.99158000     0.35945500    -1.89934300
H     -3.96981000    -1.15851700     1.87046200
O      0.41822900    -0.74106200    -0.74044200
O      2.55114900     1.59834800     0.90104500
O      0.71145700     2.46442300    -0.84889800
O      2.77981200    -2.46273000    -0.65290200
C      1.41456300     0.76580300     0.74559500
C      1.70835200    -0.36743800    -0.23933800
C      0.23457500     1.49591400     0.06933300
C     -0.46408600     0.37716100    -0.73138300
C      2.39084500    -1.56134700     0.38163100
H      1.10039400     0.35758400     1.70744400
H      2.32773400     0.01942400    -1.05542000
H     -0.44362400     1.95433800     0.79029100
H     -0.64268300     0.72962000    -1.74724100
H      3.26561600    -1.20527400     0.93369400
H      1.70756100    -2.04593200     1.08496400
H      2.54493400     1.99264100     1.77913300
H      1.54356800     2.80555700    -0.49108100
H      3.21913200    -3.21952900    -0.25377000
