37
calc_26a7190cf8b2597f; angstrom; atom order from source job; valid
N -2.930550 -0.693966 0.346276
N -2.422497 1.560455 -0.250999
N -4.694291 0.850178 -0.096083
N -0.752599 0.051003 0.187778
N -5.133704 -1.330935 0.475307
N -4.155138 2.996060 -0.716979
C -2.074883 0.307997 0.094887
C -4.225159 -0.357299 0.242179
C -3.740917 1.764790 -0.335983
H -0.096437 0.808422 0.015758
H -4.825586 -2.202175 0.868431
H -6.105463 -1.086186 0.541859
H -3.485488 3.744236 -0.745923
H -5.128836 3.226939 -0.629688
P 2.819055 1.751263 -0.002497
O 1.081246 -0.935178 1.198761
O 2.101569 -3.116524 -1.492986
O -0.065939 -3.577871 0.018923
O 3.309553 0.299318 -0.377714
O 3.818379 2.584939 -0.917509
O 3.224330 2.019118 1.513194
O 1.392436 2.056562 -0.210199
C 1.490210 -2.020523 -0.851825
C 2.103786 -1.664017 0.512342
C 0.020800 -2.245228 -0.477933
C -0.207548 -1.207393 0.640972
C 3.381429 -0.856381 0.487679
H 1.568335 -1.167151 -1.522807
H 2.330908 -2.589324 1.054484
H -0.662806 -2.093539 -1.310664
H -0.859156 -1.629568 1.404646
H 3.646996 -0.542971 1.495448
H 4.186537 -1.466664 0.085500
H 1.721945 -3.918390 -1.108771
H -0.983099 -3.867192 0.006914
H 3.475964 3.454617 -1.159132
H 4.172904 2.055826 1.690623
