37
calc_420b11f0851f386d; angstrom; atom order from source job; valid
P -4.458577 -0.339339 0.329315
O 0.094375 -0.515788 0.521950
O 0.612361 2.639303 -1.102355
O -1.820893 2.201501 -0.314137
O -3.376674 -1.107933 -0.526042
O 1.871432 -1.145241 -1.820856
O 6.121227 -1.157375 -0.230754
O -4.476391 -1.165435 1.687871
O -5.801019 -0.635502 -0.451363
O -4.267981 1.116306 0.490707
N 2.303086 0.120121 0.059147
N 3.980549 -1.101854 -0.981046
C 0.282899 1.272668 -1.011969
C -1.227179 1.005669 -0.788554
C -1.259081 -0.122047 0.273585
C 0.930143 0.583212 0.208159
C -2.014537 -1.384070 -0.122319
C 3.239757 0.505768 1.001700
C 2.651571 -0.738929 -0.977708
C 4.534418 0.135767 0.989104
C 4.980026 -0.738590 -0.081403
C 5.522645 0.580285 2.023107
H 0.613367 0.784792 -1.921639
H -1.704764 0.689551 -1.716884
H 0.946668 1.300472 1.032469
H -1.679905 0.296928 1.192256
H -2.025527 -2.097252 0.699524
H -1.552000 -1.844964 -0.990630
H -0.085865 3.132700 -0.648758
H -2.735947 1.998334 -0.043053
H 2.851663 1.151657 1.774975
H 4.252123 -1.719686 -1.734051
H 5.962888 -0.275963 2.535690
H 6.343339 1.134729 1.565984
H 5.047753 1.218758 2.765169
H -4.815898 -0.675910 2.447906
H -6.020158 -1.569032 -0.567751
