32
DFT refinement start; not an optimized result
N -2.091617 1.122095 -0.347420
N -1.756106 -1.193330 0.024422
N -3.959588 -0.311340 -0.042721
N 0.015863 0.239679 -0.353760
N -4.233517 1.934441 -0.384529
N -3.583439 -2.535679 0.337687
C -1.317910 0.045759 -0.199272
C -3.407871 0.886408 -0.261978
C -3.089428 -1.314450 0.099159
H 0.318139 1.209000 -0.351502
H -5.222813 1.766051 -0.400398
H -3.845851 2.825532 -0.634151
H -2.949919 -3.309600 0.414155
H -4.578862 -2.657673 0.366895
O 1.626764 -0.327689 1.289603
O 4.438667 -0.098773 -0.730388
O 2.756530 -2.148520 -0.784150
O 1.649404 2.530517 0.351857
C 3.098800 0.235750 -0.516005
C 2.764921 0.477733 0.978777
C 2.126430 -0.901114 -0.912346
C 0.979944 -0.722176 0.093750
C 2.528481 1.957776 1.298118
H 2.879375 1.141218 -1.089036
H 3.585914 0.125986 1.613675
H 1.786969 -0.823221 -1.944757
H 0.438053 -1.651140 0.292740
H 3.499965 2.465156 1.270155
H 2.106298 2.022457 2.307487
H 4.487195 -1.064313 -0.864350
H 2.797910 -2.390726 0.153825
H 1.490429 3.455447 0.585867
