32
DFT refinement start; not an optimized result
N -1.836010 -0.890269 0.135449
N -2.006853 1.358773 -0.590766
N -3.970280 0.131665 -0.065834
N 0.028321 0.336922 -0.462591
N -3.750709 -2.027677 0.662046
N -4.081743 2.316417 -0.740933
C -1.310450 0.262184 -0.279860
C -3.172721 -0.899400 0.226588
C -3.334568 1.237793 -0.465427
H 0.401307 1.258945 -0.652966
H -4.752456 -2.087639 0.655700
H -3.175395 -2.837999 0.800770
H -3.630863 3.122219 -1.133764
H -5.080505 2.218442 -0.744374
O 1.438024 -0.209017 1.350914
O 3.920368 -1.730683 0.567251
O 2.243411 -2.050293 -1.447445
O 2.356564 2.112589 -0.373369
C 3.383105 -0.522485 0.096228
C 2.753443 0.316062 1.214456
C 2.183263 -0.791903 -0.845343
C 0.947490 -0.615032 0.078661
C 2.787852 1.825527 0.940363
H 4.194202 -0.004497 -0.415231
H 3.250355 0.142406 2.173887
H 2.139214 -0.035299 -1.634100
H 0.395646 -1.549783 0.214586
H 3.819087 2.165040 1.088425
H 2.134857 2.313799 1.674726
H 3.322135 -2.110519 1.229089
H 2.935174 -2.566002 -0.989459
H 2.504208 3.052215 -0.552887
