43
calc_a821ef954e5ab9d9; angstrom; atom order from source job; valid
N 3.682323 -0.313716 -1.186261
N 4.143871 0.774395 0.877179
N 5.750952 0.837917 -0.878003
N 2.177328 -0.366029 0.580667
N 5.266266 -0.241516 -2.843456
N 6.134453 1.899774 1.119609
C 3.367819 0.042615 0.057736
C 4.890114 0.107433 -1.599455
C 5.323632 1.145561 0.352381
H 1.947631 0.018954 1.488685
H 4.631648 -0.745904 -3.435406
H 6.136047 0.092951 -3.216627
H 5.902806 2.070151 2.081451
H 7.059258 2.115801 0.793507
P -4.495442 0.245385 0.160629
O 0.249621 -0.078549 -0.744316
O -2.143262 -2.228830 0.897548
O 0.114979 -3.252250 0.049378
O -3.363740 0.237643 -0.973810
O -4.634703 -1.262340 0.620378
O -5.836531 0.415206 -0.640421
O -4.233703 1.230313 1.231340
C -1.082494 -1.307033 0.705581
C -1.087524 -0.557400 -0.637633
C 0.293133 -1.992916 0.690887
C 1.164804 -1.039515 -0.161244
C -2.004746 0.652520 -0.750760
H -1.126256 -0.587806 1.522915
H -1.322076 -1.259187 -1.447033
H 0.700822 -2.130210 1.689867
H 1.640509 -1.598164 -0.962376
H -1.942816 1.280002 0.137155
H -1.714610 1.239122 -1.619804
H -1.868723 -3.071111 0.503625
H 0.769271 -3.879011 0.371517
H -3.758765 -1.701809 0.751054
H -6.120403 1.353306 -0.800934
O -6.740934 2.866631 -1.161691
H -6.987050 3.385330 -0.387717
H -6.147171 3.428803 -1.671674
O 2.675569 1.152695 3.259913
H 3.317833 1.169401 2.516305
H 2.340535 2.051102 3.336394
