37
calc_5ee54d8eac1aceed; angstrom; atom order from source job; valid
P -1.063255 2.078982 -0.584789
O 1.839149 -0.389808 1.472607
O 3.299063 -1.742381 -1.442612
O 4.495856 0.004911 0.124149
O 0.384876 1.457812 -0.346172
O -0.729925 3.638479 -0.535999
O -1.924930 1.866457 0.716780
O -1.643755 1.563327 -1.835383
O -3.472721 -0.278403 0.985092
N 0.364177 -1.753846 0.217986
N -1.358974 -2.365488 -1.061833
N -0.783933 -0.839098 2.145092
N -4.132081 -1.805775 -0.556258
C 2.461421 -0.824691 -0.788547
C 3.193829 0.427455 -0.270509
C 1.773562 -1.394763 0.488332
C 2.362182 0.850283 0.942721
C 1.269836 1.881341 0.711367
C -0.764164 -1.340334 0.881796
C -0.066689 -2.380442 -0.941728
C -1.829370 -1.680744 0.050309
C -3.187932 -1.220544 0.198416
H 1.693243 -0.515898 -1.492311
H 3.252160 1.203138 -1.031758
H 2.294627 -2.281081 0.849957
H 3.017585 1.261757 1.710111
H 1.726604 2.831265 0.434011
H 0.705054 2.020588 1.632617
H 4.178289 -1.657720 -1.046538
H 5.111011 0.741548 0.063274
H 0.631129 -2.808854 -1.641138
H -1.653645 -0.409117 2.415077
H 0.058726 -0.405166 2.482630
H -1.503478 4.215184 -0.535995
H -2.500142 1.045366 0.767762
H -3.880956 -2.520400 -1.218187
H -5.062664 -1.424423 -0.573222
