37
calc_5ee54d8eac1aceed; angstrom; first printed source-job orientation; unoptimized start
P 1.133988 -1.760743 -0.547358
O -1.967944 0.306094 1.503810
O -3.401752 1.641934 -1.360865
O -4.531289 -0.260465 0.029310
O -0.365611 -1.247056 -0.375026
O 0.886696 -3.311580 -0.797210
O 1.801151 -1.726290 0.876469
O 1.832275 -1.050657 -1.626452
O 3.461558 0.210169 1.012835
N -0.450392 1.608771 0.243242
N 1.274387 2.223916 -1.016612
N 0.682407 0.691359 2.154951
N 3.998769 1.716444 -0.590209
C -2.526642 0.737667 -0.774648
C -3.201937 -0.567148 -0.294652
C -1.840620 1.286559 0.513567
C -2.371035 -0.940306 0.944564
C -1.181819 -1.854078 0.628193
C 0.668069 1.161259 0.889163
C -0.010983 2.238995 -0.898937
C 1.744819 1.528385 0.077506
C 3.112424 1.105749 0.198284
H -1.749909 0.497252 -1.507521
H -3.139407 -1.338765 -1.066087
H -2.350512 2.196361 0.862415
H -2.982654 -1.423956 1.711471
H -1.537447 -2.818588 0.259181
H -0.581647 -2.014778 1.526869
H -4.281553 1.517773 -0.959123
H -5.061425 -1.065878 0.103410
H -0.688350 2.697156 -1.589982
H 1.547154 0.266574 2.450498
H -0.183530 0.326878 2.521760
H 1.659122 -3.794475 -1.108734
H 2.514646 -1.009742 0.972820
H 3.639759 2.338177 -1.296298
H 4.938326 1.359118 -0.645834
