  32
        -58.88644252
 O         -1.9788364207        1.8637034908       -0.7148724267
 O          0.1023678171       -2.0042597174        0.5329174658
 N         -3.2584950786        0.0955665143       -0.1152178731
 N         -0.9211108065       -0.0619812547       -0.0959631290
 C         -2.0504615515        0.7067871298       -0.3346727591
 C         -3.3432039396       -1.1923187088        0.2946955472
 C         -4.4788337035        0.8513609188       -0.3362236828
 C         -2.2500925384       -1.9453544545        0.5185740607
 C         -0.9395696321       -1.3894996535        0.3323193471
 H         -4.3434027746       -1.5753784453        0.4303445764
 H         -5.0721516707        0.3749452962       -1.1143080283
 H         -5.0517619241        0.9030422585        0.5874577087
 H         -4.2043548677        1.8552966995       -0.6510498771
 H         -2.3092441277       -2.9679396306        0.8450532645
 O          1.1055871972       -0.1659106237       -1.2660152945
 O          2.9075210226        2.1699888455        0.0232522952
 O          0.9040607304        1.8353224855        1.7022948941
 O          2.9335886365       -2.0349104795        0.3662164937
 C          2.6456666062        0.8145341151        0.2884303406
 C          2.5059575518       -0.0285677830       -0.9937355966
 C          1.2404762714        0.7383247090        0.9187125534
 C          0.3589850178        0.5811979359       -0.3419136549
 C          3.1572547145       -1.4160647036       -0.8740366275
 H          3.3964362762        0.3816248287        0.9552923234
 H          2.9479981543        0.5021872189       -1.8463047392
 H          1.1517731602       -0.1534315930        1.5438632907
 H          0.1288208284        1.5785877950       -0.7477019295
 H          4.2405796722       -1.3131186233       -0.9650114202
 H          2.7812413585       -2.0349216529       -1.6973429819
 H          3.8533754117        2.3084401712       -0.1213391038
 H          1.3330149545        2.6218310781        1.3193934241
 H          1.9782245352       -2.1961219668        0.4670617972
