32
1_methyluracil_ribose  charge=0 mult=1  seed=1_b3lyp_pcm
O     -1.42932500     1.72489400     0.80681000
O     -0.66515200    -1.92978900    -1.86465400
N     -3.06228500     0.18262200     0.57119200
N     -0.94079600    -0.19537900    -0.38249000
C     -1.77370000     0.63959200     0.35980700
C     -3.52777900    -0.96250400    -0.00795200
C     -3.94271500     1.02878700     1.38462700
C     -2.76865300    -1.71642800    -0.82163000
C     -1.40885500    -1.34071200    -1.09491300
H     -4.55267500    -1.21368800     0.21918900
H     -3.49120200     1.20870200     2.35603600
H     -4.11256800     1.98274800     0.89118400
H     -4.88719100     0.51125300     1.51275400
H     -3.15782600    -2.60468900    -1.28997800
O      1.24323300    -0.92007400     0.05990400
O      3.08499100     1.29285100    -1.45387300
O      0.79267400     2.56903000    -0.67995000
O      3.10646800    -2.27769200     1.68034300
C      2.59554300     1.03964100    -0.14227600
C      2.62063400    -0.47445100     0.11456700
C      1.10526500     1.37375900    -0.00807300
C      0.48265500     0.09555900    -0.58609700
C      3.18829100    -0.87367400     1.46436200
H      3.18634200     1.59261600     0.59138700
H      3.18032300    -0.96653000    -0.68411600
H      0.86788600     1.44050800     1.05123000
H      0.65113200     0.06185400    -1.66355200
H      2.67198800    -0.33061400     2.26234200
H      4.24546500    -0.61337600     1.50164100
H      2.84094800     2.19611600    -1.68916900
H     -0.08681600     2.82511000    -0.37123500
H      2.17852500    -2.53188600     1.62820000
