37
calc_ebc0e00dd9859568; angstrom; atom order from source job; valid
N -2.303603 -1.867708 -0.925536
N -1.621670 -0.380328 0.805277
N -3.930475 -0.556759 0.222525
N -0.106809 -1.752012 -0.301462
N -4.516972 -1.919114 -1.528053
N -3.242833 0.805875 1.930601
C -1.384986 -1.318263 -0.126641
C -3.556119 -1.431983 -0.723333
C -2.929675 -0.067372 0.956473
H -0.016116 -2.481904 -0.990736
H -4.290370 -2.614099 -2.216044
H -5.475577 -1.662510 -1.376500
H -2.519370 1.263374 2.455342
H -4.185615 1.144629 2.001487
P 0.334556 2.701367 -0.289697
O 1.401515 -0.276687 0.817437
O 4.306840 -1.664903 -0.730987
O 3.022805 -2.661989 1.390649
O 1.864060 2.245904 -0.352607
O 0.464507 4.237644 0.094138
O -0.317075 2.074019 1.002180
O -0.401737 2.501641 -1.551157
C 2.924431 -1.414857 -0.628261
C 2.566110 -0.052026 0.009235
C 2.178398 -2.417203 0.276779
C 0.939657 -1.614545 0.692827
C 2.276999 1.029791 -1.012512
H 2.521007 -1.475638 -1.638837
H 3.374107 0.272317 0.668059
H 1.933642 -3.345801 -0.237819
H 0.567929 -1.904647 1.674529
H 3.179329 1.270495 -1.572548
H 1.502161 0.711659 -1.709070
H 4.605330 -1.980657 0.132783
H 2.770836 -3.486758 1.816891
H 0.853717 4.414695 0.959188
H -0.599039 1.118366 0.930635
