32
calc_f03eaac50aa0ee46; angstrom; atom order from source job; valid
O 1.350385 -0.483764 1.289081
O 2.247409 -2.133734 -1.380424
O 3.461049 0.225107 -1.536271
O 4.132633 1.787539 0.873637
N -0.690728 -1.109198 0.327939
N -2.840411 -1.583312 0.790723
N -0.992303 1.129011 -0.623714
N -3.299434 1.796031 -0.652959
N -5.028559 0.463782 0.128524
C 1.441169 -1.013279 -1.047278
C 0.740911 -1.314044 0.300227
C 2.301814 0.215062 -0.722173
C 2.578127 0.032842 0.773374
C 2.934276 1.314895 1.498092
C -1.423975 -0.007710 -0.068416
C -1.606131 -2.006127 0.836638
C -2.747362 -0.325519 0.224213
C -3.715104 0.645163 -0.095321
C -1.992948 1.967969 -0.881392
H 0.719198 -0.817219 -1.839576
H 0.903594 -2.364677 0.541446
H 1.704512 1.115492 -0.874558
H 3.385257 -0.696837 0.904436
H 2.123557 2.039020 1.387563
H 3.095947 1.125687 2.561556
H 3.050349 -1.789972 -1.795703
H 4.083794 0.851187 -1.144094
H -1.285352 -2.960473 1.222442
H 4.343271 2.663515 1.209675
H -1.718417 2.913624 -1.333914
H -5.363724 -0.370148 0.576202
H -5.678414 1.199909 -0.085017
