29
DFT refinement start; not an optimized result
O -0.275059 1.833854 -0.472217
O -1.566697 -2.340170 0.850285
O -4.664063 0.767366 -0.262740
N -0.844380 -0.276190 0.189993
N -2.459825 1.308205 -0.353851
N -3.112802 -0.799213 0.286655
C -1.126419 1.010458 -0.225729
C -1.820808 -1.221826 0.472421
C -3.508932 0.451277 -0.122134
H -2.686238 2.251851 -0.659408
H -3.843043 -1.481335 0.477287
O 1.173864 0.217620 1.263623
O 3.320409 -1.765074 -0.091005
O 1.215194 -1.817575 -1.685773
O 2.566622 2.370944 -0.449773
C 2.804510 -0.483898 -0.350715
C 2.566126 0.334912 0.933678
C 1.382898 -0.672699 -0.919181
C 0.546029 -0.669390 0.381717
C 2.949363 1.815995 0.782214
H 3.433426 0.071729 -1.051241
H 3.131333 -0.097818 1.767969
H 1.105920 0.184253 -1.538059
H 0.513620 -1.686901 0.799926
H 4.036397 1.908966 0.825857
H 2.505612 2.366172 1.619560
H 4.283524 -1.732958 -0.014686
H 1.800800 -2.509985 -1.329626
H 1.596480 2.396110 -0.497120
