29
DFT refinement start; not an optimized result
O -1.670848 -0.207064 2.570993
O -0.253655 0.036076 -1.758391
O -4.597636 0.791727 -0.735540
N -0.895390 -0.118517 0.424954
N -3.136275 0.272158 0.925009
N -2.418920 0.413526 -1.254019
C -1.882223 -0.027359 1.395882
C -1.121718 0.109182 -0.921284
C -3.477515 0.516287 -0.383705
H -3.875953 0.337565 1.620160
H -2.606488 0.584943 -2.238957
O 1.248605 0.778326 0.576672
O 3.489027 -1.702137 -0.435447
O 1.596143 -2.488519 1.177357
O 3.014017 2.731682 -0.681922
C 2.296924 -0.998273 -0.633385
C 2.458963 0.430355 -0.093703
C 1.136779 -1.591413 0.213626
C 0.481245 -0.353579 0.870097
C 2.732072 1.455632 -1.195987
H 2.004088 -0.960673 -1.685240
H 3.281975 0.446611 0.634460
H 0.406448 -2.112905 -0.413604
H 0.415797 -0.505633 1.956163
H 1.862999 1.483172 -1.866411
H 3.617578 1.151214 -1.756479
H 3.554657 -2.438207 -1.060864
H 2.573415 -2.450919 1.183428
H 2.278343 3.005739 -0.116376
