29
DFT refinement start; not an optimized result
O -0.262963 1.502847 -0.832815
O -1.848756 -2.282268 1.165703
O -4.711753 0.927415 -0.243568
N -0.983553 -0.425461 0.154492
N -2.479517 1.215894 -0.546833
N -3.279130 -0.694792 0.447844
C -1.170583 0.814435 -0.432271
C -2.021641 -1.212628 0.633197
C -3.584068 0.517200 -0.123252
H -2.639438 2.123129 -0.978246
H -4.054564 -1.260263 0.785174
O 1.031511 0.031704 1.233609
O 3.529053 -0.488293 -1.238392
O 1.743085 -2.356501 -0.929166
O 3.909202 2.065634 0.422896
C 2.311834 0.019127 -0.773265
C 2.322240 0.346259 0.731172
C 1.219029 -1.062190 -0.893222
C 0.384143 -0.887540 0.394206
C 2.644858 1.815058 0.992643
H 2.008253 0.905921 -1.341061
H 3.069747 -0.291740 1.225297
H 0.593107 -0.894302 -1.780061
H 0.285450 -1.863168 0.889515
H 2.646589 1.996157 2.073087
H 1.863840 2.426296 0.523848
H 4.214337 0.182460 -1.097755
H 2.660364 -2.296180 -1.253631
H 4.150396 2.990744 0.570775
