15
calc_bdbb805e868e5608; angstrom; first printed source-job orientation; unoptimized start
O 0.083530 -2.611890 0.014590
O 2.924910 0.961220 -0.009330
N 0.691750 1.397350 -0.029040
N -2.154340 -0.575310 0.025180
N 1.499030 -0.809250 -0.009770
N -1.724400 1.617100 -0.006040
C -0.798420 -0.441080 0.001870
C -0.575090 0.902400 -0.015130
C 0.250370 -1.398780 0.002100
C 1.769080 0.546870 -0.016620
C -2.671740 0.697860 0.022340
H 0.831100 2.396970 -0.033800
H -2.674260 -1.443640 0.047940
H 2.296310 -1.425450 -0.001220
H -3.737350 0.886880 0.043860
