  12
        -29.02748178
 O          1.2114837153        2.3245244545       -0.0000460283
 O         -2.6189434703       -0.1132851961        0.0000027995
 O          1.4075290843       -2.2113806234       -0.0000635827
 N         -0.7165624830        1.1254894644        0.0000129747
 N          1.3328775073        0.0578165877        0.0000354638
 N         -0.6163570439       -1.1831837200        0.0000256211
 C          0.6530171479        1.2536115311        0.0000495141
 C         -1.4122784321       -0.0612419142       -0.0000682813
 C          0.7592079564       -1.1923518587        0.0000787181
 H         -1.2624479750        1.9823037583        0.0000018750
 H          2.3477699110        0.1024580177       -0.0000537455
 H         -1.0852030443       -2.0844294182        0.0000037889
