12
cyanuric_acid_Nlink  charge=0 mult=1  seed=1_b3lyp_pcm
O      2.37193700     1.14410900    -0.00000400
O     -2.17694200     1.48191900    -0.00000100
O     -0.19507900    -2.62619600    -0.00000100
N      0.09907500     1.33280600     0.00000200
N      1.10476200    -0.75206500     0.00000100
N     -1.20364400    -0.58067500     0.00000000
C      1.28110900     0.61790300     0.00000500
C     -1.17568900     0.80064800     0.00000000
C     -0.10551000    -1.41844500     0.00000100
H      0.17371000     2.33971200     0.00000000
H      1.93932500    -1.32036900    -0.00000100
H     -2.11317600    -1.01909400    -0.00000200
