25
calc_18ca89a079eafa81; angstrom; atom order from source job; valid
P 2.974153 0.012970 0.169456
O -1.218677 0.917509 0.759274
O -2.375539 -2.215243 -0.371100
O -3.850777 -0.413038 1.033212
O -2.287099 2.101894 -0.959662
O 1.462793 -0.213725 0.564100
O 3.012149 1.142011 -0.959796
O 3.292127 -1.297901 -0.671901
O 3.811542 0.285683 1.346539
C -2.085389 -0.842565 -0.586384
C -0.915719 -0.412846 0.314156
C -3.225610 0.090768 -0.133408
C -2.459615 1.357421 0.224581
C 0.413940 -0.465542 -0.401636
H -1.858729 -0.658259 -1.636924
H -0.877472 -1.066156 1.188369
H -3.955810 0.274332 -0.922665
H -2.947048 1.953205 0.995903
H 0.457893 0.287123 -1.187691
H 0.563101 -1.456108 -0.831240
H -2.801804 -2.578408 -1.154301
H -3.837315 -1.377699 0.968182
H -1.820838 2.917792 -0.748008
H 3.142132 2.031964 -0.609050
H 4.185805 -1.343260 -1.033588
