37
calc_553141f295b4c8a1; angstrom; atom order from source job; valid
P -3.415507 -1.102097 -0.007241
O -0.133946 1.449171 1.027673
O 1.727431 3.640213 -1.144440
O -0.580356 4.508602 0.143220
O -2.395063 0.039835 0.443033
O 4.228490 -3.105774 -0.237899
O -3.576474 -1.931519 1.336164
O -2.663162 -2.094061 -0.958130
O -0.327319 -3.138069 -0.339743
O -4.660303 -0.589232 -0.618862
N 2.057537 0.870367 0.476937
N 0.681917 -1.129924 0.049951
N 4.079714 -0.091720 0.343673
N 1.947559 -3.047140 -0.289295
C 0.776763 2.674225 -0.760536
C 1.096759 1.968510 0.568531
C -0.632589 3.232736 -0.483117
C -1.249414 2.139498 0.393452
C -2.082242 1.162841 -0.414745
C 1.852323 -0.444992 0.199195
C 3.431396 1.020441 0.551972
C 3.095417 -1.034236 0.120837
C 3.203280 -2.434746 -0.138703
C 0.707017 -2.470950 -0.200364
H 0.721937 1.933458 -1.557006
H 1.520023 2.681655 1.279898
H -1.187156 3.377137 -1.406764
H -1.854768 2.570520 1.189525
H -1.537853 0.800439 -1.286965
H -3.000236 1.651943 -0.735995
H 1.567717 4.437355 -0.619105
H -0.300284 4.423997 1.063704
H 3.869202 1.980078 0.767324
H -0.216093 -0.687738 0.203674
H 1.952423 -4.041678 -0.483214
H -4.035977 -1.464845 2.048974
H -1.780070 -2.455225 -0.651571
