37
calc_553141f295b4c8a1; angstrom; first printed source-job orientation; unoptimized start
P 1.994750 0.169800 2.789940
O -0.995390 -1.886040 0.272270
O -0.136200 -4.930130 -1.489190
O -1.357530 -4.838180 0.840380
O 0.664010 -0.679500 2.306450
O 0.156000 1.882890 -4.761820
O 1.225380 1.532150 3.243400
O 1.943770 0.838950 1.195400
O -0.382780 2.622400 -0.282760
O 2.040370 -0.429080 4.217050
N -0.481060 -1.743460 -2.048830
N -0.519380 0.475300 -0.991090
N -0.048840 -1.101610 -4.148360
N -0.180710 2.225260 -2.524430
C 0.112490 -3.772230 -0.694020
C -0.871680 -2.633050 -0.967950
C -0.158770 -4.041720 0.779240
C -0.368580 -2.638120 1.339340
C 0.944710 -1.961800 1.748660
C -0.389340 -0.385390 -2.044000
C -0.256030 -2.132170 -3.349940
C -0.143920 0.000050 -3.335680
C -0.037220 1.413870 -3.644730
C -0.368690 1.822690 -1.216180
H 1.148510 -3.451960 -0.851370
H -1.867940 -3.008710 -1.231680
H 0.635270 -4.610260 1.270930
H -1.066740 -2.626940 2.183180
H 1.604170 -1.823300 0.886290
H 1.460750 -2.566080 2.502230
H -0.778390 -5.473350 -0.979230
H -2.039200 -4.361310 1.349560
H -0.263450 -3.171360 -3.658850
H -0.689760 0.132280 -0.048400
H -0.092370 3.215470 -2.686380
H 0.720420 1.311080 4.051400
H 1.143850 1.409680 1.184890
