  32
        -58.51020291
 O         -1.7281772861        0.4876020438       -1.3374037524
 O         -1.2594251826       -2.4145763106        0.6050174806
 O         -3.6178512564       -1.6381820074       -0.2325438832
 O         -3.6934295764        2.1258072203        1.3187583679
 O          4.3551774812       -1.0091927216        0.6217008707
 N          0.4674301141        0.1238608758       -0.5991426664
 N          2.0859080685        1.6260787712       -0.3941967627
 N          1.6549896750       -1.9217712305       -0.1220446122
 N          4.7435257493        1.2145448803        0.3971304067
 C         -1.4362509173       -1.0406019445        0.4786712194
 C         -0.8335674293       -0.4631035273       -0.8353293824
 C         -2.9125025019       -0.6018469743        0.4007035429
 C         -2.8245659875        0.6771956060       -0.4445618326
 C         -2.6190788240        1.9235075726        0.4385001161
 C          1.5856454333       -0.5712288595       -0.2263326987
 C          0.8369575108        1.4416173306       -0.6812838827
 C          2.5936538345        0.3784473662       -0.0995624164
 C          3.9562667180        0.1297303735        0.3267324931
 H         -0.9428533195       -0.5673935509        1.3345721252
 H         -0.7099703124       -1.2662654084       -1.5783560685
 H         -3.3204454718       -0.3832979294        1.3923016598
 H         -3.7092726749        0.8036983092       -1.0761806048
 H         -1.7318285465        1.7859170747        1.0621554115
 H         -2.4530862406        2.7914431157       -0.2082759451
 H         -2.0103299724       -2.8580355718        0.1696848165
 H         -4.5695036212       -1.5272679956       -0.1065388718
 H          0.1471417214        2.2062264710       -0.9698733583
 H         -4.4559286750        2.4757616550        0.8354500874
 H          2.5286077381       -2.2272507876        0.2882003029
 H          0.8235993598       -2.4135245849        0.1768623857
 H          4.3532600744        2.1062194683        0.1446127776
 H          5.7016451250        1.1230134931        0.6872302017
