32
5_amino_4_imidazolecarboxamide_ribose  charge=0 mult=1  seed=1_b3lyp_pcm
O     -1.65857200     0.84734900    -0.49115600
O     -0.91654400    -2.46438500     0.65071300
O     -3.44799500    -2.09275200    -0.12489700
O     -3.91351600     2.60964300    -0.43118500
O      4.58942900    -0.97232600    -0.30269500
N      0.56351200     0.28275700    -0.14666600
N      2.20573600     1.69237100     0.35476300
N      1.76733300    -1.72280900    -0.73620900
N      4.99313100     1.15815000     0.38451600
C     -1.34860200    -1.12513600     0.70862300
C     -0.76642600    -0.23673200    -0.40643800
C     -2.87852600    -0.95533400     0.51233300
C     -2.99927700     0.34907000    -0.30409000
C     -3.82106900     1.43557200     0.36366200
C      1.72847900    -0.42639400    -0.29760900
C      0.91485600     1.55755000     0.25791500
C      2.74662500     0.46046100     0.01450900
C      4.16610800     0.15277200     0.01513000
H     -1.05085800    -0.70668600     1.67012200
H     -0.72026700    -0.79941700    -1.34689600
H     -3.37857700    -0.87762400     1.47520900
H     -3.42524600     0.12758900    -1.28875400
H     -4.83846600     1.07222700     0.50313800
H     -3.39760300     1.66119100     1.34707200
H     -1.62328800    -2.97298700     0.22401000
H     -3.43715600    -1.98754300    -1.08288300
H      0.17246000     2.31119800     0.44679800
H     -3.03245400     2.98805300    -0.52100100
H      2.70061600    -2.10792300    -0.67704800
H      1.04052800    -2.33348200    -0.38400600
H      4.62081000     2.05604900     0.64165600
H      5.98608800     1.00486900     0.40729200
