37
unoptimized sampling seed; angstrom
P -4.253386 -1.089787 0.207044
O -0.173642 0.492926 0.465584
O 1.731601 3.146015 -1.029618
O -0.785945 3.789205 -0.337877
O -2.901085 -0.305222 0.466328
O 3.231052 1.175916 2.068004
O 5.117264 -2.474631 0.136404
O -4.454922 -1.862706 1.579530
O -3.788681 -2.250545 -0.775503
O -5.394010 -0.281089 -0.255263
N 2.135492 0.228118 0.275547
N 4.132374 -0.649695 1.055785
C 0.854360 2.055020 -0.927637
C -0.639115 2.460180 -0.820252
C -1.240864 1.385802 0.116805
C 1.053954 1.196242 0.333525
C -2.369731 0.607667 -0.517409
C 2.101602 -0.785119 -0.662589
C 3.166384 0.319543 1.201959
C 3.048834 -1.734242 -0.785930
C 4.177668 -1.689688 0.128863
C 2.987927 -2.825779 -1.809470
H 0.990301 1.429467 -1.810239
H -1.106892 2.455266 -1.801776
H 1.256650 1.827633 1.198438
H -1.612129 1.867166 1.027680
H -2.010890 0.039863 -1.376214
H -3.152144 1.296418 -0.834994
H 1.263705 3.922738 -0.689409
H -0.790804 3.805705 0.625799
H 1.229685 -0.777401 -1.298127
H 4.898349 -0.596889 1.713645
H 3.857430 -2.793065 -2.467293
H 2.984855 -3.807518 -1.334008
H 2.091452 -2.735831 -2.419402
H -4.962790 -1.369104 2.235295
H -4.510241 -2.643314 -1.282275
