34
calc_e6e1aeea90cf3a13; angstrom; first printed source-job orientation; unoptimized start
O -1.974980 -0.724621 -1.210692
O -2.885480 -1.666060 1.649661
O -3.512745 0.865550 1.389117
O -1.912459 1.716289 -2.797700
N 0.107240 -1.370123 -0.327566
N 2.116885 -1.915958 -1.159311
N 0.756361 0.635224 0.911856
N 3.102700 1.112283 0.713182
N 4.576536 -0.185375 -0.485398
N 1.708929 2.468394 1.899306
C -1.832651 -0.893712 1.151292
C -1.326882 -1.446580 -0.193150
C -2.283199 0.548805 0.798737
C -2.441712 0.537011 -0.731697
C -1.676475 1.676017 -1.413623
C 0.986163 -0.417061 0.123754
C 0.861399 -2.224228 -1.097306
C 2.236749 -0.775123 -0.397974
C 3.330156 0.053066 -0.064397
C 1.861282 1.356737 1.154213
H -1.021091 -0.895787 1.885090
H -1.608859 -2.500251 -0.310002
H -1.489784 1.246889 1.077547
H -3.503659 0.608621 -0.996692
H -2.019144 2.633605 -1.018366
H -0.603369 1.562185 -1.202849
H -3.705890 -1.141406 1.571450
H -3.377323 1.195046 2.289537
H 0.420269 -3.068358 -1.588139
H -1.739300 0.838838 -3.168677
H 4.745484 -0.970830 -1.087134
H 5.310249 0.448817 -0.224209
H 0.838771 2.609274 2.378521
H 2.540634 2.941791 2.202475
