32
calc_33836914b1f80b7f; angstrom; first printed source-job orientation; unoptimized start
O 1.563542 -0.018056 -1.346071
O 2.318933 1.768611 1.665749
O 4.249714 0.788667 0.144660
O 1.434695 -2.359090 0.377676
O -4.644852 0.773370 0.086980
O -2.039355 -2.914341 0.456735
N -0.089431 1.280932 -0.366044
N -0.953965 -0.966963 0.073387
N -2.027747 2.387546 -0.377855
N -3.273048 -1.019472 0.251163
C 1.325306 1.053406 -0.470211
C 1.998634 0.675199 0.875340
C 3.215670 -0.132339 0.379983
C 2.696617 -0.782381 -0.918247
C 2.297496 -2.248534 -0.740758
C -1.064312 0.367964 -0.129423
C -0.743113 2.481719 -0.508365
C -2.273284 1.058851 -0.142206
C -3.502624 0.345656 0.063446
C -2.083884 -1.709705 0.272123
H 1.773733 1.982111 -0.855824
H 1.326037 0.034605 1.452648
H 3.508716 -0.887475 1.113313
H 3.453830 -0.714902 -1.707600
H 1.791600 -2.578919 -1.653867
H 3.201828 -2.844776 -0.585897
H -0.222454 3.397036 -0.699066
H 3.172847 2.126597 1.362733
H 5.102053 0.337250 0.080903
H -0.043013 -1.452607 0.116459
H 1.200297 -3.288294 0.516165
H -4.103623 -1.584722 0.400529
