34
calc_182828f777a313e5; angstrom; first printed source-job orientation; unoptimized start
P 4.433849 -0.833493 0.100364
O -0.377170 0.067335 -0.973375
O 0.940326 2.986052 0.101517
O -1.293076 2.485547 1.527823
O 3.200518 0.025865 -0.423940
O -3.887169 1.459269 -1.336110
O 5.561677 0.273843 0.247813
O 4.965995 -1.694935 -1.121152
O 4.153560 -1.680852 1.267737
O -5.831831 -2.271402 0.379108
N -2.550024 0.027785 -0.122243
N -4.811027 -0.417414 -0.448071
C 0.763803 1.618674 0.457536
C -0.679679 1.362660 0.951808
C 0.918138 0.637821 -0.722560
C -1.368934 0.852123 -0.325695
C 1.868515 -0.522602 -0.475752
C -3.758208 0.436198 -0.688499
C -2.455522 -1.158168 0.569143
C -3.501540 -1.976702 0.776646
C -4.801014 -1.623550 0.256237
H 1.489103 1.424794 1.243178
H -0.668483 0.570017 1.700292
H 1.251913 1.183787 -1.609839
H -1.690098 1.687882 -0.945952
H 1.796736 -1.235201 -1.296461
H 1.639299 -1.028624 0.460820
H 0.685066 3.139142 -0.814902
H -0.868479 3.269022 1.148885
H -1.468024 -1.401719 0.927868
H -5.696010 -0.128719 -0.842988
H -3.389196 -2.898409 1.322428
H 5.431668 0.887881 0.981534
H 5.130141 -1.204546 -1.936691
