37
calc_a79297b7e999a273; angstrom; atom order from source job; failed
P 3.245210 -1.310244 0.593460
O 1.184578 0.418270 -1.287914
O -0.591488 2.739944 0.658056
O 1.890368 3.573655 0.094591
O 3.888897 0.040363 0.075905
O -4.744771 -2.678609 0.022421
O 4.506463 -1.868402 1.389034
O 3.037687 -2.253189 -0.673885
O -4.991861 1.813979 0.682080
O 2.003108 -1.204540 1.372649
N -0.933383 -0.207790 -0.595451
N -2.972810 0.989631 0.050369
N -1.754318 -2.289845 -0.643211
N -4.803963 -0.421956 0.308816
C 0.340389 1.678187 0.501214
C -0.020031 0.913665 -0.781428
C 1.795181 2.170518 0.224946
C 2.186186 1.430407 -1.080051
C 3.549327 0.775950 -1.117004
C -2.247423 -0.123089 -0.260595
C -0.690158 -1.557428 -0.816018
C -2.752290 -1.403559 -0.291599
C -4.137189 -1.625972 0.008242
C -4.307641 0.866497 0.370286
H 0.324005 1.006892 1.355950
H -0.490144 1.612039 -1.485513
H 2.446784 1.869938 1.041172
H 2.145946 2.149895 -1.903629
H 4.314453 1.543644 -1.196646
H 3.620904 0.118752 -1.982469
H -0.628696 3.006640 1.583599
H 0.995878 3.927739 -0.004077
H 0.289904 -1.902137 -1.089865
H -2.531195 1.892568 0.183073
H -5.784956 -0.508119 0.536759
H 4.262191 -2.433601 2.132274
H 3.846148 -2.523683 -1.127648
