25
calc_f12b99e1e8f82abf; angstrom; atom order from source job; valid
P -2.535424 -0.034372 0.124043
O 1.899628 -1.039539 0.969358
O 0.428743 1.838577 -0.523225
O 2.867394 1.750388 0.675305
O 3.148015 -1.454777 -0.978201
O -1.417454 -0.875127 -0.646076
O -3.877809 -0.340715 -0.665526
O -2.231838 1.474289 -0.242872
O -2.667971 -0.360395 1.553312
C 1.130162 0.601486 -0.585891
C 0.693458 -0.412946 0.496080
C 2.638914 0.758525 -0.317472
C 3.002115 -0.643863 0.158215
C -0.277205 -1.479942 0.001612
H 0.968150 0.200089 -1.583216
H 0.246525 0.119120 1.338470
H 3.196859 1.057414 -1.199228
H 3.887163 -0.680089 0.792810
H -0.611042 -2.109739 0.823548
H 0.195173 -2.096176 -0.758951
H 0.887338 2.402198 0.118697
H 2.710334 1.384693 1.554508
H 3.415669 -2.338427 -0.702070
H -3.910500 0.005342 -1.565891
H -1.268623 1.689978 -0.331183
