25
calc_f12b99e1e8f82abf; angstrom; first printed source-job orientation; unoptimized start
P -2.264790 0.564013 0.471377
O 1.356950 -1.833000 -0.654876
O 1.006817 1.006769 1.329110
O 3.212677 -0.486983 1.207086
O 2.526237 -0.692188 -2.320121
O -1.430842 0.546708 -0.912520
O -3.658485 1.142196 0.052531
O -1.644902 1.749640 1.307813
O -2.352419 -0.747367 1.130872
C 1.279811 0.442106 0.078780
C 0.447078 -0.831541 -0.209617
C 2.735622 -0.064271 -0.038758
C 2.572044 -1.215200 -1.036873
C -0.642989 -0.576800 -1.253301
H 1.077694 1.196475 -0.686965
H -0.034866 -1.193017 0.704859
H 3.418794 0.700692 -0.406539
H 3.352889 -1.978212 -0.930457
H -1.268895 -1.468698 -1.337652
H -0.190392 -0.338603 -2.218910
H 1.701844 0.713549 1.950120
H 2.818390 -1.342803 1.436678
H 2.519259 -1.404448 -2.978204
H -3.635498 2.021559 -0.346823
H -0.706537 1.636088 1.545522
