17
calc_b64e41e8c31af266; angstrom; first printed source-job orientation; unoptimized start
N -1.558000 1.054700 0.091320
N -1.477920 -1.156580 -0.096840
N 0.926490 -1.355270 -0.165790
N 2.085890 0.734610 -0.008510
N 1.023830 2.819300 0.180080
N 3.238440 -1.266540 -0.213730
C -0.232590 0.733620 0.027930
C -0.207410 -0.642690 -0.084100
C 0.946890 1.440390 0.069720
C -2.268750 -0.111630 0.008480
C 2.026650 -0.603920 -0.137610
H -1.942930 1.981930 0.197230
H -3.350710 -0.136700 0.032950
H 0.305840 3.332280 -0.309760
H 1.971710 3.120730 -0.027570
H 3.119800 -2.219250 0.105920
H 3.955570 -0.712980 0.233600
