  12
        -24.63314952
 O         -2.2232898194       -1.0172101592        0.0000079520
 O          2.3102009312       -0.9451287906       -0.0000244821
 N          0.0490128100       -0.9480358611       -0.0000103137
 N         -1.1857529563        1.0016679188        0.0000165941
 C         -1.1919681315       -0.3680722727       -0.0000323771
 C          1.2746794698       -0.2948228573        0.0000811466
 C         -0.0389351255        1.7321523919       -0.0000445719
 C          1.1736505142        1.1457292779       -0.0000125811
 H          0.0715696193       -1.9629909677       -0.0000158989
 H         -2.0907234324        1.4571493468        0.0001018715
 H          2.0875305579        1.7113104321        0.0000738127
 H         -0.1583970244        2.8041208233        0.0001152266
