12
uracil  charge=0 mult=1  seed=1_b3lyp_pcm
O     -2.24994900    -1.03542400    -0.00000000
O      2.30931700    -1.00181100     0.00000000
N      0.03657700    -0.98316000    -0.00000000
N     -1.17309500     0.98036000     0.00000000
C     -1.21063600    -0.39794000     0.00000000
C      1.27955200    -0.33895600    -0.00000000
C     -0.01118300     1.70127400     0.00000000
C      1.19615700     1.10402400    -0.00000000
H      0.04835500    -1.99409400    -0.00000000
H     -2.06542800     1.44994300     0.00000000
H      2.10745500     1.67757500    -0.00000000
H     -0.13303400     2.77364000     0.00000000
