33
calc_6893b0227250c583; angstrom; first printed source-job orientation; unoptimized start
O -1.677114 -0.071606 -1.221195
O -1.954017 -1.815709 1.912304
O -4.185338 -0.932262 0.639181
O -1.972628 2.667428 -1.770336
O 4.758291 -0.663606 -0.305300
N 0.195274 -1.238781 -0.422908
N 2.149193 -2.221770 -0.927959
N 1.001485 0.872143 0.485698
N 3.358029 0.969901 0.466152
N 2.094895 2.722440 1.328406
C -1.790162 -0.718077 1.049731
C -1.241390 -1.096027 -0.340669
C -3.106220 0.000449 0.693417
C -2.785736 0.666792 -0.646262
C -2.386391 2.131022 -0.520247
C 1.180069 -0.348449 -0.056735
C 0.852164 -2.338676 -0.944860
C 2.378392 -0.976281 -0.374760
C 3.603852 -0.296555 -0.107543
C 2.126231 1.504740 0.738470
H -1.107126 -0.017390 1.524195
H -1.649723 -2.062954 -0.646934
H -3.380635 0.725276 1.456639
H -3.629789 0.582763 -1.334005
H -3.250047 2.712352 -0.199392
H -1.594194 2.239803 0.225445
H -2.829140 -2.189540 1.735256
H -4.256088 -1.323693 -0.238261
H 0.299024 -3.187689 -1.312188
H -1.220249 2.148754 -2.076843
H 4.188658 1.497877 0.696785
H 1.198317 3.175568 1.379426
H 2.900455 3.323745 1.303659
