30
calc_3a48ae006fae1bc6; angstrom; atom order from source job; valid
O -1.177479 0.563787 -0.881882
O -1.026729 -2.230587 1.352305
O -3.277151 -1.775350 -0.096807
O -2.550794 2.979128 -0.613157
O 1.630821 -1.960262 -1.371257
N 0.904160 -0.179314 -0.148626
N 3.209960 -0.582321 -0.507861
N 4.775442 0.817337 0.373886
C -1.248315 -0.923664 0.920330
C -2.698032 -0.634074 0.505944
C -0.482263 -0.544304 -0.353651
C -2.542095 0.562799 -0.432356
C -2.824717 1.893297 0.242384
C 1.201979 0.932960 0.572223
C 1.927721 -0.966666 -0.718267
C 2.471509 1.317378 0.782290
C 3.488012 0.495487 0.202884
H -0.962345 -0.252712 1.732243
H -3.321418 -0.398870 1.365922
H -0.469059 -1.380790 -1.052184
H -3.188699 0.456647 -1.306275
H -3.881503 1.946357 0.501178
H -2.244730 1.969725 1.169763
H -1.636120 -2.797755 0.866812
H -3.044160 -1.825363 -1.026291
H 0.360855 1.494560 0.950854
H -1.632935 2.917426 -0.887394
H 2.704658 2.202425 1.351483
H 5.047557 1.624570 0.902842
H 5.488827 0.240849 -0.035056
