31
calc_fbf471451571cf0f; angstrom; atom order from source job; valid
N -1.605154 -1.277410 -0.225171
N -2.290495 -3.375105 -0.306684
C -0.840713 -1.970516 0.684914
C -2.456155 -2.171217 -0.789734
C -1.275555 -3.257592 0.614796
H -0.046813 -1.508585 1.246852
H -3.171876 -1.877640 -1.540827
H -0.911175 -4.106746 1.168320
P 2.680597 -0.276062 0.058180
O -0.245560 0.509203 -0.818860
O -2.123781 2.987698 -0.620135
O -3.332067 1.143454 0.874023
O 2.355745 1.276964 -0.026588
O 4.206249 -0.348980 -0.327236
O 2.060749 -0.922757 -1.237811
O 2.302378 -0.880448 1.342395
C -1.264837 2.342731 0.294694
C 0.025690 1.849286 -0.364730
C -1.958683 1.033310 0.678090
C -1.569094 0.129275 -0.499646
C 1.200410 1.837547 0.595169
H -1.068563 2.973594 1.161555
H 0.266052 2.454810 -1.237991
H -1.519527 0.634015 1.592676
H -2.237897 0.309547 -1.344495
H 0.968169 1.284723 1.506660
H 1.456425 2.860982 0.860642
H -1.909865 3.919827 -0.671234
H -3.656224 1.811270 0.259648
H 4.794706 -0.301151 0.431027
H 1.141103 -0.624131 -1.350154
