30
calc_08003ea684cb1bf3; angstrom; atom order from source job; valid
O 0.325793 -0.742692 -1.738796
O 4.898102 -0.691170 -0.502907
O 1.774956 1.246070 2.107246
N 0.992631 0.282287 0.172851
N 3.291140 0.266729 0.760646
C 2.642914 -0.893679 -1.273485
C 1.228755 -0.455927 -0.984372
C 3.723016 -0.444896 -0.332855
C 1.998265 0.636699 1.084961
H 2.897807 -0.564412 -2.280925
H 2.650321 -1.984925 -1.303004
H 3.992330 0.563899 1.426827
O -1.099938 -0.520656 0.872613
O -3.595216 1.127735 -1.056583
O -1.680482 2.608643 0.019607
O -3.104993 -2.573185 1.374224
C -2.367971 0.437398 -0.863115
C -2.448264 -0.428840 0.396547
C -1.196424 1.402901 -0.553450
C -0.383943 0.657414 0.526364
C -2.979571 -1.827599 0.166998
H -2.123061 -0.168965 -1.731134
H -3.069149 0.081926 1.141089
H -0.602226 1.622345 -1.438630
H -0.291265 1.309174 1.388640
H -3.979818 -1.760316 -0.259276
H -2.333378 -2.348162 -0.545866
H -3.757528 1.233882 -1.999045
H -2.590079 2.717882 -0.295199
H -2.226792 -2.684218 1.753251
