30
calc_08003ea684cb1bf3; angstrom; first printed source-job orientation; unoptimized start
O 0.204467 -0.169258 -1.744317
O 4.750592 -0.420693 -0.679176
O 1.683811 0.373590 2.513213
N 0.889998 0.037055 0.400804
N 3.180639 -0.052565 0.890547
C 2.463441 -0.765483 -1.305489
C 1.096194 -0.268228 -0.932542
C 3.580681 -0.395110 -0.376768
C 1.898619 0.121453 1.349819
H 2.699393 -0.452483 -2.325642
H 2.411847 -1.861489 -1.334595
H 3.911110 0.126941 1.576647
O -1.268498 -0.820683 0.578691
O -3.478006 1.689999 -0.433629
O -1.544373 2.467520 1.133553
O -3.099755 -2.755241 -0.605130
C -2.302693 0.959272 -0.638605
C -2.484016 -0.456956 -0.072297
C -1.118063 1.541767 0.181308
C -0.479651 0.302095 0.852453
C -2.800043 -1.496033 -1.149741
H -2.028306 0.899923 -1.694464
H -3.293088 -0.441676 0.671633
H -0.384710 2.035894 -0.464706
H -0.410167 0.470192 1.935720
H -3.688657 -1.183193 -1.700519
H -1.944057 -1.556401 -1.834878
H -3.543618 2.413312 -1.073922
H -2.521605 2.446843 1.156026
H -2.361259 -3.031509 -0.044133
