35
DFT refinement start; not an optimized result
O 2.734046 -2.841975 -0.793116
N 0.660702 -2.655415 0.136954
N -0.783410 -4.514251 0.228306
N -1.571637 -2.498787 0.872009
C -0.557574 -3.229177 0.420120
C 1.686639 -3.414553 -0.460058
C 1.413780 -4.793128 -0.629804
C 0.189076 -5.276762 -0.271658
H 2.186319 -5.407887 -1.056495
H -0.063917 -6.320534 -0.388441
H -1.422339 -1.547765 1.171338
H -2.406063 -3.003016 1.124586
P -1.476748 3.611229 0.039509
O 0.205393 -0.577267 1.239894
O 1.081180 2.001491 -1.057170
O 2.409063 -0.166231 -1.360742
O -0.810436 2.913464 1.339330
O -0.294144 4.359389 -0.682234
O -2.307718 4.796277 0.638556
O -2.285224 2.676818 -0.756936
C 0.388062 0.875530 -0.612096
C 0.290921 0.804758 0.928614
C 1.098054 -0.452298 -0.970706
C 1.045853 -1.267123 0.352897
C -0.926532 1.518619 1.511131
H -0.618184 0.906628 -1.042206
H 1.206720 1.235549 1.359158
H 0.564587 -0.990310 -1.765594
H 2.071164 -1.298111 0.763578
H -0.983756 1.333428 2.585733
H -1.833088 1.162216 1.013614
H 1.990171 1.718916 -1.276289
H 2.903101 -1.007185 -1.403652
H 0.352783 3.751643 -1.075250
H -1.795127 5.457631 1.120787
