35
DFT refinement start; not an optimized result
O 2.615758 -2.842522 0.337183
N 0.357799 -2.746566 0.035223
N -0.845772 -4.659366 -0.628337
N -1.924581 -2.675530 -0.537799
C -0.803057 -3.369095 -0.362751
C 1.571884 -3.459533 0.081759
C 1.480117 -4.847448 -0.183408
C 0.271034 -5.380541 -0.523435
H 2.383130 -5.428866 -0.125385
H 0.157304 -6.432388 -0.742018
H -1.992989 -1.737367 -0.173221
H -2.750055 -3.216818 -0.739998
P -0.789602 3.841106 0.441612
O -0.690128 -0.701676 0.718096
O 1.130231 1.944744 -0.842704
O 2.518165 -0.182980 -0.416321
O -1.672368 2.658919 -0.220611
O -1.840418 4.956227 0.796942
O -0.044204 4.469800 -0.792596
O -0.003219 3.437934 1.615119
C 0.356967 0.786564 -0.777454
C -0.477022 0.686958 0.519447
C 1.196921 -0.513488 -0.730112
C 0.515468 -1.344900 0.395186
C -1.816896 1.411289 0.425663
H -0.311556 0.787389 -1.644260
H 0.113249 1.107717 1.343127
H 1.151769 -1.059908 -1.682216
H 1.188647 -1.327963 1.270967
H -2.235510 1.541994 1.426018
H -2.507896 0.841313 -0.200120
H 2.019711 1.721369 -0.512070
H 2.983996 -1.001967 -0.161219
H -2.345355 5.301649 0.049484
H 0.617021 3.873804 -1.170175
