32
calc_47c87a5e95e3b02e; angstrom; atom order from source job; valid
N 1.773378 -1.062806 -0.225074
N 2.228634 1.155501 0.511198
N 4.017219 -0.251891 -0.200056
N 0.087991 0.344893 0.532719
N 3.523240 -2.374891 -0.923861
N 4.399010 1.908431 0.482583
C 1.403688 0.129961 0.250632
C 3.093595 -1.194607 -0.428039
C 3.521283 0.904392 0.264511
H -0.158764 1.303700 0.733789
H 4.509372 -2.556821 -0.976387
H 2.880864 -3.143997 -0.987690
H 4.087701 2.735381 0.959845
H 5.383536 1.715203 0.438690
O -1.475601 -0.163248 -1.193814
O -3.953212 -1.561989 -0.188449
O -2.315157 -1.526024 1.948771
O -2.157188 2.393142 0.108970
C -3.407449 -0.276537 0.121753
C -2.796486 0.399884 -1.105227
C -2.203682 -0.423087 1.073522
C -0.983767 -0.510085 0.119383
C -2.785757 1.919816 -1.083880
H -4.217023 0.294934 0.567916
H -3.335371 0.102236 -2.006291
H -2.117877 0.469221 1.687900
H -0.601525 -1.524402 0.066130
H -3.818470 2.275584 -1.142800
H -2.247601 2.272994 -1.966773
H -3.425112 -1.978958 -0.879563
H -2.859386 -2.187255 1.497981
H -2.125928 3.354048 0.084927
