20
calc_d66df7833533c9a4; angstrom; atom order from source job; valid
O -0.343350 -1.174531 -0.830243
O 0.724387 1.946254 0.637693
O -1.546116 1.573072 -0.821201
O -1.815828 -1.566801 0.948814
O 3.099651 -0.169019 -0.011350
C 0.138213 0.662898 0.580120
C 0.714579 -0.252264 -0.516504
C -1.359521 0.657174 0.250914
C -1.560373 -0.791099 -0.198692
C 1.962965 -1.023482 -0.112002
H 0.286064 0.206258 1.558432
H 0.940446 0.345531 -1.404728
H -1.988067 0.908058 1.103171
H -2.358664 -0.907970 -0.932309
H 1.782420 -1.554225 0.828415
H 2.201968 -1.760975 -0.876723
H 0.355177 2.466209 -0.088305
H -2.471801 1.828891 -0.871176
H -1.970676 -2.478814 0.679927
H 2.898003 0.555881 0.590582
