39
calc_ed287a3331341d0a; angstrom; atom order from source job; valid
N -1.884980 -1.057668 -0.287318
N -3.847894 -1.113073 -1.379040
N -4.699035 1.029730 -0.646708
N -3.220104 2.237351 0.812175
N -1.141304 1.481659 1.478965
N -5.255939 3.111268 0.185431
C -2.554922 0.130491 0.017891
C -3.765039 0.068679 -0.676547
C -2.281913 1.287662 0.769775
C -2.726382 -1.743071 -1.113225
C -4.366229 2.068427 0.120969
H -2.479363 -2.723618 -1.481693
H -0.318027 0.961160 1.212028
H -0.996621 2.409420 1.842927
H -5.146426 3.749264 0.955216
H -6.202792 2.909310 -0.087944
P 4.150759 1.584231 -0.274862
O 0.374519 -0.624300 0.092940
O 1.684836 -3.579441 1.225698
O -0.752403 -4.029352 0.210311
O 2.904938 0.697159 0.163266
O 4.024234 2.829152 0.702598
O 3.806854 2.227452 -1.684547
O 5.439028 0.877660 -0.314198
C 1.387684 -2.782018 0.087754
C 1.603160 -1.293100 0.430097
C -0.128424 -2.867537 -0.265035
C -0.675218 -1.557410 0.323068
C 2.744358 -0.654319 -0.319653
H 1.991564 -3.098931 -0.759871
H 1.776564 -1.212788 1.506474
H -0.237417 -2.840622 -1.348158
H -0.844340 -1.671842 1.399728
H 2.535922 -0.634099 -1.389682
H 3.660242 -1.214869 -0.137270
H 2.155701 -4.371924 0.950604
H -0.282547 -4.299900 1.012758
H 4.239156 2.642035 1.625062
H 2.953284 2.675597 -1.740884
