33
calc_60130b56d282be66; angstrom; atom order from source job; valid
N -2.711134 -1.315712 0.015787
N -3.097249 1.030238 0.014832
N -0.641757 -2.253645 -0.299272
N -1.401816 2.547669 -0.266835
N -4.834838 -0.460398 0.268925
C -1.407209 -1.101089 -0.215424
C -1.786786 1.236663 -0.184448
C -0.857084 0.184700 -0.333027
C -3.494374 -0.239518 0.104836
H -1.206034 -3.082445 -0.417489
H 0.131207 -2.181277 -0.945288
H -2.117310 3.207178 -0.004970
H -0.470074 2.785474 0.045072
H -5.110664 -1.372674 0.589934
H -5.388316 0.314423 0.592397
O 1.322132 -0.592926 -1.150274
O 3.412457 1.618292 -0.436309
O 1.306273 2.312002 0.971129
O 1.951040 -2.168658 1.276879
C 2.851956 0.522529 0.292887
C 2.650593 -0.711284 -0.589113
C 1.421257 0.933354 0.662155
C 0.600430 0.513511 -0.586334
C 2.791552 -2.045832 0.135820
H 3.455682 0.305613 1.172723
H 3.367364 -0.693199 -1.412936
H 1.090726 0.368398 1.530468
H 0.644848 1.345848 -1.298616
H 2.604545 -2.855897 -0.575398
H 3.819794 -2.146776 0.484560
H 4.371659 1.588823 -0.377505
H 2.021234 2.758577 0.493140
H 1.035672 -2.287019 0.974319
