  13
        -28.71630478
 O          2.3689134433       -1.2384575005       -0.0787338577
 O         -2.3683480766       -1.2393808394       -0.0788047330
 O         -0.0005856414        2.5974778964        0.0018668512
 N          1.1629991160        0.6548570558        0.0062530844
 N         -1.1632517485        0.6543682106        0.0062851371
 C          0.0002948593       -1.4876929069        0.1363227317
 C          1.2812293549       -0.7128749959        0.0039553855
 C         -1.2809175557       -0.7133860997        0.0040927431
 C         -0.0002948943        1.3872570787        0.0100587798
 H          0.0003132116       -2.3150702111       -0.5791534283
 H          0.0002777177       -1.9687994310        1.1218009343
 H          2.0250714896        1.1922379761       -0.0430038554
 H         -2.0255449366        1.1913831647       -0.0430469479
