13
barbituric_acid_Clink  charge=0 mult=1  seed=1_b3lyp_pcm
O      2.37854800    -1.23381500     0.00000200
O     -2.37854800    -1.23381400     0.00000200
O      0.00000000     2.62264300    -0.00000000
N      1.17035000     0.67357000    -0.00000000
N     -1.17035000     0.67357100    -0.00000000
C     -0.00000000    -1.48190500    -0.00000300
C      1.29021100    -0.69960900    -0.00000000
C     -1.29021100    -0.69960900    -0.00000000
C      0.00000000     1.41097200    -0.00000000
H     -0.00000000    -2.13832700    -0.87110800
H     -0.00000000    -2.13833400     0.87109700
H      2.02563800     1.21372900     0.00000100
H     -2.02563800     1.21372900     0.00000100
