31
calc_6dd25721f53cee2e; angstrom; first printed source-job orientation; unoptimized start
N -2.728147 0.576645 0.289272
N -4.464221 1.225432 1.504935
C -2.563316 0.004449 1.521203
C -3.893229 1.293279 0.323932
C -3.650848 0.417073 2.254744
H -1.728498 -0.636225 1.766196
H -4.271857 1.846251 -0.526894
H -3.892373 0.173791 3.281457
P 3.701991 -1.736736 0.534956
O -1.028585 -0.693413 -0.761848
O 1.518199 1.884990 -0.789370
O -0.652915 2.070695 -2.313473
O 2.553407 -0.737667 0.041548
O 3.596272 -3.031554 -0.385865
O 3.222526 -2.261486 1.961606
O 5.075384 -1.165047 0.578084
C 0.383338 1.156223 -0.333872
C 0.348350 -0.289485 -0.818764
C -0.893313 1.707028 -0.943734
C -1.840814 0.505003 -0.861735
C 1.218262 -1.219017 0.019865
H 0.331770 1.209623 0.760047
H 0.685809 -0.341181 -1.862464
H -1.253180 2.606506 -0.434976
H -2.469540 0.405781 -1.753852
H 1.174875 -2.231844 -0.395055
H 0.839408 -1.275345 1.046555
H 2.307253 1.366743 -0.530371
H 0.234829 2.488665 -2.311152
H 4.440124 -3.518701 -0.403310
H 3.699036 -1.800477 2.677279
