34
DFT refinement start; not an optimized result
P -0.338598 3.064172 0.334416
O 0.689055 0.439942 0.331142
O 3.859803 -0.385536 -1.107467
O 2.740931 -2.243683 0.346327
O 1.257146 3.122702 0.103337
O 0.109767 -3.512927 0.837586
O -0.646919 4.584786 0.646123
O -0.620219 2.397479 1.723444
O -1.077738 2.476056 -0.792203
O -4.166873 -3.243382 -0.624719
N -0.640708 -1.485789 0.140712
N -2.029596 -3.341207 0.105168
C 2.477167 -0.296494 -1.025852
C 1.799101 -1.545764 -0.410649
C 1.981725 0.837039 -0.100221
C 0.669393 -0.948168 0.480884
C 1.838850 2.187549 -0.782077
C -0.801814 -2.831335 0.392901
C -1.647007 -0.728625 -0.376841
C -2.853889 -1.255578 -0.662914
C -3.119446 -2.650349 -0.418981
H 2.097243 -0.123305 -2.037944
H 1.369503 -2.185900 -1.189690
H 2.650915 0.922912 0.767789
H 0.874773 -1.228745 1.528783
H 1.192934 2.077025 -1.657676
H 2.815971 2.579772 -1.064184
H 4.171198 -1.001000 -0.419981
H 2.334367 -3.057158 0.685234
H -1.414276 0.315202 -0.530157
H -2.161467 -4.331640 0.293022
H -3.644057 -0.651793 -1.070724
H -0.642010 5.180410 -0.110363
H -0.280303 2.888099 2.482198
