37
calc_1b4708cf6ba6ff0e; angstrom; atom order from source job; valid
O 2.603093 0.578537 -2.003725
O 1.041291 -0.776608 2.095171
N 3.596580 1.396183 -0.136466
N 1.822448 -0.149263 0.039044
C 2.666822 0.606933 -0.787005
C 3.664341 1.455054 1.225785
C 4.501996 2.187482 -0.976562
C 2.840552 0.751936 2.024115
C 1.839893 -0.106537 1.453515
H 4.425979 2.108954 1.622604
H 3.933794 2.885605 -1.585948
H 5.073626 1.532476 -1.628688
H 5.176862 2.735506 -0.328197
H 2.909349 0.816800 3.096882
P -3.022810 1.678647 0.007018
O -0.470617 -0.394413 -0.442698
O -1.311758 -3.807168 0.077447
O 0.831569 -3.247663 -1.377479
O -3.345415 0.117234 -0.073497
O -4.238551 2.335942 -0.768124
O -1.783090 1.919966 -0.954755
O -2.894902 2.215342 1.371224
C -0.685695 -2.578296 0.413347
C -1.453824 -1.419023 -0.227261
C 0.728713 -2.451598 -0.206203
C 0.829390 -0.975745 -0.636337
C -2.568050 -0.873228 0.636521
H -0.622890 -2.451077 1.489874
H -1.859468 -1.746390 -1.189050
H 1.506496 -2.722689 0.504931
H 1.082925 -0.943849 -1.689430
H -2.171622 -0.445976 1.557164
H -3.258632 -1.676413 0.882665
H -1.214020 -4.426353 0.807675
H 0.212932 -3.984657 -1.267831
H -4.297212 2.109682 -1.704876
H -1.126936 1.189025 -0.899112
