37
calc_1b4708cf6ba6ff0e; angstrom; first printed source-job orientation; unoptimized start
O -1.290700 -0.754891 1.904273
O 1.009457 -1.547264 -1.902906
N -2.349540 -1.882180 0.255084
N -0.050529 -1.433519 0.121564
C -1.246459 -1.305044 0.811667
C -2.321994 -2.365036 -1.009377
C -3.611955 -1.783991 0.963387
C -1.205456 -2.328693 -1.758825
C -0.001315 -1.745179 -1.238072
H -3.253888 -2.761780 -1.382414
H -4.168766 -0.916314 0.609433
H -3.403045 -1.659830 2.023472
H -4.185535 -2.691481 0.796052
H -1.183937 -2.669026 -2.778442
P -1.209837 2.011278 -0.115230
O 1.002353 0.542013 0.892366
O 4.229674 0.449253 -0.046419
O 3.329318 -1.495356 1.443205
O 0.176781 2.621314 -0.657652
O -2.189927 3.191332 -0.458806
O -1.204875 2.045936 1.464111
O -1.603272 0.748411 -0.760918
C 2.943987 0.045104 -0.421057
C 1.939975 1.131749 0.004539
C 2.490606 -1.222797 0.358994
C 1.080423 -0.859343 0.859408
C 1.176895 1.759096 -1.160733
H 2.864917 -0.137079 -1.495435
H 2.453515 1.919808 0.567379
H 2.472555 -2.110282 -0.275886
H 0.959573 -1.209266 1.893182
H 0.711409 0.970904 -1.761249
H 1.833861 2.372418 -1.777893
H 4.894181 -0.051999 -0.541467
H 3.883016 -0.709187 1.611670
H -2.010497 4.023922 -0.004518
H -1.072134 1.183880 1.888296
