32
DFT refinement start; not an optimized result
O -1.502168 0.004172 1.398697
O -2.029230 1.775971 -1.660621
O -4.062867 0.919355 -0.214339
O -1.550058 -2.480782 -0.436257
N 0.306925 1.072807 0.404899
N 2.361170 1.955172 0.497615
N 0.921099 -1.209721 -0.235519
N 3.273574 -1.496713 -0.462259
N 4.815793 0.183362 -0.130304
C -1.797172 0.663153 -0.862117
C -1.123562 1.005339 0.490131
C -3.074379 -0.063132 -0.399560
C -2.634020 -0.730444 0.914179
C -2.280605 -2.216949 0.732122
C 1.173833 0.067028 0.080757
C 1.090496 2.168748 0.644578
C 2.456893 0.631147 0.143328
C 3.546949 -0.216213 -0.149495
C 2.020880 -1.903623 -0.486091
H -1.151859 -0.022930 -1.418575
H -1.472188 1.990913 0.838355
H -3.382773 -0.814254 -1.131899
H -3.414193 -0.642058 1.678843
H -1.734932 -2.545936 1.624317
H -3.205520 -2.791932 0.645012
H -2.887589 2.157921 -1.401011
H -4.936090 0.509866 -0.148776
H 0.668486 3.113900 0.921181
H -0.657002 -2.072125 -0.356679
H 1.865944 -2.941608 -0.746980
H 5.026984 1.138616 0.099975
H 5.538602 -0.479034 -0.354361
