32
DFT refinement start; not an optimized result
O -1.652369 0.103061 1.283515
O -1.968744 1.874111 -1.782350
O -4.031039 0.854893 -0.491708
O -1.774543 -2.832372 1.637086
N 0.292398 1.062329 0.407832
N 2.356798 1.732692 0.959624
N 0.888779 -0.968172 -0.826863
N 3.242000 -1.336087 -0.902605
N 4.798648 0.060294 0.067139
C -1.723638 0.742300 -1.013882
C -1.145262 1.062189 0.386344
C -2.987209 -0.069161 -0.667947
C -2.586284 -0.770045 0.636359
C -1.962308 -2.155001 0.417266
C 1.153913 0.136253 -0.116212
C 1.086842 1.980163 1.041406
C 2.441718 0.568404 0.234054
C 3.525152 -0.227760 -0.194777
C 1.982895 -1.629091 -1.166057
H -1.008961 0.116828 -1.555424
H -1.466302 2.062982 0.711631
H -3.222980 -0.788848 -1.457138
H -3.434369 -0.865283 1.323433
H -2.640601 -2.779621 -0.166211
H -1.011716 -2.041959 -0.120888
H -2.850492 2.214451 -1.545347
H -4.878840 0.395468 -0.420699
H 0.672295 2.827721 1.549326
H -1.228257 -2.282325 2.215706
H 1.820661 -2.532803 -1.738203
H 5.017323 0.888467 0.592534
H 5.517116 -0.557262 -0.269713
