37
calc_f9c40765bb129d1a; angstrom; first printed source-job orientation; unoptimized start
P 0.056444 2.875353 -0.237110
O -1.130320 0.275946 -0.602700
O -2.062027 -2.576663 1.372091
O -3.948809 -1.209799 0.104888
O -1.549977 2.930551 -0.373495
O 0.141886 -3.243283 -1.540325
O 4.296892 -2.463087 0.055867
O 0.434971 4.380938 -0.544339
O 0.661922 2.139509 -1.477241
O 0.500605 2.357409 1.065935
N 0.421224 -1.428043 -0.181685
N 2.197120 -2.814075 -0.697915
C -1.768639 -1.264259 1.040399
C -3.005663 -0.388390 0.738789
C -2.437608 0.694232 -0.208647
C -0.974818 -1.085782 -0.277842
C -2.310511 2.068638 0.447098
C 1.275856 -0.651315 0.551892
C 0.867235 -2.541299 -0.854491
C 2.590219 -0.919320 0.686942
C 3.132524 -2.091324 0.028612
C 3.509558 -0.050843 1.481826
H -1.183964 -0.840353 1.862510
H -3.411487 0.053861 1.652451
H -1.403436 -1.732847 -1.059850
H -3.053654 0.765681 -1.114557
H -1.804968 1.963039 1.411657
H -3.287250 2.537800 0.568524
H -2.827804 -2.865378 0.844284
H -4.830146 -0.813251 0.140946
H 0.838858 0.233608 0.987150
H 2.537944 -3.637857 -1.186109
H 3.794821 -0.555086 2.403375
H 4.419437 0.130975 0.914668
H 3.022002 0.890092 1.716433
H 0.283226 5.008992 0.169607
H 0.463823 2.549054 -2.328061
