35
calc_03feb996290e8c03; angstrom; first printed source-job orientation; unoptimized start
N 2.207951 -0.272259 -0.104396
N 3.184905 -2.121380 -0.940024
N 5.446703 -1.591445 -0.242223
N 5.670959 0.477609 0.946482
C 3.553061 -0.174877 0.198531
C 4.141776 -1.338101 -0.337664
C 4.365620 0.736198 0.849185
C 2.066362 -1.455874 -0.777883
C 6.139312 -0.656851 0.402068
H 4.000490 1.656138 1.287923
H 1.101387 -1.792004 -1.119191
H 7.204385 -0.825461 0.501515
P -4.707472 -0.680163 -0.069786
O 0.154055 -0.019420 0.966539
O -0.694716 2.990397 0.266768
O 1.112350 2.343119 -1.577780
O -3.426337 0.121374 0.408203
O -5.860973 0.391949 0.110387
O -4.869295 -1.757936 1.095385
O -4.688131 -1.230447 -1.432446
C -0.911615 1.705725 -0.308538
C -1.123752 0.619623 0.760974
C 0.418987 1.294081 -0.958581
C 1.158642 0.664562 0.238910
C -2.111126 -0.472061 0.378885
H -1.729016 1.739199 -1.026231
H -1.443606 1.085658 1.693919
H 0.240539 0.525622 -1.710209
H 1.620530 1.449124 0.841526
H -2.059329 -1.283491 1.103115
H -1.908186 -0.865428 -0.616914
H -1.530999 3.458594 0.347414
H 0.899898 3.151841 -1.090335
H -5.970431 0.740115 1.004385
H -5.386433 -2.531959 0.839224
