31
calc_c161a7e788757379; angstrom; atom order from source job; valid
N -2.392325 0.980664 0.187126
N -3.601095 2.840503 0.150851
C -2.444129 1.391974 -1.129453
C -3.103872 1.892134 0.910204
C -3.190744 2.534804 -1.129758
H -1.947658 0.861411 -1.920878
H -3.220657 1.804226 1.977813
H -3.451294 3.152950 -1.972011
P 3.194168 0.690963 -0.000030
O -0.333096 -0.086908 0.480570
O -0.888750 -3.389656 -0.863133
O -2.382304 -2.511876 1.148865
O 2.547031 -0.758555 0.041706
O 4.703215 0.398346 0.412826
O 2.674740 1.495166 1.265316
O 2.969235 1.446902 -1.240924
C -0.982940 -1.996636 -0.704187
C 0.183618 -1.355846 0.067411
C -2.197543 -1.541551 0.126349
C -1.733889 -0.188339 0.726507
C 1.419856 -1.159414 -0.772443
H -1.039756 -1.557509 -1.700903
H 0.426284 -1.969931 0.941104
H -3.100120 -1.431240 -0.470168
H -1.931171 -0.192410 1.798627
H 1.247560 -0.419130 -1.551605
H 1.698355 -2.107225 -1.228692
H -1.262182 -3.792383 -0.066560
H -3.307542 -2.542412 1.409064
H 5.189657 -0.149654 -0.215669
H 2.717241 1.020575 2.104884
