15
DFT refinement start; not an optimized result
O 2.262104 -1.104844 -0.150820
N -0.533385 -1.462485 0.042780
N -2.147950 0.035629 0.010511
N -0.904604 2.063195 -0.062836
N 2.033066 1.130281 0.155874
C 0.088290 -0.227937 -0.003048
C -0.957691 0.693752 -0.036828
C -1.852336 -1.243599 0.061508
C 1.531440 -0.115917 0.001436
H -0.031251 -2.335943 0.064065
H -2.586105 -2.022343 0.108841
H -1.816392 2.471294 -0.211682
H -0.190559 2.451890 -0.661234
H 1.448112 1.857489 0.531745
H 3.032004 1.215050 0.253953
