  35
        -70.48909646
 O          1.0663274739       -1.0691677742       -1.9332924562
 N          0.2970051493       -1.4793226044        0.1843206624
 N         -1.4806918351       -2.9914127732        0.5306319734
 N         -0.8958735393       -1.5676146931        2.2042940837
 C         -0.7239190180       -2.0057516479        0.9447993733
 C          0.3233986809       -1.7228240488       -1.1936911303
 C         -0.5191183923       -2.7865165063       -1.6289801461
 C         -1.3479694894       -3.3947898590       -0.7398226145
 H         -0.4841159365       -3.0485235083       -2.6721758579
 H         -1.9890764653       -4.2160760476       -1.0259667607
 H         -0.6991892470       -0.5989109615        2.4030545592
 H         -1.7083716870       -1.9605257894        2.6570056181
 P         -1.9742861195        1.4035807392       -0.0385841413
 O          0.6539422978        0.7599586234        0.9030692401
 O          3.6685515996        1.7654570953       -0.1797650284
 O          3.5778404801       -0.4264464272        1.2155027222
 O         -0.9001251653        2.4680371274       -0.5925167422
 O         -3.3202714895        2.2049539745       -0.2710739154
 O         -1.9103747114        1.3651447480        1.5267208854
 O         -1.8951692061        0.0862870107       -0.6868950952
 C          2.5707873943        0.9676321534       -0.5236369249
 C          1.2848990005        1.6417955642       -0.0126210064
 C          2.6072649183       -0.4022594729        0.2101478650
 C          1.2015718230       -0.5367443031        0.8329312263
 C          0.3107110836        1.9859931972       -1.1371604852
 H          2.4997014968        0.8025609146       -1.6006974818
 H          1.5346722118        2.5510644616        0.5468466544
 H          2.8148644088       -1.2250603312       -0.4765900063
 H          1.3294202938       -0.9024738256        1.8600133276
 H          0.1155352701        1.0860125813       -1.7288190135
 H          0.7092246069        2.7807467183       -1.7680484135
 H          4.4284029971        1.5523130035       -0.7412324564
 H          3.8785118394        0.4902657339        1.3706489059
 H         -3.6453216412        2.2345512394       -1.1762272552
 H         -2.1617636317        2.1888646245        1.9646114960
