35
isocytosine_ribose_phosphate  charge=0 mult=1  seed=1_b3lyp_pcm
O     -0.22802500    -0.79127600     1.37032000
N     -1.99213100    -0.39194700    -0.02691400
N     -3.64782500    -2.03983700    -0.40836500
N     -3.95647200     0.05564600    -1.26257200
C     -3.20010600    -0.80913700    -0.54784400
C     -1.24630600    -1.24400700     0.81885000
C     -1.74427100    -2.56348200     0.94928000
C     -2.90050200    -2.90164000     0.30827400
H     -1.19430700    -3.26366300     1.55731600
H     -3.28837200    -3.91064900     0.37600600
H     -3.92744600     1.04557100    -1.09380600
H     -4.85286500    -0.31026600    -1.53988600
P      2.90147200    -1.06088700    -0.19578900
O     -0.15706400     0.65027800    -1.03951300
O      0.63447700     3.62032200     0.82532200
O     -1.97163900     3.04164300     0.50359200
O      2.62510000     0.49744900    -0.01606200
O      2.18073200    -1.71676200     1.03984400
O      4.44416900    -1.27053500     0.14872600
O      2.60411200    -1.58888800    -1.53871800
C      0.35353700     2.25629700     0.60824200
C      0.70123300     1.77359900    -0.81220600
C     -1.15086600     1.90172800     0.74968600
C     -1.39313200     0.89733400    -0.39963600
C      2.14035900     1.37224500    -1.05125200
H      0.92553200     1.68728300     1.33415300
H      0.46616200     2.57224100    -1.52736300
H     -1.37528600     1.47465200     1.72095200
H     -2.06310800     1.37605700    -1.10787600
H      2.76677200     2.26193700    -1.02774100
H      2.24139700     0.88983400    -2.02129700
H     -0.11259300     4.12809400     0.47989600
H     -2.27844200     3.39970000     1.34192900
H      1.23907900    -1.40871500     1.19099600
H      4.69182800    -1.03128700     1.05005500
