35
DFT refinement start; not an optimized result
O 0.199497 -2.364861 -1.725366
O -0.800373 -1.606846 2.852959
O -3.672668 -0.484019 -0.425536
N -1.775617 -1.568125 -1.029311
N -2.244013 -1.134173 1.202196
C -0.022763 -2.005155 0.630072
C -0.498903 -1.991082 -0.806764
C -1.040399 -1.576955 1.666263
C -2.625964 -0.998482 -0.112262
H 0.332028 -3.011176 0.880110
H -2.046677 -1.447081 -2.002219
H -2.890483 -0.756151 1.890629
P -1.005625 2.105104 -0.493043
O 0.800269 0.237360 0.385211
O 4.290434 0.206104 -0.027392
O 3.358891 -2.060388 0.873422
O 0.460159 2.774345 -0.450725
O -1.907833 3.393595 -0.678696
O -1.402241 1.676027 0.963668
O -1.160639 1.073524 -1.527291
C 2.999771 -0.051279 -0.482537
C 1.966922 0.968602 0.054856
C 2.454307 -1.430144 0.008886
C 1.187149 -1.056495 0.803033
C 1.549727 2.027533 -0.955046
H 3.023530 -0.014684 -1.575235
H 2.368508 1.448731 0.959729
H 2.196201 -2.058777 -0.844715
H 1.453705 -1.045764 1.872946
H 2.358121 2.733892 -1.141997
H 1.239968 1.529092 -1.878326
H 4.436528 -0.319503 0.782926
H 3.943381 -2.650854 0.376116
H -1.983886 3.728863 -1.577857
H -1.434446 2.417666 1.582522
