35
DFT refinement start; not an optimized result
O -1.799943 -0.397357 2.413411
O -4.207702 0.984192 -1.427027
O -3.606090 -3.396941 -0.451954
N -2.649814 -1.868816 0.933968
N -3.865856 -1.191904 -0.941325
C -2.742713 0.539125 0.414983
C -2.353756 -0.590003 1.351652
C -3.675353 0.153554 -0.722626
C -3.383476 -2.238203 -0.177370
H -3.266845 1.289893 1.008350
H -2.355789 -2.627988 1.534688
H -4.448204 -1.455173 -1.725587
P 4.139490 -0.833760 0.078928
O -0.675528 0.265805 -0.810403
O 0.617040 3.195192 -0.867997
O -1.049483 3.227189 1.215487
O 2.932040 -0.020863 -0.562570
O 5.381441 0.085345 -0.287891
O 4.386817 -2.111881 -0.829163
O 3.965628 -1.208943 1.489223
C 0.725334 2.041906 -0.035999
C 0.687041 0.737390 -0.849065
C -0.571815 1.974097 0.791517
C -1.504023 1.241314 -0.184508
C 1.558308 -0.382607 -0.302022
H 1.611420 2.108411 0.592461
H 0.968022 0.943210 -1.883284
H -0.411551 1.365500 1.677692
H -1.877966 1.960391 -0.919756
H 1.411623 -0.519060 0.768529
H 1.321954 -1.312811 -0.817170
H 1.494880 3.510914 -1.100909
H -0.816943 3.867052 0.528171
H 5.435253 0.908993 0.212941
H 4.460447 -1.941226 -1.776835
