  31
        -59.64242481
 O         -1.6920756359       -0.1190231044        1.3503660707
 O         -1.6284410616        1.7967244952       -1.6525320446
 O         -3.6601385694        1.8596847383        0.0460032105
 O         -2.7292961110       -2.2145052117       -0.5703125331
 O          4.7421518629       -1.2043992695       -0.3921434855
 N          0.2786136289       -0.1466631795        0.1073201160
 N          1.6748740859       -1.8029741256       -0.4280016009
 N          1.8929786582        1.6164382008        0.5602029860
 N          4.0956004194        0.8759248565        0.2425508578
 C         -1.8498692185        0.6537879639       -0.8979439915
 C         -0.9527231875        0.5528920527        0.3638646069
 C         -3.2649697491        0.5560532006       -0.2949300839
 C         -3.0411950512       -0.3405271953        0.9330829547
 C         -3.3168398073       -1.8232263022        0.6537303611
 C          1.5347332537        0.3609081799        0.2063375775
 C          0.4328222843       -1.4478261516       -0.2750732016
 C          2.4049601709       -0.6820301982       -0.1353779715
 C          3.8185708295       -0.4445058230       -0.1298142677
 C          3.1693299607        1.8092845684        0.5590296574
 H         -1.6586122783       -0.2101005559       -1.5408457348
 H         -0.6685628169        1.5537842810        0.7183194590
 H         -3.9607036777        0.0976634620       -1.0028584253
 H         -3.6710590421       -0.0276202755        1.7724783757
 H         -2.8988433910       -2.4037888144        1.4849984484
 H         -4.4027441130       -1.9643358128        0.6214943892
 H         -2.1166622725        2.5322251725       -1.2413322579
 H         -4.6055939754        1.8860787704        0.2456097976
 H         -0.4066857239       -2.0958940467       -0.4267547220
 H         -3.0375061281       -3.1037718999       -0.7966816206
 H          3.5284580720        2.7896089826        0.8313746925
 H          5.0812043190        1.1182704739        0.2663067592
  31
        -59.64216844
 O         -1.5164766790       -0.1015699183        1.3293118671
 O         -1.7732792755        2.2127222021       -1.3878465911
 O         -3.9377135606        1.3801343836       -0.1298737853
 O         -1.8456967893       -2.2500894170       -0.8026956700
 O          4.7938539431       -0.3058122391       -0.0442561753
 N          0.4011729730        0.9662398269        0.5783227727
 N          2.5169365673        1.6299489008        0.8424143215
 N          0.8028091313       -1.2310765560       -0.4107398708
 N          3.0897524079       -1.6826884983       -0.6351068674
 C         -1.6933933912        0.9697336124       -0.7751986368
 C         -1.0340557700        1.0115472640        0.6270473497
 C         -3.0583890467        0.3309602791       -0.4505244475
 C         -2.7422986943       -0.5753003036        0.7535202613
 C         -2.6006523693       -2.0552614986        0.3642871428
 C          1.1866392268       -0.0434798091        0.1136682909
 C          1.2644141644        1.9361544943        1.0016636440
 C          2.5100220062        0.3805527124        0.2854390691
 C          3.5862093676       -0.4823409437       -0.1094168998
 C          1.7845284897       -1.9963216430       -0.7611318242
 H         -1.1099093209        0.3109619762       -1.4244706315
 H         -1.3095901751        1.9474338097        1.1382921223
 H         -3.4244824388       -0.2588878732       -1.2950679600
 H         -3.5172079701       -0.4775834964        1.5228189888
 H         -2.1584073043       -2.5868471155        1.2150046712
 H         -3.5901441027       -2.4683379250        0.1577838898
 H         -2.5877742599        2.6495807775       -1.0788368435
 H         -4.8541253486        1.0756940900       -0.1671057388
 H          0.9244904208        2.8623721734        1.4182428662
 H         -0.9298346430       -1.9453896236       -0.6408456008
 H          1.5396677623       -2.9566925947       -1.1888832202
 H          3.7977250904       -2.3457185237       -0.9361164197
  31
        -59.64205650
 O         -1.6715700032       -0.0048796352        1.3599239900
 O         -1.7163276295        1.8414563135       -1.6550733696
 O         -3.8109891704        1.7929750609        0.0117126546
 O         -2.6569404094       -2.2086434809       -0.5509867409
 O          4.7302639974       -1.2470444628       -0.3675930641
 N          0.2724739205       -0.1314918375        0.0603139480
 N          1.6549272300       -1.7994154840       -0.4751798559
 N          1.9029228429        1.5984945050        0.5749884664
 N          4.1004834008        0.8316201384        0.2897037988
 C         -1.8749968341        0.6709288211       -0.9207833182
 C         -0.9423999183        0.5978205862        0.3178842409
 C         -3.2780884581        0.5312898231       -0.2863241041
 C         -3.0035769636       -0.3302262481        0.9498332776
 C         -3.1985697710       -1.8311666904        0.6982365383
 C          1.5350996474        0.3541388433        0.1929459906
 C          0.4154629044       -1.4291851606       -0.3398776608
 C          2.3961023333       -0.6951772650       -0.1489533775
 C          3.8126202215       -0.4784156898       -0.1107766649
 C          3.1817715198        1.7731024930        0.6031567894
 H         -1.6692444587       -0.1824627927       -1.5741410440
 H         -0.6164667210        1.6025809049        0.6227290284
 H         -3.9807938892        0.0576184284       -0.9721511080
 H         -3.6544248967       -0.0496900527        1.7842817604
 H         -2.7045006508       -2.3757343658        1.5124915323
 H         -4.2743101450       -2.0338123239        0.7257374563
 H         -2.4302257371        2.4577478546       -1.4016247821
 H         -3.3750772653        2.1651327225        0.7931568808
 H         -0.4289915369       -2.0636030770       -0.5191833077
 H         -2.9546030411       -3.1046628321       -0.7626009969
 H          3.5491055182        2.7436233048        0.8988734540
 H          5.0887743903        1.0587789737        0.3375636048
  31
        -59.64186644
 O         -1.6531479552       -0.5684537513        1.2068858982
 O         -1.6797400530        2.7012954697       -0.1714721625
 O         -3.8813089358        1.3036735873        0.1803376890
 O         -2.9916693199       -2.0820366864       -1.8737085411
 O          4.8072387289       -0.5671279226        0.1548048646
 N          0.4132442346        0.5156213812        1.0718066166
 N          2.4769767121        0.4867421176        1.9316111686
 N          0.9080559655       -0.3925096566       -1.1450686245
 N          3.1866601784       -0.8768209163       -1.4021291107
 C         -1.5449847711        1.3205976663       -0.2549944174
 C         -1.0202599484        0.6781819932        1.0549955580
 C         -2.8766596395        0.5728855829       -0.4795360153
 C         -2.6041603042       -0.7935905933        0.1657563385
 C         -2.0624970366       -1.8102698698       -0.8557065646
 C          1.2325529033        0.0131035343        0.1054969483
 C          1.2268522179        0.7696300128        2.1403851332
 C          2.5217604367        0.0029484341        0.6524531623
 C          3.6224178303       -0.4752846450       -0.1340497303
 C          1.9100070299       -0.8216283565       -1.8376760382
 H         -0.8447527760        1.1017747995       -1.0642699262
 H         -1.2695005437        1.3159937712        1.9154677152
 H         -3.0951770872        0.4588430916       -1.5447012410
 H         -3.5031828622       -1.1858853402        0.6536979089
 H         -1.1766944237       -1.3917121359       -1.3399816781
 H         -1.7676661888       -2.7189550544       -0.3196119614
 H         -2.5598049930        2.8949318777        0.2003631551
 H         -4.7532609791        1.0667280782       -0.1626006844
 H          0.8523837086        1.1728054799        3.0592826573
 H         -3.7053695397       -2.6378398433       -1.5294479308
 H          1.7116760192       -1.1607599059       -2.8429241785
 H          3.9141616956       -1.2284267919       -2.0171108583
  31
        -59.64172887
 O         -2.0753796649       -0.4322134063        1.3697376051
 O         -1.3443199276        2.4619992298       -0.4282680960
 O         -3.8241110222        1.6848927545        0.1110551834
 O         -1.6976351917       -1.6972231596       -1.2894543069
 O          4.5409719604       -1.2867319693       -0.3508965935
 N          0.1860664411       -0.2708055459        0.7843686628
 N          1.7131951583       -1.8934728336        0.8384001038
 N          1.4876168658        1.4799408889       -0.2975147690
 N          3.6659680320        0.7617344467       -0.7820260676
 C         -1.5107056208        1.0801555668       -0.3915864708
 C         -1.0700370718        0.4362917187        0.9505507048
 C         -3.0039796162        0.7108183683       -0.4710286152
 C         -3.0695689101       -0.5801846786        0.3546960673
 C         -2.8496574806       -1.8433619288       -0.4835734931
 C          1.3073245616        0.2358836037        0.2102646794
 C          0.4935946572       -1.5490896267        1.1365211116
 C          2.2626416743       -0.7871917972        0.2504297407
 C          3.5709371210       -0.5443893748       -0.2841572442
 C          2.6736477147        1.6776193710       -0.7722204332
 H         -0.9785134062        0.5833642340       -1.2112295556
 H         -0.9279369506        1.2121049203        1.7180213478
 H         -3.3074648435        0.5328158913       -1.5105042502
 H         -4.0286322253       -0.6533294112        0.8733206915
 H         -2.7337007274       -2.6904635694        0.2029867427
 H         -3.7398250688       -1.9976256278       -1.1035934093
 H         -0.3934463074        2.6580629919       -0.4698540045
 H         -3.4292254214        2.5554140660       -0.0653173027
 H         -0.2172408966       -2.1868899232        1.6196527556
 H         -1.6137271138       -2.4757147405       -1.8576724975
 H          2.8911780707        2.6467968452       -1.1940136832
 H          4.5692936005        1.0046805175       -1.1767270236
  31
        -59.64141118
 O         -1.7762790988       -0.0675198792        1.3601803983
 O         -2.2105616040        2.5322967843       -0.2772834704
 O         -3.8318999944        0.7916735900       -1.4495298870
 O         -2.6453045628       -2.5012614245       -0.0435273738
 O          4.6341688321       -1.3341696209       -0.6567334760
 N          0.2953568614       -0.0602659571        0.2691236042
 N          1.5448161163       -1.7694541876       -0.4319794300
 N          2.0365304266        1.6065448583        0.6024825672
 N          4.1597963369        0.7577829411        0.0826681778
 C         -1.5956631184        1.3094809366       -0.5679570124
 C         -0.8596499225        0.7229614016        0.6589943333
 C         -2.7170568046        0.2749393258       -0.7992818639
 C         -2.9982930092       -0.2168169140        0.6355777316
 C         -3.4983226155       -1.6579884843        0.7005973507
 C          1.5824487565        0.3786179183        0.2593136255
 C          0.3420628129       -1.3577021505       -0.1559536693
 C          2.3593841333       -0.6978258414       -0.1838966441
 C          3.7799683369       -0.5357030626       -0.2959848340
 C          3.3179555049        1.7307464979        0.4969910833
 H         -0.9232548877        1.3866655455       -1.4288551622
 H         -0.4839619077        1.5177482150        1.3167539516
 H         -2.3488633519       -0.5599717439       -1.4022885825
 H         -3.7530331029        0.4323145385        1.1009240790
 H         -3.5211530993       -1.9640946534        1.7526458737
 H         -4.5129660087       -1.6722982889        0.2857334199
 H         -1.5673804953        3.2543279063       -0.2882955495
 H         -3.9844411125        1.6946772710       -1.1212264185
 H         -0.5382562873       -1.9646415755       -0.2297029675
 H         -2.9922081121       -3.4037346020       -0.0146682362
 H          3.7526115393        2.6834622251        0.7571324580
 H          5.1564681121        0.9441625369        0.0310189181
  31
        -59.64135441
 O         -1.6435280826       -0.3536437603        1.2512268307
 O         -1.3945500901        1.8024966883       -1.5887939352
 O         -3.4992918570        1.8046175165        0.0254916493
 O         -4.5985048406       -2.1130783363       -0.0585780030
 O          4.9171684951       -1.0039424281       -0.4233576037
 N          0.4050947486       -0.2217264300        0.1493030130
 N          1.8936790143       -1.7935743490       -0.3945406215
 N          1.9147906637        1.6406358974        0.5618598584
 N          4.1533977978        1.0370180354        0.2095439967
 C         -1.6773278870        0.6223177423       -0.9205018250
 C         -0.8584787556        0.4244084577        0.3843228213
 C         -3.1246657806        0.5185627638       -0.3968801367
 C         -2.9802129885       -0.4801938383        0.7612586014
 C         -3.2571982433       -1.9261770974        0.3092517494
 C          1.6300080241        0.3631316275        0.2213695091
 C          0.6348751745       -1.5145459716       -0.2251052055
 C          2.5571875886       -0.6267288812       -0.1259838166
 C          3.9539873749       -0.3011211633       -0.1484674384
 C          3.1765096379        1.9125543421        0.5375279447
 H         -1.4551100517       -0.1995222442       -1.6087300041
 H         -0.6267191032        1.3984133985        0.8386354671
 H         -3.8051385818        0.1313116695       -1.1610978285
 H         -3.6449912971       -0.2171482751        1.5916095256
 H         -2.6660222454       -2.1512988608       -0.5819461579
 H         -2.9520213324       -2.6077662849        1.1103618100
 H         -1.8877053371        2.5230339791       -1.1565405591
 H         -4.4586006313        1.8623351263        0.1288816843
 H         -0.1556650476       -2.2272760448       -0.3413408496
 H         -5.1584886180       -2.1291693106        0.7309671310
 H          3.4780955008        2.9149781886        0.7990918746
 H          5.1222169003        1.3408625200        0.2137161063
  31
        -59.64132219
 O         -1.7479217936       -0.7317412190        0.8072655258
 O         -1.5890693179        2.8021756142        0.3698175596
 O         -3.8697333091        1.4616148818        0.3860365714
 O         -2.2308079016       -2.7469335416       -1.2928886151
 O          4.7420215859       -0.6276340270        0.1192785971
 N          0.3268502075        0.2991565215        1.0987752871
 N          2.3612334740        0.0825374042        1.9982118667
 N          0.8866015942       -0.1528177694       -1.2376122740
 N          3.1693946955       -0.6055169024       -1.5165902909
 C         -1.5422780189        1.4804227952       -0.0532795199
 C         -1.1007883695        0.4903865540        1.0537364902
 C         -2.9078865965        0.9004607981       -0.4714276742
 C         -2.7139159780       -0.6053193497       -0.2462486247
 C         -2.2311413426       -1.3537273018       -1.4960495386
 C          1.1756161019       -0.0055812151        0.0770675834
 C          1.1059796571        0.3301923330        2.2210555336
 C          2.4457773927       -0.1389141888        0.6505817284
 C          3.5677961133       -0.4663601713       -0.1816912644
 C          1.9075021158       -0.4498788034       -1.9709538333
 H         -0.8352591071        1.4203198062       -0.8843974521
 H         -1.3961358190        0.8700978213        2.0428305552
 H         -3.1296825956        1.1267733597       -1.5180758973
 H         -3.6306356275       -1.0780138507        0.1234906536
 H         -2.9179369195       -1.1762874706       -2.3250855074
 H         -1.2275770132       -0.9982992105       -1.7617991248
 H         -2.4501155891        2.9548588043        0.7991369692
 H         -4.7610429365        1.2692408696        0.0649658499
 H          0.7038902922        0.5467428595        3.1898766485
 H         -1.6973879553       -2.9428994136       -0.5102014367
 H          1.7392686950       -0.5831620296       -3.0287106320
 H          3.9134655357       -0.8401380766       -2.1668023426
  31
        -59.64118436
 O         -1.9360643829       -0.6270544897        1.2199799068
 O         -2.3261401014        2.5138539906        1.1233454636
 O         -3.4794471402        1.4096722227       -0.9249754269
 O         -2.1568260745       -1.6249314400       -2.3155390531
 O          4.5092115734       -1.1277343813       -0.1896426096
 N          0.3088282031        0.0664824262        1.3113050356
 N          2.2259674149       -0.9156073061        1.9144487388
 N          0.8761806798        0.6219537096       -1.0041047871
 N          3.0412199473       -0.0794202241       -1.5662080372
 C         -1.4955455935        1.5881947664        0.4886916427
 C         -1.0820105946        0.4587441806        1.4558115508
 C         -2.2291290177        0.8334345936       -0.6580704250
 C         -2.4351984285       -0.5933990897       -0.1133061601
 C         -1.7375888357       -1.6576517931       -0.9784967726
 C          1.1267379902        0.1004081186        0.2206867756
 C          1.0325332280       -0.5650847352        2.2857826324
 C          2.3243913825       -0.5119089361        0.6105922679
 C          3.4004256820       -0.6322432114       -0.3316923168
 C          1.8522907221        0.4991392000       -1.8402238674
 H         -0.6134818356        2.1204838089        0.1267411220
 H         -1.2222067792        0.7655861657        2.4984865888
 H         -1.5984238537        0.7942214083       -1.5494605063
 H         -3.5091634745       -0.8061795998       -0.0552158445
 H         -0.6630849061       -1.4609568722       -0.9961046756
 H         -1.9015825213       -2.6423278050       -0.5242161535
 H         -3.2477092380        2.3232117281        0.8614367728
 H         -3.3839845349        2.1282671414       -1.5660352166
 H          0.6319050351       -0.7434845702        3.2628408554
 H         -3.0884887488       -1.8821651334       -2.3734851815
 H          1.7066317349        0.8895818571       -2.8356082143
 H          3.7539446070       -0.1336547683       -2.2876422078
  31
        -59.64102751
 O         -1.6387146131       -0.3656969474        1.2440086066
 O         -1.4016981557        1.7918878976       -1.5983107100
 O         -3.4981404333        1.7894379256        0.0241517864
 O         -4.6339420120       -2.0086867405       -0.0017939209
 O          4.9230297775       -0.9950451212       -0.4179847260
 N          0.4077697781       -0.2213097613        0.1410881270
 N          1.9007956219       -1.7878944177       -0.4068277875
 N          1.9138264539        1.6399772972        0.5719544680
 N          4.1546950733        1.0409068594        0.2257684065
 C         -1.6799188953        0.6121330613       -0.9273440881
 C         -0.8588009035        0.4186848185        0.3768143737
 C         -3.1241908388        0.5043560350       -0.3992273312
 C         -2.9751869778       -0.4931765468        0.7586737364
 C         -3.2661770251       -1.9330769944        0.3195943266
 C          1.6316610924        0.3644798616        0.2222165674
 C          0.6411419244       -1.5112977570       -0.2402172546
 C          2.5615870245       -0.6219019086       -0.1279928500
 C          3.9581583095       -0.2948212778       -0.1422852299
 C          3.1753750490        1.9132533661        0.5550955076
 H         -1.4555082883       -0.2097663131       -1.6149069236
 H         -0.6325594808        1.3937759778        0.8312134333
 H         -3.8119318044        0.1200785686       -1.1584196113
 H         -3.6490490009       -0.2390951896        1.5836750071
 H         -2.6457495424       -2.1857504070       -0.5509783308
 H         -3.0060467182       -2.6015787908        1.1479257772
 H         -1.8994437274        2.5110478680       -1.1696520951
 H         -4.4445299078        1.8150754877        0.2193821732
 H         -0.1478813861       -2.2244583346       -0.3631950535
 H         -4.8746423524       -2.9275739075       -0.1858975022
 H          3.4747391309        2.9141995045        0.8247360678
 H          5.1231830125        1.3456753040        0.2366101633
  31
        -59.64096411
 O         -1.7518551015       -0.5877219856        1.2158224802
 O         -1.7573549971        2.7398323853        0.1249800270
 O         -3.9610593016        1.2639902248        0.0988953101
 O         -2.7398135107       -1.9057997352       -2.0885160376
 O          4.7608140634       -0.7256098234        0.1453928304
 N          0.3859370459        0.3831412047        1.1200348835
 N          2.4160656747        0.0973202599        2.0159290634
 N          0.9248042477       -0.1320538187       -1.2121107011
 N          3.1889657417       -0.6680783024       -1.4902060313
 C         -1.5482089798        1.3850451908       -0.1271175593
 C         -1.0390888627        0.6249224720        1.1253894575
 C         -2.8532773835        0.6266400082       -0.4793126572
 C         -2.5870628445       -0.7756492134        0.0717192429
 C         -1.9196880608       -1.6913126231       -0.9700607677
 C          1.2173676133        0.0229944917        0.1010819980
 C          1.1738149137        0.3997704709        2.2387293749
 C          2.4845562573       -0.1486943535        0.6718238747
 C          3.5929938597       -0.5268770438       -0.1575008550
 C          1.9327015639       -0.4742233342       -1.9437631989
 H         -0.8164983479        1.2856704181       -0.9326778841
 H         -1.2354087645        1.2127484389        2.0333076265
 H         -3.0356412331        0.6075764801       -1.5548606328
 H         -3.5082374045       -1.2427238022        0.4368884161
 H         -1.0102093369       -1.2138713513       -1.3429401688
 H         -1.6459784604       -2.6338680422       -0.4805480419
 H         -2.7206155058        2.8858468334        0.2023150917
 H         -4.0005104654        1.0683224371        1.0471729892
 H          0.7854955556        0.6477695800        3.2056256313
 H         -3.5080018989       -2.4391080595       -1.8388246824
 H          1.7551635796       -0.6144543808       -2.9990648821
 H          3.9233996790       -0.9354840693       -2.1387815642
  31
        -59.64088094
 O         -1.6571238743        0.0177957646        1.3527959484
 O         -1.6853044117        1.9512282013       -1.5268769170
 O         -3.9522724730        1.6972171535       -0.0952320186
 O         -2.6467190532       -2.2309290737       -0.4836751878
 O          4.7256364478       -1.2694553184       -0.3656840670
 N          0.2757268311       -0.1156238195        0.0421326801
 N          1.6467962968       -1.7932326654       -0.4930331926
 N          1.9194978500        1.5957356296        0.5795442609
 N          4.1117835033        0.8096230697        0.3053286094
 C         -1.8644604872        0.7052245118       -0.9225191387
 C         -0.9373690806        0.6172065914        0.3073366726
 C         -3.2784727791        0.4950410014       -0.3249194290
 C         -2.9899362299       -0.3104956898        0.9548498237
 C         -3.1815730811       -1.8197783905        0.7588238084
 C          1.5418747753        0.3575607331        0.1879335072
 C          0.4100885024       -1.4131148725       -0.3633628227
 C          2.3956338231       -0.6972381777       -0.1557923044
 C          3.8140597821       -0.4942104499       -0.1075047393
 C          3.1995981783        1.7574801607        0.6190285327
 H         -1.6338045084       -0.1188778262       -1.6105438648
 H         -0.6111141521        1.6245132874        0.6043433351
 H         -3.9167568238       -0.0748279577       -1.0021571718
 H         -3.6434645303        0.0115396723        1.7719240451
 H         -2.6772354476       -2.3351528797        1.5852344483
 H         -4.2558513054       -2.0278001792        0.7999288526
 H         -2.3246429636        2.0617792427       -2.2462345323
 H         -3.3773762188        2.3213411005        0.3719003133
 H         -0.4396083649       -2.0391956726       -0.5486773413
 H         -2.9206488142       -3.1432681688       -0.6549413924
 H          3.5736185678        2.7221936052        0.9250649927
 H          5.1019606538        1.0260714898        0.3641403255
  31
        -59.64073427
 O         -1.6728040267       -0.0625991562        1.3396946009
 O         -1.6695549183        1.8965313324       -1.5557215098
 O         -3.8218060292        1.7728351333        0.0116798777
 O         -2.6950702200       -2.2268039078       -0.5089981612
 O          4.7352282661       -1.2425423580       -0.3518863410
 N          0.2767834001       -0.1274549258        0.0629640015
 N          1.6624142627       -1.7992285998       -0.4527528733
 N          1.9058296206        1.6120258612        0.5557068751
 N          4.1044675222        0.8427807993        0.2838287127
 C         -1.8597477023        0.6667591926       -0.9199571050
 C         -0.9504769245        0.5815719688        0.3249206920
 C         -3.2751341156        0.5250838106       -0.3159820510
 C         -3.0215090263       -0.3187944700        0.9414554538
 C         -3.2704257361       -1.8138324014        0.7148785160
 C          1.5382191307        0.3622486646        0.1924750375
 C          0.4225585919       -1.4308011500       -0.3198352841
 C          2.4010690822       -0.6896062975       -0.1387915685
 C          3.8176906023       -0.4715639559       -0.1025499390
 C          3.1843911693        1.7874425487        0.5841286610
 H         -1.6517963187       -0.1850028252       -1.5739314596
 H         -0.6564522260        1.5914222945        0.6457075480
 H         -3.9541644555        0.0035600273       -1.0006780878
 H         -3.6612464036        0.0247395139        1.7603060603
 H         -2.8251733716       -2.3616953410        1.5538076654
 H         -4.3532172059       -1.9764293389        0.7052220836
 H         -1.9176381824        1.8367168599       -2.4894053306
 H         -3.2727335187        2.4628702996       -0.4040546600
 H         -0.4222180944       -2.0686743533       -0.4868387318
 H         -2.9867184577       -3.1295735394       -0.7006682183
 H          3.5502796017        2.7620303487        0.8680296718
 H          5.0926411924        1.0703859367        0.3331499944
  31
        -59.64071197
 O         -1.9186495294       -0.8018849754        0.7607194352
 O         -2.3675798373        2.2445252013        1.5727038318
 O         -3.3105915644        1.8865436649       -0.8392010773
 O         -2.3833951995       -2.5204448400       -1.5309697815
 O          4.5926288246       -0.9223432973       -0.2243126306
 N          0.2830146753       -0.1501606178        1.2420896630
 N          2.2370104927       -1.0818817267        1.8030285220
 N          0.8812670452        0.6869184667       -0.9775181172
 N          3.1034622010        0.1838892085       -1.5316802926
 C         -1.4876053038        1.5383799807        0.7505074085
 C         -1.1248520880        0.1745807275        1.3731052171
 C         -2.1364110420        1.1588716986       -0.6102905337
 C         -2.4842212894       -0.3327145506       -0.4655570175
 C         -1.9690610198       -1.1819443477       -1.6318600624
 C          1.1286067651        0.0494608622        0.1911904066
 C          1.0144501137       -0.8425475172        2.1678959998
 C          2.3489746739       -0.5330226318        0.5548435874
 C          3.4592935494       -0.4828029301       -0.3532693851
 C          1.8892801075        0.7168298185       -1.7848144947
 H         -0.5847235081        2.1415946567        0.6164591348
 H         -1.3490582840        0.1712399515        2.4466095083
 H         -1.4046596522        1.2887726520       -1.4109564108
 H         -3.5718078369       -0.4526754694       -0.3874721110
 H         -2.3815525580       -0.8050349639       -2.5690313038
 H         -0.8724172166       -1.1157699757       -1.6651853911
 H         -3.2484385964        2.2374722321        1.1500797245
 H         -3.1049307169        2.7322493391       -1.2638647334
 H          0.6000305004       -1.1473663605        3.1071965328
 H         -2.1548452762       -2.8486635845       -0.6493103850
 H          1.7508074074        1.2075430575       -2.7360924839
 H          3.8404239374        0.2549092373       -2.2267894949
  31
        -59.64063836
 O         -1.7066056849       -0.3204481731        1.0926176231
 O         -2.1996155695        2.4554033589       -0.2567716351
 O         -3.7414446887        0.7868552674       -1.6600755855
 O         -3.9426496901       -2.2253614691        1.5751290076
 O          4.8052064377       -1.1406134759       -0.7264698014
 N          0.3839988952       -0.0902239746        0.0856895893
 N          1.7211938886       -1.6445143380       -0.7967589690
 N          2.0590550706        1.5170149488        0.8137553363
 N          4.2329341885        0.7928252334        0.3158275535
 C         -1.5478127889        1.2851072063       -0.6572911846
 C         -0.8143708700        0.5961631446        0.5191586012
 C         -2.6404516913        0.2505005706       -1.0079727154
 C         -2.9456383192       -0.3485314122        0.3783050587
 C         -3.4885121562       -1.7752192565        0.3259305741
 C          1.6591844228        0.3584403039        0.2409333028
 C          0.4944643415       -1.2981957604       -0.5427089835
 C          2.4901401969       -0.6189310725       -0.3172587897
 C          3.9119083605       -0.4234472844       -0.2993630270
 C          3.3414345535        1.6724825776        0.8232785790
 H         -0.8656006350        1.4633243328       -1.4948144510
 H         -0.4946460146        1.3287810910        1.2716077895
 H         -2.2317364204       -0.5231298461       -1.6656905599
 H         -3.6678519018        0.2913598402        0.9040524075
 H         -4.3523145633       -1.7940403787       -0.3419315643
 H         -2.7132204739       -2.4453253633       -0.0691980559
 H         -1.5851220511        3.2009771841       -0.2162465752
 H         -3.9550184284        1.6439695324       -1.2524119672
 H         -0.3571985110       -1.9003547480       -0.7829602747
 H         -3.2099653764       -2.1844804511        2.2065189243
 H          3.7332518789        2.5739044851        1.2686066935
 H          5.2261292466        0.9978452854        0.3676917492
  31
        -59.64063472
 O         -1.7462676300       -0.3800127397        1.1068416063
 O         -2.1576894928        2.4525661277       -0.1313941066
 O         -3.6342419390        0.8588277080       -1.6957986280
 O         -4.0353162101       -2.2614218769        1.4108566973
 O          4.7975447326       -1.1108769855       -0.7529747836
 N          0.3823361529       -0.1419628020        0.1822287808
 N          1.7288885647       -1.7034911189       -0.6714011869
 N          2.0345616560        1.5510269873        0.7498091263
 N          4.2076690449        0.8623916427        0.2007152105
 C         -1.4936950326        1.2995759430       -0.5597125263
 C         -0.8186219018        0.5445698887        0.6111728906
 C         -2.5724846742        0.2892188070       -1.0083106524
 C         -2.9525248853       -0.3586357774        0.3367001732
 C         -3.5176786393       -1.7708503181        0.2023363388
 C          1.6480128219        0.3508503655        0.2588728349
 C          0.5030619855       -1.3773820111       -0.3865930719
 C          2.4853074710       -0.6326604535       -0.2791773337
 C          3.9000214424       -0.3961556466       -0.3306302900
 C          3.3108582013        1.7436603893        0.6959859198
 H         -0.7725046062        1.5145886174       -1.3548428930
 H         -0.5157826447        1.2366812703        1.4076822632
 H         -2.1328011996       -0.4627658478       -1.6714350979
 H         -3.6870557066        0.2737831594        0.8543387172
 H         -4.3506945052       -1.7453212374       -0.5033650735
 H         -2.7387925601       -2.4404869706       -0.1865054982
 H         -1.5403787794        3.1884771109       -0.0186529969
 H         -3.8676038183        1.6982100121       -1.2629737156
 H         -0.3400973835       -2.0137484222       -0.5587068827
 H         -3.3329606466       -2.2537477481        2.0770965060
 H          3.6924245752        2.6800750330        1.0726835103
 H          5.1952816097        1.0983457921        0.1989015014
  31
        -59.64060041
 O         -1.9291663878       -0.4929771217        1.3597221161
 O         -1.2434179848        2.4012966667       -0.4908309367
 O         -3.7076028811        1.6450821054        0.1587808207
 O         -3.6819326096       -2.0098570638       -1.5057029886
 O          4.7344272748       -1.1302244816       -0.2751165740
 N          0.3254964061       -0.2636540610        0.7737961311
 N          1.9139089919       -1.8241135557        0.8816805246
 N          1.5779085601        1.5171672519       -0.3186197975
 N          3.7897859922        0.8766039436       -0.7550825881
 C         -1.4166721248        1.0240731344       -0.4162307466
 C         -0.9522740162        0.4067299818        0.9310368848
 C         -2.9156014401        0.6641227327       -0.4501649406
 C         -2.9601115764       -0.6227268884        0.3799696741
 C         -2.7383388234       -1.8829180280       -0.4766696901
 C          1.4383937352        0.2772371880        0.2109361123
 C          0.6782373582       -1.5237565767        1.1572461430
 C          2.4301766272       -0.7076580775        0.2831009156
 C          3.7375252300       -0.4241232495       -0.2361278976
 C          2.7635736248        1.7529430495       -0.7779347221
 H         -0.9019148046        0.5105576368       -1.2396434381
 H         -0.8347175107        1.1964852258        1.6884511544
 H         -3.2580557833        0.4772468194       -1.4767671088
 H         -3.9049485304       -0.6849845799        0.9270537300
 H         -1.7629068045       -1.8239371750       -0.9673646525
 H         -2.7380944260       -2.7589383628        0.1823290630
 H         -0.2909925577        2.5975873491       -0.5221494836
 H         -3.3549534616        2.5160044503       -0.0880925577
 H         -0.0160644070       -2.1803802655        1.6392080562
 H         -4.5561638043       -2.1865853851       -1.1294484138
 H          2.9500429462        2.7222693318       -1.2140595394
 H          4.6893980267        1.1475696118       -1.1402533259
  31
        -59.64053790
 O         -1.6880953424        0.0453949045        1.3247136204
 O         -2.0015712701        2.4906436891       -0.8581211060
 O         -4.1340934523        0.9807868437       -0.9384352854
 O         -2.5914132830       -2.4781094988        0.0056327690
 O          4.6668638073       -1.3572538912       -0.5567845548
 N          0.3041425268       -0.0117754888        0.1168920484
 N          1.5618750278       -1.7147275221       -0.5884722489
 N          2.0558907616        1.5757332256        0.6922862118
 N          4.1908276432        0.6995637447        0.2751117523
 C         -1.6954710259        1.1314190641       -0.8127160080
 C         -0.8687745553        0.7662700367        0.4477833206
 C         -2.9666163695        0.2470706212       -0.6959881159
 C         -2.9720069301       -0.2217167547        0.7686744527
 C         -3.3304454432       -1.7014171282        0.9246322158
 C          1.5978059359        0.3876258178        0.2363517875
 C          0.3525183848       -1.2829671011       -0.3814814423
 C          2.3802879929       -0.6833014833       -0.2125540915
 C          3.8084270467       -0.5563821587       -0.2101008423
 C          3.3433916167        1.6690034159        0.6887530100
 H         -1.1138670738        0.8942208787       -1.7101476773
 H         -0.5022170891        1.6774823799        0.9386413268
 H         -2.8822892258       -0.6207479692       -1.3561044539
 H         -3.7124534847        0.3696406174        1.3245729291
 H         -3.1013794912       -1.9931287559        1.9548606977
 H         -4.4058642639       -1.8099671259        0.7396917683
 H         -2.9256850124        2.6103114693       -0.5680947352
 H         -4.3061163068        1.0340628257       -1.8898765495
 H         -0.5345498580       -1.8592455303       -0.5551994614
 H         -2.7995857145       -3.4121685724        0.1455022791
 H          3.7801232585        2.5903564067        1.0415233327
 H          5.1925634835        0.8614608607        0.3058750916
  31
        -59.64049467
 O         -1.8558826562       -0.5006331442        1.1485596170
 O         -2.1244875132        2.4270540847        0.2811303111
 O         -3.2749944248        1.0819581362       -1.7576907064
 O         -4.1657329270       -2.3927018863        0.8016342060
 O          4.7299066073       -1.0776377247       -0.7862709543
 N          0.3648930799       -0.2467948658        0.4632234346
 N          1.7530154716       -1.8498152233       -0.2307950025
 N          1.9076604851        1.6362696511        0.4971778010
 N          4.0660089703        1.0014429406       -0.1642135899
 C         -1.3657688000        1.3686707181       -0.2260639373
 C         -0.8481832248        0.4306567949        0.8885623822
 C         -2.3325147309        0.4284693203       -0.9776733686
 C         -2.9178053305       -0.3861822704        0.1914844883
 C         -3.4263574735       -1.7673840202       -0.2145078598
 C          1.5812657148        0.3382786247        0.2939240989
 C          0.5379215412       -1.5582449414        0.1297639004
 C          2.4452848257       -0.6734000584       -0.1407328198
 C          3.8197800840       -0.3557260458       -0.4047205404
 C          3.1487339466        1.9008332716        0.2552598576
 H         -0.5446137567        1.7194400904       -0.8575413318
 H         -0.6149370469        0.9840741750        1.8073447504
 H         -1.7704493333       -0.2342047693       -1.6446650806
 H         -3.7405587498        0.1756520723        0.6543860465
 H         -4.1065089848       -1.6495012610       -1.0609253608
 H         -2.5781704255       -2.3933732539       -0.5229966453
 H         -1.5536026956        3.1451520174        0.5879032834
 H         -3.6068457987        1.8503717999       -1.2620216524
 H         -0.2597605954       -2.2693577940        0.1825399054
 H         -3.6144608207       -2.4664148707        1.5939553395
 H          3.4811584344        2.9177243803        0.3961900521
 H          5.0225826326        1.2993056003       -0.3291854465
  31
        -59.64049191
 O         -1.5547653058       -0.6948009004        1.1502439186
 O         -2.4833857318        2.3559328583        0.9629485489
 O         -3.2819530197        1.2416964645       -1.2958384558
 O         -3.3179399551       -1.7324205717       -1.8353773338
 O          4.8027686799       -0.4574899904       -0.1165708503
 N          0.4846115427        0.4254099126        1.2567584802
 N          2.6231295651        0.4728901637        1.9023901390
 N          0.7863619120       -0.4280578646       -1.0146496619
 N          3.0462899707       -0.8151007089       -1.5081332926
 C         -1.5344024111        1.5487332417        0.3284617853
 C         -0.9503176834        0.5571692477        1.3566390453
 C         -2.1631175401        0.6237235136       -0.7285057319
 C         -2.4980291726       -0.6369276227        0.0879239242
 C         -2.4205212730       -1.9028577251       -0.7613632192
 C          1.2208019490       -0.0240393343        0.2013929672
 C          1.3905747223        0.6989628004        2.2427906924
 C          2.5578842816        0.0099086792        0.6166438640
 C          3.5923571847       -0.4122838810       -0.2839929537
 C          1.7299150276       -0.8073721227       -1.8104830543
 H         -0.7373964755        2.1719283860       -0.1005545224
 H         -1.1695390264        0.9140587700        2.3716923557
 H         -1.4098122668        0.3774197322       -1.4865462490
 H         -3.5092946402       -0.5317966159        0.5075187315
 H         -1.3883747823       -2.0152514311       -1.1150645155
 H         -2.6885287802       -2.7679868706       -0.1450960167
 H         -3.1814022247        2.5570796288        0.3144904922
 H         -3.7149916239        0.6038365349       -1.8834698020
 H          1.0938253075        1.0727223868        3.2015631217
 H         -3.3068903744       -2.5234930374       -2.3915681292
 H          1.4464227440       -1.1418964468       -2.7968332352
 H          3.7210964734       -1.1298866571       -2.1987462164
  31
        -59.64042893
 O         -2.1249796357       -0.6832059737        1.0766218866
 O         -2.5135133989        2.3235919965        1.2973196871
 O         -3.2175158000        1.6704922203       -1.1678582169
 O         -0.7591447487       -1.4840279566       -1.4441309808
 O          4.3112705751       -1.3327240238       -0.4180290773
 N          0.1539509872       -0.1652633196        1.2109797919
 N          1.8707552066       -1.5726633472        1.4874979417
 N          1.0145824191        1.1135497031       -0.6935555199
 N          3.1276491306        0.3519585044       -1.3704033591
 C         -1.5567184981        1.5557526159        0.6225005409
 C         -1.2015917580        0.3057093135        1.4405623632
 C         -2.1260936207        0.9408629299       -0.6808826496
 C         -2.6009416452       -0.4608438759       -0.2494224204
 C         -2.1505812648       -1.5706911527       -1.2022790054
 C          1.0683891205        0.1442836182        0.2505429148
 C          0.6962603155       -1.2113284923        1.9057219225
 C          2.1433597250       -0.7354336669        0.4402463931
 C          3.2877550794       -0.6608824501       -0.4197296724
 C          2.0502345320        1.1609419097       -1.4626133087
 H         -0.6708605708        2.1690116017        0.4387800407
 H         -1.3203062329        0.4827850735        2.5156729929
 H         -1.3226779035        0.8459427659       -1.4163743962
 H         -3.6964093720       -0.4766129451       -0.2044535084
 H         -2.4008710061       -2.5316411001       -0.7384850216
 H         -2.7098881499       -1.4566846660       -2.1385760762
 H         -3.3261981941        2.3346917652        0.7565642639
 H         -2.9043092105        2.4130473469       -1.7046443880
 H          0.1756232988       -1.6770390790        2.7177194102
 H         -0.5173737157       -2.1973679851       -2.0503594318
 H          2.0593704588        1.9096411021       -2.2399572264
 H          3.8994444224        0.4613608410       -2.0209331078
  31
        -59.64042644
 O         -2.1054238030       -0.3809293667        1.3690272141
 O         -2.3112305059        2.5244160438        0.7146104499
 O         -3.3159610013        1.3735494178       -1.4462436358
 O         -1.5370699862       -2.0666719418       -1.0065959391
 O          4.3718119207       -1.4132711178       -0.6060156891
 N          0.1720373658       -0.1901055861        0.8657588770
 N          1.5901287447       -1.9081339316        0.7063906591
 N          1.5566957994        1.5542169948       -0.1427443491
 N          3.6415977651        0.7235739946       -0.8220070904
 C         -1.4729521302        1.5401667119        0.1703377800
 C         -1.0468838695        0.5167472535        1.2407219595
 C         -2.3252235709        0.6646503941       -0.7742563723
 C         -2.8740657203       -0.4364233878        0.1640764686
 C         -2.8246189508       -1.8257329602       -0.4749857245
 C          1.2952503284        0.2886967169        0.2660526323
 C          0.4180094810       -1.5113585509        1.1033501256
 C          2.1769776622       -0.7962519119        0.1684475575
 C          3.4690066983       -0.6070899917       -0.4241342284
 C          2.7258652610        1.7049541585       -0.6701145108
 H         -0.6089557465        1.9729690651       -0.3356063226
 H         -0.8932471445        0.9847538778        2.2218621339
 H         -1.6854650005        0.2018032345       -1.5315218535
 H         -3.9127641317       -0.2172334765        0.4364071201
 H         -3.0710405619       -2.5689395007        0.2924476894
 H         -3.5814721576       -1.8498794696       -1.2676464666
 H         -1.7893139670        3.2655659543        1.0503340862
 H         -3.6547271486        2.0596611527       -0.8442862705
 H         -0.3044880199       -2.1386562275        1.5823546831
 H         -1.5445668009       -2.9168394920       -1.4671940197
 H          2.9938699765        2.6910877421       -1.0167400644
 H          4.5379915175        0.9327780666       -1.2504496898
  31
        -59.64042533
 O         -2.1153234650       -0.4070115627        1.3515116949
 O         -1.7887108838        2.6640477691        0.2783251194
 O         -4.0065866107        1.4352550796       -0.3831489340
 O         -1.1658226480       -1.4264700281       -1.3639533842
 O          4.4347457384       -1.4542013530       -0.2772968972
 N          0.1512209538       -0.1684134252        0.8572246322
 N          1.6607137106       -1.7991684690        1.0891588428
 N          1.4587828889        1.3807471336       -0.5091979480
 N          3.5983937797        0.5374316884       -0.9707679319
 C         -1.5622663483        1.3510686154       -0.1516562632
 C         -1.1135601724        0.5204565297        1.0708928561
 C         -2.8734604425        0.6538044168       -0.6214741628
 C         -2.8746066386       -0.6681592106        0.1727760390
 C         -2.3188835178       -1.8348639046       -0.6531074273
 C          1.2575724113        0.2297772674        0.1757733070
 C          0.4623111561       -1.3886434237        1.3819535556
 C          2.1980769962       -0.7997617894        0.3261805390
 C          3.4886665549       -0.6767034949       -0.2855959459
 C          2.6265944504        1.4741800191       -1.0498449639
 H         -0.7980857937        1.3027503605       -0.9296246725
 H         -1.0034821903        1.1790717918        1.9439857452
 H         -2.8571914781        0.4548901171       -1.6941973256
 H         -3.8804471060       -0.9248312841        0.5139245651
 H         -2.0788184999       -2.6618265910        0.0266205166
 H         -3.1041469437       -2.1537988312       -1.3470415143
 H         -1.8802552115        3.2500721127       -0.4870525706
 H         -3.8890096879        1.9194392074        0.4507650721
 H         -0.2350942612       -1.9372980680        1.9814142246
 H         -0.9318906338       -2.1190965044       -1.9965944067
 H          2.8472511728        2.3690242331       -1.6110011497
 H          4.4900347376        0.6955978028       -1.4297492057
  31
        -59.64034107
 O         -1.8130948201       -0.6141808973        1.2019268532
 O         -1.8871196334        2.7108992065        0.5893242788
 O         -3.9759423505        1.2646002155       -0.1712670171
 O         -2.5380012687       -1.7959309950       -2.2160511750
 O          4.6893592105       -0.9265997241        0.0838931798
 N          0.3626022578        0.2662052068        1.1695446893
 N          2.3373713859       -0.3364827729        2.0317736556
 N          0.9501233570        0.1987367377       -1.2070763545
 N          3.1831563629       -0.4298903652       -1.5389194483
 C         -1.5379999335        1.4652519957        0.0520150036
 C         -1.0545330071        0.5682601073        1.2088217735
 C         -2.7533250184        0.6950988287       -0.5401744882
 C         -2.5512604629       -0.7354663425       -0.0119380719
 C         -1.8108853162       -1.6220794360       -1.0288788467
 C          1.2047248508        0.0615306321        0.1166312389
 C          1.1097108741       -0.0007703523        2.2849343443
 C          2.4377656023       -0.3086382388        0.6676214834
 C          3.5483719293       -0.5891073871       -0.1970280664
 C          1.9596059269       -0.0591280880       -1.9707838266
 H         -0.7494078168        1.5593012585       -0.7008743002
 H         -1.2279338391        1.0789357539        2.1661368721
 H         -2.7438837250        0.6956290126       -1.6321252569
 H         -3.5105138589       -1.1915802885        0.2542106491
 H         -0.8759570262       -1.1354559682       -1.3182374424
 H         -1.5774211695       -2.5826457136       -0.5524755975
 H         -2.2511257362        3.2745701230       -0.1098003239
 H         -3.9925401801        1.4222574693        0.7849139954
 H          0.7010048581        0.0702356545        3.2722721448
 H         -3.3448094264       -2.3005751249       -2.0388124999
 H          1.8120482731        0.0295113334       -3.0362321819
 H          3.9205483899       -0.6145616347       -2.2122701265
  31
        -59.64030225
 O         -2.1427896525       -0.6597640532        1.0967154305
 O         -2.4613670143        2.3984235000        1.2532660364
 O         -3.2668804556        1.6254568412       -1.1735570780
 O         -0.7298832139       -1.4903850699       -1.4008881062
 O          4.2982736636       -1.3570859640       -0.4271392986
 N          0.1448059878       -0.1658656667        1.1934769994
 N          1.8390443993       -1.6034802199        1.4531027509
 N          1.0397623195        1.1426699862       -0.6742855383
 N          3.1471208285        0.3658240713       -1.3508423344
 C         -1.5556780870        1.5651836262        0.5909451652
 C         -1.2026685290        0.3243853814        1.4310838815
 C         -2.1518693499        0.9298905578       -0.6922653689
 C         -2.6016323896       -0.4740995706       -0.2415702936
 C         -2.1218378553       -1.5928020826       -1.1693963090
 C          1.0716351766        0.1518823826        0.2479938075
 C          0.6663601996       -1.2345327115        1.8695874179
 C          2.1323306067       -0.7473173775        0.4269601394
 C          3.2846485720       -0.6702357589       -0.4218634806
 C          2.0824868320        1.1927109198       -1.4333938523
 H         -0.6676810301        2.1621274542        0.3833822052
 H         -1.3039548450        0.5195213795        2.5052086850
 H         -1.3634797778        0.8400253738       -1.4475974984
 H         -3.6969659295       -0.5131400988       -0.2120072228
 H         -2.3616388082       -2.5501610264       -0.6923605200
 H         -2.6746276643       -1.5028579281       -2.1120405877
 H         -3.3661933217        2.0783531622        1.1071757819
 H         -2.9867195563        2.4754450355       -1.5433025050
 H          0.1318443620       -1.7108304865        2.6663291182
 H         -0.4769815500       -2.1990957478       -2.0078904569
 H          2.1087920792        1.9588133378       -2.1931302410
 H          3.9258108895        0.4784578043       -1.9925180161
  31
        -59.64029882
 O         -1.6321524474       -0.0414742540        1.3115373542
 O         -1.8400943208        1.8734078852       -1.6516418360
 O         -3.8098973291        1.7694545879        0.1105229382
 O         -2.6804798913       -2.2243152535       -0.5027105327
 O          4.7370443181       -1.2760285391       -0.2743110335
 N          0.2816692324       -0.1002545327       -0.0073390890
 N          1.6616421992       -1.7888069943       -0.4850261773
 N          1.9180611102        1.6159332209        0.5408286991
 N          4.1136356877        0.8153392928        0.3491529366
 C         -1.9021458987        0.6703827680       -0.9461495580
 C         -0.9445211879        0.6067921189        0.2716622302
 C         -3.2872965677        0.5316564670       -0.2835564876
 C         -2.9877746848       -0.3167116904        0.9560307396
 C         -3.2273668266       -1.8140366479        0.7348021466
 C          1.5459074777        0.3707194399        0.1661368956
 C          0.4230447723       -1.4057623124       -0.3868658716
 C          2.4048249445       -0.6904721652       -0.1433692428
 C          3.8223476180       -0.4929838098       -0.0547656695
 C          3.1971679245        1.7730702931        0.6167906361
 H         -1.7278929810       -0.2005636795       -1.5860083772
 H         -0.6547949986        1.6193672116        0.5872520992
 H         -3.9895245066        0.0212700153       -0.9550138975
 H         -3.6059459078        0.0194605183        1.7942290113
 H         -2.7550666950       -2.3569218166        1.5622374572
 H         -4.3083963988       -1.9864812777        0.7536493063
 H         -1.1422126881        1.8536144734       -2.3191014502
 H         -3.5712238580        2.4272377515       -0.5636600799
 H         -0.4238945375       -2.0341782341       -0.5769390349
 H         -2.9761719057       -3.1269212342       -0.6888523443
 H          3.5661577003        2.7424406577        0.9142633608
 H          5.1024841850        1.0267806258        0.4401826272
  31
        -59.64024422
 O         -1.7532520041       -0.6059740589        1.1991573727
 O         -1.7506280011        2.7299387155        0.1156840881
 O         -3.9534455919        1.2565766686        0.1348017200
 O         -2.8614258065       -1.8872892055       -2.0311635858
 O          4.7735371994       -0.6921700623        0.1617503247
 N          0.3830524140        0.3726384087        1.1155522614
 N          2.4126704974        0.1080787886        2.0190750794
 N          0.9366385424       -0.1449203884       -1.2141384990
 N          3.2090565426       -0.6550199951       -1.4812730990
 C         -1.5501070584        1.3740588534       -0.1342774477
 C         -1.0428775567        0.6096318348        1.1164196476
 C         -2.8615281501        0.6221996579       -0.4762024182
 C         -2.5870552374       -0.7856861990        0.0544617548
 C         -1.9272058707       -1.6859275707       -0.9958601332
 C          1.2212693062        0.0177884652        0.1002517368
 C          1.1668792084        0.3993152721        2.2368356441
 C          2.4881548129       -0.1402854700        0.6760854748
 C          3.6050419156       -0.5072670642       -0.1469572022
 C          1.9526168328       -0.4762807651       -1.9400182836
 H         -0.8213522522        1.2721060473       -0.9420164182
 H         -1.2440050090        1.1933356723        2.0258434090
 H         -3.0692572408        0.6159648709       -1.5465441842
 H         -3.5074187281       -1.2688589687        0.3967432241
 H         -1.0161074141       -1.2027447565       -1.3679651290
 H         -1.6594918672       -2.6340844305       -0.5116601374
 H         -2.7107772998        2.8742962995        0.2283102617
 H         -4.0000035840        1.0120614947        1.0710749294
 H          0.7726975058        0.6457693865        3.2017276120
 H         -2.4600330489       -2.4336186517       -2.7210625023
 H          1.7832558647       -0.6194309226       -2.9963072831
 H          3.9500174609       -0.9132053361       -2.1261796769
  31
        -59.64024384
 O         -1.6406599175       -0.2038282667        1.2898555706
 O         -1.4922401552        1.8808938626       -1.5755384801
 O         -3.6693511310        1.7552121563       -0.0170356716
 O         -4.4140521682       -2.2198617938       -0.0767356626
 O          4.8909144345       -1.0677021654       -0.4044781151
 N          0.3869899246       -0.1969419833        0.1124325012
 N          1.8504157632       -1.7938600065       -0.4284019893
 N          1.9297355565        1.6263300987        0.5700448795
 N          4.1601277984        0.9810498515        0.2430414063
 C         -1.7083863489        0.6685288602       -0.9338220088
 C         -0.8542508920        0.4934325187        0.3536539095
 C         -3.1483336011        0.5086693998       -0.3886590069
 C         -2.9501399173       -0.4631278389        0.7761233254
 C         -3.1049477327       -1.9305554574        0.3336970012
 C          1.6246864815        0.3591488064        0.2091947629
 C          0.5956755348       -1.4908733532       -0.2727303874
 C          2.5352485249       -0.6450514123       -0.1368012684
 C          3.9388642083       -0.3483678758       -0.1350037434
 C          3.1971910914        1.8726122280        0.5677361782
 H         -1.4644862114       -0.1355387350       -1.6366862677
 H         -0.5613004917        1.4731220427        0.7576490905
 H         -3.8305251805        0.1034316691       -1.1383378870
 H         -3.6532799267       -0.2580660945        1.5906589915
 H         -2.4743080765       -2.1243183578       -0.5369346447
 H         -2.7795037683       -2.5806495864        1.1540121922
 H         -2.2014357639        2.4981423058       -1.3105508403
 H         -3.2797231012        2.0483241653        0.8206637303
 H         -0.2034809081       -2.1895965685       -0.4100748568
 H         -5.0124887709       -2.2048605146        0.6840293375
 H          3.5154333661        2.8652832299        0.8464290093
 H          5.1348212017        1.2646165469        0.2653270034
  31
        -59.64015968
 O         -1.7297320521       -0.3994801198        1.0459718059
 O         -1.4098715377        1.9741530856       -1.6139980370
 O         -3.5035670482        1.9585786434        0.0138349697
 O         -3.5078879340       -2.7123838887        1.1761450409
 O          4.8393895052       -1.0178965126       -0.5152168831
 N          0.3260211438       -0.1902008403       -0.0233899514
 N          1.8001597096       -1.7032854468       -0.7454626409
 N          1.8598784195        1.5356944994        0.7415328776
 N          4.0973458234        0.9238591482        0.3960521670
 C         -1.7412024992        0.7668149814       -1.0210794040
 C         -0.9301405083        0.4474621644        0.2616595407
 C         -3.1891654961        0.6892482107       -0.4956568580
 C         -3.0931904915       -0.3856059097        0.5986083961
 C         -3.4900426387       -1.7886044852        0.1195541391
 C          1.5605953205        0.3361152032        0.1937170651
 C          0.5423732348       -1.4143284961       -0.5893087599
 C          2.4784657312       -0.6158268376       -0.2650918124
 C          3.8824229643       -0.3356214267       -0.1754771497
 C          3.1277456892        1.7681051958        0.8146083116
 H         -1.5594923507       -0.0175602736       -1.7628632007
 H         -0.6911348012        1.3738208131        0.8039234935
 H         -3.8834542817        0.3959524882       -1.2887296864
 H         -3.7067772717       -0.1220539782        1.4676377347
 H         -4.5055052600       -1.7726367294       -0.2801443418
 H         -2.7986087665       -2.1149210582       -0.6694851901
 H         -1.8673603172        2.6876027641       -1.1340642734
 H         -4.4506304942        2.0282295431        0.1958458594
 H         -0.2554599232       -2.0742822109       -0.8624113411
 H         -2.6558838670       -2.6812992326        1.6348886424
 H          3.4405154844        2.7077840457        1.2428167153
 H          5.0721277497        1.1928477605        0.4890255470
  31
        -59.64011731
 O         -1.7246815221       -0.0493519237        1.2806357742
 O         -2.2373570417        2.5128360700       -0.4501928343
 O         -3.9314749366        0.7227818886       -1.4458393170
 O         -2.6298575299       -2.5586346875        0.4390418793
 O          4.6670230001       -1.3163955846       -0.6629669854
 N          0.3025635554       -0.0268573507        0.1139781174
 N          1.5607824841       -1.6808855165       -0.6992102013
 N          2.0529522492        1.5369993847        0.7518202260
 N          4.1882475100        0.6915727925        0.2798238916
 C         -1.6495641251        1.2685708665       -0.7030668351
 C         -0.8543602276        0.7431322378        0.5156251210
 C         -2.7922412239        0.2364845164       -0.8165442325
 C         -3.0060662476       -0.1564302822        0.6582404717
 C         -3.5582036249       -1.5760052849        0.8304387796
 C          1.5980087822        0.3692993735        0.2419329303
 C          0.3517143734       -1.2674024014       -0.4597901150
 C          2.3796614632       -0.6710045852       -0.2714909691
 C          3.8085295857       -0.5392735814       -0.2697272767
 C          3.3409043278        1.6355422065        0.7458588314
 H         -1.0222603060        1.2891732147       -1.6002877544
 H         -0.4718540710        1.5677289774        1.1309910445
 H         -2.4658918412       -0.6405170495       -1.3838963500
 H         -3.6933903278        0.5605793352        1.1271592355
 H         -3.8667881337       -1.7255421382        1.8696777158
 H         -4.4257601910       -1.6836337072        0.1759800829
 H         -1.5977673234        3.2293605588       -0.5616243108
 H         -4.0715794759        1.6413719188       -1.1580743920
 H         -0.5280441861       -1.8420389404       -0.6700565174
 H         -1.9390592015       -2.6069016240        1.1148350728
 H          3.7761953086        2.5405561722        1.1405948306
 H          5.1898507342        0.8538786679        0.3158820472
  31
        -59.64010750
 O         -1.8626293770       -0.7400825717        0.8134126889
 O         -1.6752567828        2.7689936851        0.7027610061
 O         -3.9524990870        1.4805856369        0.2323978699
 O         -2.0179141724       -2.6046600583       -1.4492941407
 O          4.6939442311       -0.7885742534        0.0774744467
 N          0.2933294576        0.1402475544        1.1203856881
 N          2.2831942588       -0.3773467558        2.0004081984
 N          0.9165951747        0.1593755067       -1.2462957941
 N          3.1852013805       -0.3386992983       -1.5573636730
 C         -1.5317879334        1.5195190530        0.1045460364
 C         -1.1241818881        0.4193093646        1.1168041836
 C         -2.8573437701        0.9691221769       -0.4787649804
 C         -2.6871906293       -0.5449462294       -0.3453489366
 C         -2.0566286012       -1.2026478181       -1.5794895322
 C          1.1620498112        0.0102462750        0.0773011953
 C          1.0357054064       -0.1124833326        2.2414958691
 C          2.4034198650       -0.3106351785        0.6394157115
 C          3.5400209029       -0.5088180006       -0.2139159007
 C          1.9491292507       -0.0266416727       -2.0000739088
 H         -0.7708097920        1.5888608271       -0.6771639088
 H         -1.3658836414        0.7356288413        2.1418040699
 H         -2.9974005648        1.2815532485       -1.5138588114
 H         -3.6379635115       -1.0448381202       -0.1312768796
 H         -2.6722125067       -1.0012715012       -2.4571908959
 H         -1.0493978488       -0.7965241733       -1.7362161109
 H         -2.6305074661        2.9422473182        0.8135252496
 H         -4.0586530071        1.0096538819        1.0724580046
 H          0.6120181276       -0.0857808446        3.2248304519
 H         -1.5794231557       -2.8261305231       -0.6157057664
 H          1.8122374784        0.0762053221       -3.0656717466
 H          3.9413658867       -0.4648271542       -2.2232457717
  31
        -59.64008590
 O         -2.1590356144       -0.6271639098        1.1409068173
 O         -2.5935756559        2.3035046833        1.1643640937
 O         -3.0800483974        1.6597316857       -1.3515513621
 O         -0.8089365068       -1.5974787133       -1.3073255307
 O          4.2514687093       -1.4067013660       -0.5325231097
 N          0.1373711681       -0.1810108474        1.1611971170
 N          1.7439005390       -1.7338475151        1.2724635064
 N          1.1528868132        1.2993354094       -0.5038496281
 N          3.2217094556        0.4840726621       -1.2480969623
 C         -1.5543082931        1.5669154595        0.5737470622
 C         -1.1932318330        0.3437477982        1.4322061653
 C         -2.1117757782        0.8982649419       -0.7039723534
 C         -2.6350655464       -0.4681944351       -0.1957186009
 C         -2.2071106212       -1.6342028547       -1.0894740077
 C          1.1035577901        0.1960323145        0.2797138126
 C          0.5829040789       -1.3525161641        1.7096126521
 C          2.1079291603       -0.7785073770        0.3635297581
 C          3.2795065953       -0.6664179285       -0.4545208697
 C          2.2128383867        1.3815396209       -1.2362649690
 H         -0.6828380080        2.1823977660        0.3514817883
 H         -1.2666158247        0.5458980299        2.5072782005
 H         -1.2965821524        0.7333535832       -1.4138534099
 H         -3.7294685770       -0.4593507769       -0.1453108416
 H         -2.4917581232       -2.5699204903       -0.5941825474
 H         -2.7464612531       -1.5395237346       -2.0391844369
 H         -2.2389046592        2.9926146163        1.7419391868
 H         -3.5926671339        2.1334845270       -0.6728214811
 H          0.0013252776       -1.8906481716        2.4303296218
 H         -0.5804200782       -2.3164553297       -1.9115482592
 H          2.3019104348        2.2370258026       -1.8881456620
 H          4.0170607695        0.6265585051       -1.8628344725
  31
        -59.64006162
 O         -2.1890903054       -0.5903238040        1.1597223129
 O         -2.5453798692        2.3546046594        1.1696822476
 O         -3.0776467813        1.6504709298       -1.3588945797
 O         -0.7798539783       -1.6085863237       -1.2713944960
 O          4.2510357655       -1.4016764010       -0.5278609389
 N          0.1224770168       -0.1908925012        1.1384218664
 N          1.7220750532       -1.7499560384        1.2439800080
 N          1.1528329299        1.3056450194       -0.5011977825
 N          3.2312142863        0.4999326353       -1.2293265546
 C         -1.5561119130        1.5698012559        0.5641221311
 C         -1.1903320629        0.3586472786        1.4280227004
 C         -2.0974187594        0.8925732350       -0.7172814075
 C         -2.6275884690       -0.4679091760       -0.1978732106
 C         -2.1776982856       -1.6519720012       -1.0560246124
 C          1.0977976082        0.1956862653        0.2716420793
 C          0.5591266382       -1.3703273232        1.6768032096
 C          2.0978293197       -0.7834080773        0.3518067186
 C          3.2790418794       -0.6613318691       -0.4510811538
 C          2.2211648204        1.3965236492       -1.2200410461
 H         -0.7095862077        2.2230562820        0.3614469361
 H         -1.2357198022        0.5796454526        2.5015279554
 H         -1.2768324389        0.7190085284       -1.4201076361
 H         -3.7230650484       -0.4691300604       -0.1808822434
 H         -2.4555904255       -2.5770296748       -0.5368866930
 H         -2.7149131531       -1.5887570211       -2.0095645298
 H         -3.2331894204        1.7855893577        1.5498498734
 H         -3.3798652709        2.3408611663       -0.7396752817
 H         -0.0296966197       -1.9158390038        2.3860733886
 H         -0.5456537952       -2.3312289416       -1.8687686471
 H          2.3168770112        2.2584876398       -1.8623536260
 H          4.0348275486        0.6513446371       -1.8310182708
  31
        -59.64002061
 O         -1.5327407638       -0.0390960024        1.3598685096
 O         -1.8279823510        2.2517359517       -1.3508155049
 O         -4.0392732361        1.2927668920       -0.2179579142
 O         -1.8254432206       -2.2328651561       -0.8016886929
 O          4.7960057330       -0.3343190337       -0.0525298126
 N          0.4114346873        0.9680900793        0.5652240835
 N          2.5328331943        1.6215657210        0.8175529110
 N          0.8007872818       -1.2423250781       -0.4011462892
 N          3.0840771660       -1.7102808008       -0.6239687379
 C         -1.6981568758        0.9930895581       -0.7727497816
 C         -1.0240236301        1.0407382558        0.6216565680
 C         -3.0541503795        0.3221617828       -0.4486346380
 C         -2.7308455865       -0.5613479408        0.7624755995
 C         -2.5485863012       -2.0417703933        0.3844582246
 C          1.1904168489       -0.0511613820        0.1094708362
 C          1.2832623380        1.9371385790        0.9762810390
 C          2.5166740882        0.3665962983        0.2740156149
 C          3.5877384931       -0.5062772900       -0.1133368940
 C          1.7773146140       -2.0177902640       -0.7442076439
 H         -1.1047095942        0.3549652703       -1.4354647747
 H         -1.2579866248        1.9972088188        1.1162925637
 H         -3.4077924734       -0.2755649468       -1.2905123498
 H         -3.5220345084       -0.4976981752        1.5183651821
 H         -2.0678801944       -2.5491107085        1.2291713198
 H         -3.5333034341       -2.4816260733        0.2131674438
 H         -2.7605989111        2.5294251131       -1.2608559645
 H         -3.9492081005        1.6704104629        0.6695855661
 H          0.9514921946        2.8706819331        1.3830463989
 H         -0.9056257620       -1.9254758276       -0.6641937563
 H          1.5252911058       -2.9816730279       -1.1598252362
 H          3.7878215661       -2.3806361277       -0.9187488514
  31
        -59.63997929
 O         -1.7970853002       -0.4001408895        1.3810399813
 O         -2.1383799482        2.4002602017        0.1866020170
 O         -3.2871862465        0.8074191649       -1.6610526977
 O         -4.5253527326       -1.9341695864       -0.5182992369
 O          4.7300218818       -1.1535173643       -0.6744110748
 N          0.4039130404       -0.2011857318        0.6216169678
 N          1.7922074030       -1.8716239463        0.1135660519
 N          1.9132315785        1.6853584509        0.3187395749
 N          4.0551434156        0.9860401321       -0.3314859586
 C         -1.3587049630        1.3093538127       -0.2061365413
 C         -0.8076640372        0.5091787620        0.9966134069
 C         -2.3070327082        0.2687645382       -0.8364129990
 C         -2.8522221631       -0.4435659150        0.4184713674
 C         -3.2979303212       -1.8856932630        0.1601858571
 C          1.6017276367        0.3678350363        0.3189422353
 C          0.5873262339       -1.5458149349        0.4793376298
 C          2.4659129651       -0.6863249316        0.0006973962
 C          3.8232323522       -0.3945193334       -0.3631547121
 C          3.1396777084        1.9260425476       -0.0083305022
 H         -0.5508880765        1.6066432838       -0.8812365645
 H         -0.5659485611        1.1618603937        1.8448836560
 H         -1.7288034810       -0.4377584692       -1.4433296759
 H         -3.7091377545        0.1204629512        0.8136211204
 H         -2.5183729637       -2.4225033014       -0.3988243896
 H         -3.4536500032       -2.3880043499        1.1173235510
 H         -1.5814965110        3.1562834218        0.4183717663
 H         -3.6030318509        1.6362804240       -1.2624339508
 H         -0.1973237017       -2.2473501328        0.6745275300
 H         -4.4570990416       -1.4326591827       -1.3450150158
 H          3.4602522551        2.9562520490       -0.0270848877
 H          4.9992551255        1.2678963913       -0.5769879569
  31
        -59.63995041
 O         -1.8514196025       -0.4069875323        1.4092186505
 O         -2.1895044724        2.4096342325        0.3573188143
 O         -3.1756102584        0.9073423242       -1.6591210326
 O         -4.2849237868       -1.9985665739       -0.8239785179
 O          4.6630281295       -1.1940441015       -0.6546409113
 N          0.3758760531       -0.1941762149        0.7315518391
 N          1.7817440766       -1.8803029895        0.3318110587
 N          1.8319325047        1.6810294476        0.1771714701
 N          3.9581325776        0.9575669020       -0.4979695254
 C         -1.3502949351        1.3745646238       -0.0654994372
 C         -0.8416825748        0.5101508442        1.1089982657
 C         -2.2253965795        0.3477482752       -0.8135046868
 C         -2.8175860581       -0.4653806463        0.3570101557
 C         -3.1405064960       -1.9156181276       -0.0155685071
 C          1.5465223622        0.3649037908        0.3212504990
 C          0.5869119115       -1.5427359647        0.7184409262
 C          2.4209938251       -0.6995359956        0.0713335286
 C          3.7546375850       -0.4226624928       -0.3809288694
 C          3.0371007661        1.9087658045       -0.2284086276
 H         -0.5197287117        1.7441198982       -0.6722448497
 H         -0.6310134977        1.1072213614        2.0047179145
 H         -1.5886070466       -0.2973582898       -1.4302790038
 H         -3.7396133003        0.0182443545        0.7083866923
 H         -2.2734590099       -2.3741993607       -0.5126553123
 H         -3.3633587132       -2.4788694405        0.8930850288
 H         -1.6725602583        3.1694576965        0.6587683624
 H         -3.5481082436        1.6937863831       -1.2253013936
 H         -0.1733547700       -2.2354330491        1.0153157672
 H         -4.1700589227       -1.4348967130       -1.6041380030
 H          3.3333810678        2.9374389913       -0.3642944195
 H          4.8845030624        1.2297869307       -0.8121670681
  31
        -59.63994478
 O         -1.5703430933       -0.7651237838        1.0752272134
 O         -2.4690427764        2.2942120915        1.1282612813
 O         -3.2588341733        1.3803551745       -1.2188886653
 O         -3.3547566219       -1.7588501302       -1.9605155724
 O          4.7975407401       -0.5274791050       -0.1075307316
 N          0.4794993311        0.3190033636        1.2888954104
 N          2.6023269805        0.2020327714        1.9768848249
 N          0.8085984114       -0.2219410838       -1.0722596567
 N          3.0645029789       -0.6244532199       -1.5696883945
 C         -1.5215049195        1.5341590925        0.4351366383
 C         -0.9546985637        0.4600922399        1.3846165982
 C         -2.1490182025        0.7040274698       -0.7004151524
 C         -2.4974976327       -0.6208904217        0.0046350291
 C         -2.3996508226       -1.8312010783       -0.9313656846
 C          1.2265495742       -0.0077030497        0.1965319965
 C          1.3696926988        0.4213741328        2.3210759559
 C          2.5534562257       -0.0776561787        0.6383320868
 C          3.5941302714       -0.4130269802       -0.2913339713
 C          1.7574405697       -0.5238231418       -1.8945536717
 H         -0.7166454325        2.1827564149        0.0627374288
 H         -1.1802848203        0.7363968140        2.4231582574
 H         -1.3894324950        0.5179347460       -1.4674272705
 H         -3.5119562542       -0.5433626664        0.4252363474
 H         -1.4161955174       -1.8249603570       -1.4079888170
 H         -2.4970982710       -2.7481571915       -0.3426218571
 H         -3.1466234663        2.5794393396        0.4903674523
 H         -3.5827582547        0.9023220087       -1.9956315835
 H          1.0618924714        0.6690919113        3.3165424508
 H         -4.2182822207       -2.0361168260       -1.6237122294
 H          1.4859255279       -0.7086839393       -2.9228033365
 H          3.7440697555       -0.8702586223       -2.2833023088
  31
        -59.63990336
 O         -1.7471958487       -0.3617004056        1.3590936476
 O         -2.1325640747        2.3897796080        0.0150300061
 O         -3.4103437929        0.7008867660       -1.6495791733
 O         -4.6493211959       -1.8973906340       -0.2593375841
 O          4.7764597664       -1.1411054112       -0.6790073326
 N          0.4207450019       -0.1815336031        0.5079291897
 N          1.7869518434       -1.8406132652       -0.0895447211
 N          1.9896300810        1.6778175634        0.4473198660
 N          4.1415857026        0.9766587365       -0.1665214574
 C         -1.3925112883        1.2604180104       -0.3427811846
 C         -0.7848933079        0.5349599348        0.8815291220
 C         -2.3905168769        0.1995257043       -0.8499260394
 C         -2.8699312696       -0.4195257382        0.4786889786
 C         -3.3804785379       -1.8560173184        0.3384781932
 C          1.6457133462        0.3757940802        0.3112650425
 C          0.5750756859       -1.5127130874        0.2502788595
 C          2.4959050449       -0.6707095768       -0.0640445308
 C          3.8758815277       -0.3874157236       -0.3384581907
 C          3.2363408298        1.9104004656        0.2007925857
 H         -0.6188336394        1.4960227893       -1.0806807125
 H         -0.5123653861        1.2421059295        1.6752508553
 H         -1.8590369669       -0.5546012738       -1.4418032791
 H         -3.6781093502        0.1988624982        0.8955446534
 H         -2.6577948811       -2.4549994961       -0.2334344032
 H         -3.4909856781       -2.2945761367        1.3324037518
 H         -1.5514293412        3.1424297132        0.1916107165
 H         -3.6909767784        1.5596601761       -1.2898886157
 H         -0.2333936372       -2.2071750675        0.3493463583
 H         -4.6168028853       -1.4443937058       -1.1159354571
 H          3.5837165620        2.9279468635        0.2923762521
 H          5.1035828555        1.2509039722       -0.3410373405
  31
        -59.63979377
 O         -1.5146227826       -0.2270228562        1.2053331597
 O         -2.0318666132        2.3104710965       -0.7324637238
 O         -3.9283789058        0.5700428916       -1.3076239295
 O         -4.7208206944       -1.7093373532        0.4395928450
 O          4.9280362562       -1.1251202818       -0.5558454822
 N          0.4761421053       -0.0577598795        0.0285666522
 N          1.8526993234       -1.6339923838       -0.7496590441
 N          2.1170898510        1.5652442591        0.7995898761
 N          4.3112339400        0.8343658455        0.4098487546
 C         -1.6024296193        0.9876383489       -0.8545803807
 C         -0.7458535005        0.6191946730        0.3793569511
 C         -2.7746085591       -0.0109317338       -0.7798960524
 C         -2.8497083036       -0.3002359729        0.7290312109
 C         -3.4470943105       -1.6698215421        1.0403696543
 C          1.7418643910        0.3950581701        0.2359750535
 C          0.6160905203       -1.2816159643       -0.5628142329
 C          2.5978936514       -0.5954812771       -0.2590832445
 C          4.0171887075       -0.3975006437       -0.1859336413
 C          3.3972131484        1.7237381023        0.8586316696
 H         -1.0198334177        0.8623595378       -1.7786529836
 H         -0.4603737902        1.5342395163        0.9149066855
 H         -2.5136785669       -0.9305795972       -1.3230404765
 H         -3.4578986130        0.4842837617        1.2028612649
 H         -2.7898611820       -2.4473507555        0.6293027402
 H         -3.5044919362       -1.7946975836        2.1262969551
 H         -2.9013165504        2.3833691012       -1.1648267817
 H         -4.6839077095       -0.0052663154       -1.1092637800
 H         -0.2241698838       -1.8871692312       -0.8331110724
 H         -5.1716487947       -2.5287067216        0.6868979303
 H          3.7686136233        2.6361522789        1.2990157939
 H          5.3010073140        1.0443053467        0.4967948434
  31
        -59.63977981
 O         -1.7241780130       -0.8864509157        0.6187693248
 O         -2.4899959302        2.0192231056        1.6644018026
 O         -3.2039108679        1.9878051255       -0.8442446913
 O         -2.7333274470       -2.4997255745       -1.5659244743
 O          4.7227225840       -0.6044486948       -0.1319464338
 N          0.3572128919       -0.0646820168        1.2717655311
 N          2.4268639967       -0.5323548043        1.9733925628
 N          0.8148284815        0.2355694524       -1.1103305731
 N          3.0820516301       -0.0886114168       -1.6116606211
 C         -1.5371168457        1.4809700902        0.7953216372
 C         -1.0755932494        0.1188531072        1.3463827408
 C         -2.1263510075        1.1325564087       -0.5881663127
 C         -2.5244054541       -0.3486210695       -0.4383956057
 C         -2.2810772978       -1.1760939112       -1.7029436533
 C          1.1604258295       -0.0290242887        0.1710152503
 C          1.1835622488       -0.3778743605        2.3146638275
 C          2.4532838697       -0.3230105482        0.6213509320
 C          3.5378322827       -0.3675046026       -0.3177798296
 C          1.8025184929        0.1882483685       -1.9414507381
 H         -0.6842615607        2.1677865708        0.7035223722
 H         -1.3506629270        0.0412687522        2.4063979640
 H         -1.3385668088        1.2246120015       -1.3431492232
 H         -3.5788479286       -0.4237358475       -0.1378622806
 H         -2.8422493158       -0.7550281643       -2.5385962596
 H         -1.2074421590       -1.1493980703       -1.9315764994
 H         -3.1458209331        2.5002368528        1.1292056052
 H         -3.4827999867        1.9129235867       -1.7660227196
 H          0.8224916000       -0.4764975212        3.3181513623
 H         -2.3149447914       -2.8870069009       -0.7843485893
 H          1.5896447702        0.3864599138       -2.9808936765
 H          3.7968478006       -0.1044878308       -2.3327914617
  31
        -59.63975850
 O         -1.5843328627       -0.4715021693        1.0139977619
 O         -1.6425469235        2.1111093526       -1.3602999029
 O         -4.0412497081        1.3996143050       -0.6248094414
 O         -3.6070171160       -2.4246621361        0.4497370869
 O          4.9379457453       -1.0085687194       -0.5274812044
 N          0.4196477555       -0.1729079950       -0.1018592922
 N          1.9006949870       -1.6266839924       -0.9229794625
 N          1.9447682059        1.4504899354        0.8761806371
 N          4.1859566406        0.8448407762        0.5452792040
 C         -1.7120855739        0.7647038417       -1.0176092978
 C         -0.8381157426        0.4263028056        0.2269405945
 C         -3.1427924467        0.3281363772       -0.5773693369
 C         -2.9536751947       -0.1163319138        0.8855648919
 C         -3.8254461205       -1.3111352536        1.2782628091
 C          1.6519091692        0.3135945325        0.2053729479
 C          0.6414215123       -1.3407446536       -0.7760997132
 C          2.5741481619       -0.6002261200       -0.3170300689
 C          3.9773970494       -0.3495496305       -0.1544081773
 C          3.2119708529        1.6578949876        1.0119879035
 H         -1.3602221615        0.1858666627       -1.8775197860
 H         -0.6151076133        1.3523173500        0.7787340248
 H         -3.4848453194       -0.5253251740       -1.1696071812
 H         -3.1856338543        0.7374993035        1.5379864955
 H         -3.6340536056       -1.5578766997        2.3277712425
 H         -4.8741098916       -1.0348297648        1.1569255953
 H         -2.4146474658        2.5642335017       -0.9673091034
 H         -4.4892019061        1.4270180513       -1.4821679646
 H         -0.1563119797       -1.9561726375       -1.1380348654
 H         -2.7126530782       -2.7553701439        0.6110919434
 H          3.5196609796        2.5478644676        1.5388656485
 H          5.1597869266        1.0892535806        0.6974131235
  31
        -59.63972443
 O         -1.8214531064       -0.0884078041        1.3988223061
 O         -2.2225632153        2.5411088215       -0.1204467503
 O         -3.6748681282        0.7974223384       -1.5473178275
 O         -2.7150985764       -2.5558929447       -0.2311853321
 O          4.5987635785       -1.3297626125       -0.6900578173
 N          0.2860133182       -0.0797058755        0.3796136714
 N          1.5311934458       -1.8019824564       -0.2958836803
 N          2.0096079673        1.6291724035        0.5439682454
 N          4.1211519818        0.7889751968       -0.0340279354
 C         -1.5433394462        1.3642321229       -0.4506403920
 C         -0.8639329195        0.7126975971        0.7752511918
 C         -2.6052539679        0.3042648749       -0.8096332669
 C         -2.9882569491       -0.2394607020        0.5819978684
 C         -3.4640509175       -1.7005710706        0.6025910027
 C          1.5627781734        0.3781410984        0.2845597344
 C          0.3353840809       -1.3964395061        0.0177702798
 C          2.3372275902       -0.7070396691       -0.1412517109
 C          3.7478518623       -0.5280719488       -0.3292150646
 C          3.2821730458        1.7682757913        0.3710072261
 H         -0.8246220536        1.5225891693       -1.2617018181
 H         -0.4980462110        1.4661695823        1.4840020741
 H         -2.1396917935       -0.4890821283       -1.4027346814
 H         -3.7804636894        0.3875772892        1.0125400520
 H         -3.3361668622       -2.0693253532        1.6235138311
 H         -4.5241393850       -1.7251027197        0.3411295839
 H         -1.6071576686        3.2817491360       -0.0310858200
 H         -3.9062133018        1.6763922457       -1.2022727104
 H         -0.5328627176       -2.0260418868        0.0137930473
 H         -3.1195686814       -2.5956031013       -1.1079752330
 H          3.7111717366        2.7397242549        0.5620618951
 H          5.1108230837        0.9881235019       -0.1424237064
  31
        -59.63966812
 O         -1.4980669178       -0.0393940160        1.3151834368
 O         -1.8244977448        2.1835139566       -1.4163831288
 O         -4.0042625361        1.3195442883       -0.1150579394
 O         -1.8472277333       -2.2794960071       -0.6729315795
 O          4.7995306586       -0.3137968462       -0.0073190652
 N          0.4016852827        0.9972678427        0.4837174478
 N          2.5148597118        1.6772345847        0.7247455485
 N          0.8119359871       -1.2584053978       -0.3592139974
 N          3.1003104120       -1.7267298849       -0.5240962236
 C         -1.7148046852        0.9184532444       -0.8326277187
 C         -1.0338325762        1.0353907161        0.5457493676
 C         -3.0814584419        0.3143625378       -0.4411057063
 C         -2.7422077786       -0.5323344417        0.7954108797
 C         -2.6147346838       -2.0284894865        0.4758041605
 C          1.1918333195       -0.0413717261        0.0949636642
 C          1.2617246546        1.9924501187        0.8546686335
 C          2.5131236427        0.3938720235        0.2504644500
 C          3.5929024854       -0.4942424241       -0.0738324415
 C          1.7963619307       -2.0465424143       -0.6460840098
 H         -1.1563771935        0.2104483078       -1.4520698450
 H         -1.3105076518        1.9999136320        1.0006095140
 H         -3.4883582393       -0.3188990866       -1.2390196658
 H         -3.5097908814       -0.3846495356        1.5629697655
 H         -2.1880392660       -2.5287531593        1.3527570196
 H         -3.6083117373       -2.4342579649        0.2766037535
 H         -1.9418404996        2.1034140274       -2.3743147513
 H         -3.7029840590        2.1514529012       -0.5234947738
 H          0.9172099371        2.9430389854        1.2077609633
 H         -0.9295829966       -1.9786591866       -0.5102448774
 H          1.5543627114       -3.0319879541       -1.0142475382
 H          3.8106855700       -2.4096657458       -0.7702353600
  31
        -59.63966378
 O         -2.0085690656       -0.4003626899        1.3720789243
 O         -1.8148867080        2.6889807957        0.4311205828
 O         -3.9040744319        1.3966760663       -0.4556856127
 O         -2.7298529639       -2.0524715681       -1.8478448539
 O          4.5610652708       -1.3536760910       -0.1958287401
 N          0.2593257334       -0.1035693339        0.9141365974
 N          1.8259212520       -1.6627341605        1.2504789138
 N          1.4947040833        1.3574943160       -0.6136887458
 N          3.6525074385        0.5460803126       -1.0404546309
 C         -1.4794020438        1.4212013513       -0.0628733964
 C         -1.0226263812        0.5578723459        1.1332012137
 C         -2.7251510295        0.6653781259       -0.6209538942
 C         -2.7180606003       -0.6617465946        0.1643791034
 C         -2.0587169883       -1.7949123948       -0.6439524047
 C          1.3425308803        0.2678827360        0.1769505349
 C          0.6232221849       -1.2652918422        1.5375576170
 C          2.3162496925       -0.7171140290        0.3931949213
 C          3.5928460547       -0.6087129968       -0.2528456617
 C          2.6502409404        1.4399828140       -1.1832507897
 H         -0.6835247377        1.4842052319       -0.8071940754
 H         -0.9377827171        1.1842284664        2.0316944989
 H         -2.6384753069        0.4634616133       -1.6913631563
 H         -3.7323631583       -0.9482254203        0.4562458418
 H         -1.0441538888       -1.5022304589       -0.9276718756
 H         -1.9947502034       -2.6915576323       -0.0154636876
 H         -1.9200660649        3.3099602915       -0.3045858131
 H         -3.8717519433        1.8612305321        0.3974760501
 H         -0.0468513803       -1.7825527539        2.1929925917
 H         -3.6110703058       -2.4093916921       -1.6645802549
 H          2.8296087856        2.2887588768       -1.8250205853
 H          4.5308566009        0.6907374822       -1.5289205961
  31
        -59.63962863
 O         -1.6688385773       -0.9290927208        0.5671637815
 O         -2.6370777756        1.8799160098        1.6521639179
 O         -3.0878166873        1.9918319607       -0.9703132853
 O         -2.9509588881       -2.4132248697       -1.6378325039
 O          4.7670641450       -0.4854727449       -0.1324474412
 N          0.3880626592       -0.0772525952        1.2730296920
 N          2.4808752279       -0.4195979010        1.9816121016
 N          0.8222334620        0.1340034616       -1.1227864951
 N          3.0977563597       -0.1172501871       -1.6249985012
 C         -1.5591869904        1.4333524180        0.8767648144
 C         -1.0510970256        0.0517494778        1.3553059730
 C         -2.0885517972        1.1263965236       -0.5430965386
 C         -2.5295476815       -0.3435422142       -0.4130656845
 C         -2.4135000496       -1.1170800974       -1.7244880885
 C          1.1843667543       -0.0560186746        0.1663413897
 C          1.2336580511       -0.3069847997        2.3237468628
 C          2.4911671923       -0.2712239587        0.6214213481
 C          3.5718054118       -0.3118316750       -0.3225720681
 C          1.8050861981        0.0886553547       -1.9584297879
 H         -0.7439575833        2.1615968639        0.8539851406
 H         -1.3180792965       -0.1142956822        2.4080948471
 H         -1.2700174087        1.1905931285       -1.2646168338
 H         -3.5635110917       -0.3958703126       -0.0437280152
 H         -2.9883955644       -0.5950762456       -2.4915075949
 H         -1.3561768479       -1.1477989579       -2.0166739971
 H         -2.3327871023        2.3942725129        2.4118805171
 H         -3.6881743550        2.1640835533       -0.2248108241
 H          0.8846989259       -0.3808855844        3.3337118846
 H         -2.4906633004       -2.8893978697       -0.9323468988
 H          1.5769282796        0.2291721508       -3.0039559173
 H          3.8081058114       -0.1395968295       -2.3503598313
  31
        -59.63960574
 O         -1.6199327280       -0.1055393275        1.1957812514
 O         -2.0034748325        2.4306496291       -0.9233995994
 O         -4.1428233097        0.9156873016       -1.0398797682
 O         -2.8762655288       -2.5350097429        0.4622245213
 O          4.7551836218       -1.2619480549       -0.5861205727
 N          0.3501470868       -0.0112895353       -0.0143196611
 N          1.6613634737       -1.6192698560       -0.8379329906
 N          2.0523720696        1.5031917151        0.8370493750
 N          4.2152286258        0.6850095056        0.4478491629
 C         -1.7077305521        1.0677053196       -0.8963566354
 C         -0.8468451017        0.7049430204        0.3426172550
 C         -2.9839957891        0.2026438934       -0.7195824488
 C         -2.9806891409       -0.1227434036        0.7819974765
 C         -3.5836827693       -1.4964691679        1.0943894919
 C          1.6320164297        0.3734699050        0.2247669418
 C          0.4394481652       -1.2166655640       -0.6531038173
 C          2.4475373826       -0.6370025588       -0.2980215593
 C          3.8730365638       -0.5080835038       -0.1992944486
 C          3.3373718858        1.5994784807        0.9179015880
 H         -1.1598248717        0.8134645058       -1.8122284222
 H         -0.5260934590        1.6212834744        0.8566631066
 H         -2.8972568745       -0.7294658042       -1.2872924390
 H         -3.5456473775        0.6545048987        1.3142440079
 H         -3.6056262017       -1.6394494860        2.1790202991
 H         -4.6023619634       -1.5283105600        0.7043757999
 H         -2.9700732466        2.5340209296       -0.8201971236
 H         -4.3557801881        0.8137833476       -1.9786695006
 H         -0.4254834840       -1.7701775420       -0.9589409616
 H         -2.0157054965       -2.6218724205        0.8947353663
 H          3.7446576064        2.4768027790        1.3961850415
 H          5.2122076348        0.8442946946        0.5554958713
  31
        -59.63960342
 O         -1.6440008195       -0.6826061901        0.7530868979
 O         -1.5076425557        2.2481158658       -1.1904200127
 O         -3.9644291809        1.4809399983       -0.6816288954
 O         -3.8939015947       -2.1329476759        1.9363492175
 O          4.9730594288       -0.9127502476       -0.5990192309
 N          0.4329889596       -0.2282016743       -0.1436113719
 N          1.9547682606       -1.5978832512       -1.0309911231
 N          1.9093046123        1.3903723267        0.9132504348
 N          4.1670210080        0.8664194431        0.5568084906
 C         -1.6200283268        0.8705840388       -1.0482926507
 C         -0.8452890035        0.3261101522        0.1892423012
 C         -3.0856773758        0.3996271615       -0.7927074360
 C         -3.0075399939       -0.3261131636        0.5633186522
 C         -3.8635838657       -1.5901913367        0.6429471686
 C          1.6499476532        0.2791050477        0.1879002616
 C          0.6876110579       -1.3544382562       -0.8742626645
 C          2.5982219581       -0.5825134474       -0.3756861953
 C          3.9934528357       -0.2997525938       -0.1979197699
 C          3.1699590812        1.6281680588        1.0600320213
 H         -1.2093619523        0.4196066776       -1.9566594954
 H         -0.6623020346        1.1469926041        0.8995598335
 H         -3.4025520551       -0.2999245299       -1.5722748142
 H         -3.3208596223        0.3768962905        1.3489068954
 H         -4.8961719936       -1.3378727344        0.3952127518
 H         -3.4813410127       -2.3241401948       -0.0785123840
 H         -2.2101496133        2.6747183225       -0.6647804026
 H         -4.2653110778        1.7637268167       -1.5578204316
 H         -0.0949275746       -1.9765486652       -1.2575327680
 H         -2.9881391611       -2.3338357088        2.2122815508
 H          3.4519251705        2.5012136376        1.6279790130
 H          5.1334192831        1.1304738227        0.7226361186
  31
        -59.63958783
 O         -1.7680899132       -0.8981258849        0.8116200535
 O         -2.3363356122        2.2372061105        1.4518726060
 O         -3.3197813601        1.7498702463       -0.9547711723
 O         -1.7152156205       -1.7240403703       -1.8994988546
 O          4.6398696911       -0.8716516166       -0.2274353373
 N          0.3502410782       -0.0768381902        1.2839674433
 N          2.3541221000       -0.8572099481        1.8915295381
 N          0.8503442151        0.5156986792       -1.0333981150
 N          3.0679254202        0.0145125683       -1.6035871856
 C         -1.4923793106        1.4719412905        0.6400114160
 C         -1.0638135296        0.1866880239        1.3781113002
 C         -2.2411598304        0.9314663406       -0.6028869360
 C         -2.7491909251       -0.4304654723       -0.1096540300
 C         -2.9221607172       -1.4597181725       -1.2292234670
 C          1.1581574680        0.0267648185        0.1900685716
 C          1.1324120650       -0.6237018275        2.2634439064
 C          2.4100507101       -0.4613060725        0.5821368900
 C          3.4872811096       -0.4876276718       -0.3663893503
 C          1.8287541186        0.4784307301       -1.8749478481
 H         -0.6122319660        2.0649531961        0.3671959575
 H         -1.3107817621        0.2730691274        2.4452430473
 H         -1.5326943648        0.7726979221       -1.4207665752
 H         -3.7083553336       -0.2894959103        0.4078338816
 H         -3.3402866986       -2.3795658005       -0.8046072622
 H         -3.6117446281       -1.0581736618       -1.9731055086
 H         -3.1439838884        2.4296999033        0.9359807283
 H         -3.0434170301        2.3995875038       -1.6165824292
 H          0.7561556957       -0.8271950882        3.2452498369
 H         -1.0944898811       -2.0898193011       -1.2550909964
 H          1.6435217347        0.8475059204       -2.8718514779
 H          3.7775269462        0.0184338320       -2.3300729749
  31
        -59.63958432
 O         -1.7344155794       -0.0094309676        1.3453506769
 O         -2.1146693739        2.5437402230       -0.4257645517
 O         -3.9122115676        0.8508730649       -1.3316288564
 O         -2.6680370436       -2.5055364630       -0.0193065243
 O          4.6420626209       -1.3429174178       -0.6249921265
 N          0.3002794314       -0.0168756596        0.2061918845
 N          1.5431931166       -1.7276649646       -0.5066722442
 N          2.0605384297        1.6028064270        0.6548527698
 N          4.1834271064        0.7342418943        0.1651840727
 C         -1.6453392031        1.2503473615       -0.6658973185
 C         -0.8633131683        0.7632533930        0.5690583948
 C         -2.7911339890        0.2249782110       -0.7759230095
 C         -2.9847360654       -0.2210353550        0.6878385094
 C         -3.4155694245       -1.6802737989        0.8494915992
 C          1.5939532053        0.3983617871        0.2535225612
 C          0.3399427723       -1.3015743065       -0.2572322356
 C          2.3665983383       -0.6780499548       -0.1994598712
 C          3.7923965371       -0.5389605346       -0.2646453393
 C          3.3455923215        1.7074115943        0.5897089290
 H         -1.0046849941        1.2385058641       -1.5596543335
 H         -0.5007418050        1.6225981826        1.1467523172
 H         -2.4587488377       -0.6275521233       -1.3775915172
 H         -3.7331108360        0.4264588710        1.1655906756
 H         -3.2450071665       -1.9576104075        1.8949952427
 H         -4.4855492882       -1.7572903591        0.6225523431
 H         -2.9476036539        2.6583856186       -0.9158987434
 H         -4.5590381072        0.1927119684       -1.6181951776
 H         -0.5456589602       -1.8939894115       -0.3740601170
 H         -2.8972239955       -3.4300266790        0.1487258240
 H          3.7882937563        2.6421919567        0.8968362246
 H          5.1839426304        0.9057566537        0.1461183694
  31
        -59.63957364
 O         -1.9433316479       -0.7801328201        0.7783082018
 O         -2.3393784926        2.2434977641        1.5839929832
 O         -3.3531189024        1.9134155263       -0.8447954316
 O         -2.2224709569       -2.5359397392       -1.5327758049
 O          4.5540481646       -0.9923128310       -0.2473945019
 N          0.2658585219       -0.1351253588        1.2346480255
 N          2.1908745496       -1.1361910167        1.7753777197
 N          0.8928576959        0.7462645592       -0.9582844349
 N          3.0996361848        0.1932494089       -1.5240897103
 C         -1.4883871458        1.5505233735        0.7123379950
 C         -1.1389601928        0.2044965252        1.3609164644
 C         -2.2027338173        1.1597419933       -0.6152953203
 C         -2.4752226514       -0.3535470733       -0.4796932607
 C         -1.8668527054       -1.1787718040       -1.6185142173
 C          1.1202307490        0.0680691607        0.1913418377
 C          0.9744459417       -0.8728991194        2.1436440460
 C          2.3224346791       -0.5575434441        0.5423778805
 C          3.4345473992       -0.5157108846       -0.3642119284
 C          1.9024969511        0.7698843327       -1.7634592420
 H         -0.5784539063        2.1238234489        0.5129247088
 H         -1.3654546299        0.2289745380        2.4338000747
 H         -1.5369191536        1.3478974365       -1.4593736448
 H         -3.5529236805       -0.5531730766       -0.4457981864
 H         -2.2555261492       -0.8204395615       -2.5729825131
 H         -0.7746853582       -1.0617497108       -1.6078987041
 H         -2.5021437548        3.1317252504        1.2307552153
 H         -3.9399636484        1.8442608498       -0.0733789387
 H          0.5479090331       -1.1927788633        3.0724260252
 H         -2.0198687171       -2.8534570240       -0.6408369403
 H          1.7794137882        1.2921653406       -2.6997782438
 H          3.8389871826        0.2600553038       -2.2170746603
  31
        -59.63951728
 O         -1.4737048139        0.5531526848        1.1882357996
 O         -2.3433854604        2.3576558592       -1.3036392625
 O         -4.2285973339        0.6798959258       -0.6786821055
 O         -3.3912610948       -2.5318791628        0.6094316160
 O          4.6339499704       -1.4859365754       -0.3393211232
 N          0.3340360007        0.1999261128       -0.2835382927
 N          1.5921454376       -1.4823453379       -1.0470084731
 N          2.0419588220        1.4678407892        0.8978289639
 N          4.1468028917        0.4429516534        0.7539363838
 C         -1.8505186678        1.0696423555       -1.1020343221
 C         -0.8141765241        1.0237053727        0.0456026130
 C         -2.9620102829        0.0832860100       -0.6317307463
 C         -2.6144288510       -0.2223641918        0.8383176736
 C         -2.3527650002       -1.7198604135        1.0890845596
 C          1.6027222927        0.4253413635        0.1576434821
 C          0.4006536644       -0.9662485107       -0.9961629022
 C          2.3836009526       -0.6296599694       -0.3256990587
 C          3.7855611722       -0.6639881793       -0.0221985287
 C          3.3049177727        1.4196197918        1.1610020052
 H         -1.3874520944        0.7606008256       -2.0427629236
 H         -0.4189309924        2.0185704308        0.2790254452
 H         -2.9413714755       -0.8436090935       -1.2145027289
 H         -3.4396503795        0.1207397185        1.4738141969
 H         -1.4518912476       -2.0298750841        0.5533850766
 H         -2.1791134567       -1.8704500337        2.1604773734
 H         -3.1348653909        2.4794260387       -0.7480824874
 H         -4.5754631486        0.6606934704       -1.5822610080
 H         -0.4477843401       -1.4051809494       -1.4801505357
 H         -4.1866636546       -2.3978048899        1.1445398286
 H          3.7244785283        2.2191998772        1.7517433407
 H          5.1284495622        0.4864548821        1.0102907997
  31
        -59.63947480
 O         -1.7181228441       -0.8892451533        0.6273676595
 O         -2.4130640123        2.0580488320        1.6809777264
 O         -3.2425649428        1.9476890794       -0.8968650962
 O         -2.7604336303       -2.4886987578       -1.5904590379
 O          4.7055148257       -0.6877550517       -0.1760437307
 N          0.3643205524       -0.0802649291        1.2741644375
 N          2.4131371212       -0.6766593692        1.9373933330
 N          0.8326071372        0.3717900893       -1.0796388565
 N          3.0843598149       -0.0066525968       -1.6103410499
 C         -1.5027082739        1.4831814294        0.7835648232
 C         -1.0656617217        0.1211282603        1.3468626010
 C         -2.1636648692        1.1272823723       -0.5762416572
 C         -2.5313215348       -0.3589967520       -0.4213263646
 C         -2.3007126105       -1.1653128337       -1.7008166388
 C          1.1693122396        0.0001377682        0.1768489121
 C          1.1761093623       -0.5009529806        2.2906411207
 C          2.4494048440       -0.3728933564        0.6032019306
 C          3.5305457437       -0.3928731072       -0.3407617138
 C          1.8166435762        0.3448921011       -1.9156320160
 H         -0.6301042427        2.1299777815        0.6428289839
 H         -1.3446112565        0.0527268991        2.4070288483
 H         -1.4297393148        1.2468436036       -1.3760274736
 H         -3.5821311716       -0.4633035137       -0.1153099766
 H         -2.8673520445       -0.7107067053       -2.5153682898
 H         -1.2298409765       -1.1393957456       -1.9413056348
 H         -2.6214663866        2.9586733894        1.3885120248
 H         -3.9321447620        1.8562114261       -0.2191622227
 H          0.8104536059       -0.6584577595        3.2849026723
 H         -2.3242359962       -2.9036478054       -0.8328845610
 H          1.6107087431        0.6259244077       -2.9371677704
 H          3.7967139119       -0.0018111813       -2.3341062051
  31
        -59.63941901
 O         -1.9088394776       -0.7335578404        0.8085168931
 O         -1.7549566379        2.7710841337        0.7717968088
 O         -3.9479951475        1.4336355162        0.2576745598
 O         -1.4538792774       -2.4248871460       -1.4088591850
 O          4.6036812119       -0.9709706447        0.0563106319
 N          0.2477103509        0.1214704167        1.1285342064
 N          2.1872761892       -0.6012254256        1.9774777032
 N          0.9220220268        0.3516195282       -1.2147108131
 N          3.1588085516       -0.2667106762       -1.5446859823
 C         -1.5744396287        1.5409882098        0.1497670640
 C         -1.1700592768        0.4133758726        1.1354176331
 C         -2.8590675577        0.9794034890       -0.5048530857
 C         -2.6518578640       -0.5395707282       -0.3947145968
 C         -1.9222559575       -1.1162843550       -1.6205261345
 C          1.1255434515        0.0434403285        0.0886828630
 C          0.9516269093       -0.2903475414        2.2261583424
 C          2.3363905990       -0.4046403466        0.6319879614
 C          3.4744011590       -0.5905357548       -0.2206339886
 C          1.9552428678        0.1724469946       -1.9686297955
 H         -0.7890442367        1.6632219304       -0.5988534406
 H         -1.4164875282        0.7004783358        2.1670915209
 H         -2.9398049752        1.2999200528       -1.5468786659
 H         -3.5971308886       -1.0679226194       -0.2328851478
 H         -2.6005435988       -1.0803143107       -2.4831446848
 H         -1.0324457785       -0.5198017769       -1.8347232993
 H         -2.6689549484        2.8098248263        1.1071978783
 H         -4.7742167632        1.3283766323       -0.2326097016
 H          0.5086731294       -0.3406830653        3.2000689497
 H         -2.1902915393       -2.9971637284       -1.1498934715
 H          1.8493557127        0.3946634133       -3.0194658406
 H          3.9171808147       -0.3808470908       -2.2100676459
  31
        -59.63939740
 O         -2.0041759863       -0.7194059787        0.8076111944
 O         -1.8617087842        2.7257734205        0.9450745048
 O         -4.0086842529        1.4355253458        0.0997157370
 O         -1.1898869099       -2.2808520505       -1.3676098718
 O          4.5392727308       -1.1108337358       -0.0027689658
 N          0.2038337895        0.0199077045        1.1095004315
 N          2.0721206952       -0.9444134553        1.8767930746
 N          0.9767601786        0.5980301256       -1.1432831425
 N          3.1927317737       -0.0745245741       -1.5063766601
 C         -1.5864379761        1.5608408049        0.2292481298
 C         -1.1992168303        0.3791636202        1.1572554618
 C         -2.8285013716        1.0139615675       -0.5281225394
 C         -2.6164362253       -0.5017267326       -0.4644439606
 C         -1.7537285686       -1.0196054957       -1.6300130205
 C          1.1146087642        0.0687226387        0.0964655182
 C          0.8460864561       -0.6109667818        2.1401763783
 C          2.2805474058       -0.5306010499        0.5899026984
 C          3.4408523678       -0.6307929385       -0.2467931484
 C          2.0280581178        0.4908037654       -1.8860712257
 H         -0.7678287437        1.7632602807       -0.4650561589
 H         -1.4082980147        0.6298515659        2.2059174195
 H         -2.8748588254        1.3899335548       -1.5502455278
 H         -3.5632249813       -1.0493972808       -0.4293988375
 H         -2.3715727564       -1.0445621181       -2.5363590465
 H         -0.9070968405       -0.3496448200       -1.7944673842
 H         -2.8306691323        2.8528732560        0.9522346875
 H         -4.1596530784        0.9150269305        0.9037513094
 H          0.3639522150       -0.8023698228        3.0772624198
 H         -1.8930341785       -2.9198335366       -1.1828631372
 H          1.9711114180        0.8874452897       -2.8882337814
 H          3.9698271152       -0.1162500923       -2.1585926267
  31
        -59.63939205
 O         -1.6427766527       -0.2038826162        1.2777907226
 O         -1.5043006146        1.8954202064       -1.5749263165
 O         -3.6686580839        1.7422322800       -0.0113497582
 O         -4.4453756164       -2.1666826974        0.0363025547
 O          4.8911196912       -1.0659778583       -0.3985467295
 N          0.3861582809       -0.1903328746        0.1015162910
 N          1.8497141460       -1.7863550305       -0.4429709043
 N          1.9300081832        1.6267366759        0.5796997520
 N          4.1609851671        0.9792398616        0.2607426196
 C         -1.7094885338        0.6760619272       -0.9436758280
 C         -0.8565104686        0.4978800408        0.3440535944
 C         -3.1486703185        0.5004070982       -0.3999203814
 C         -2.9427332718       -0.4812757333        0.7542894644
 C         -3.0842559021       -1.9423754639        0.3089161374
 C          1.6242990482        0.3628812963        0.2082133186
 C          0.5948879036       -1.4817802288       -0.2909412920
 C          2.5349327019       -0.6405609819       -0.1403451560
 C          3.9391258931       -0.3466907255       -0.1286401212
 C          3.1979290590        1.8702781938        0.5867875466
 H         -1.4564163087       -0.1181073672       -1.6542437768
 H         -0.5660021410        1.4763451590        0.7518740823
 H         -3.8333783344        0.1038600846       -1.1510731036
 H         -3.6647936980       -0.3082777587        1.5587075495
 H         -2.4749353102       -2.1224139901       -0.5865784478
 H         -2.7238863084       -2.5823712127        1.1233219688
 H         -2.2080506988        2.5090412227       -1.2873701085
 H         -3.3170166061        1.9996537995        0.8540551853
 H         -0.2051288392       -2.1776208319       -0.4365504344
 H         -4.5847111665       -3.0983060050       -0.1853056209
 H          3.5165387199        2.8601456639        0.8747992578
 H          5.1361963928        1.2604039037        0.2911951008
  31
        -59.63938239
 O         -1.8952605131       -0.2724381007        1.2026689042
 O         -1.3602795791        2.2228444639       -1.2604968199
 O         -3.6199841929        1.9354372122        0.1020514749
 O         -2.6410726908       -2.8438801131        0.4917014483
 O          4.6816410686       -1.1844293745       -0.5248241200
 N          0.2384605644       -0.2069794279        0.2496154553
 N          1.6405754890       -1.8632829016       -0.2679703463
 N          1.8292832662        1.6205234318        0.4637186732
 N          4.0219554266        0.9169120867        0.0202965640
 C         -1.6821389445        0.9446456034       -0.8370003095
 C         -0.9882156614        0.5161301808        0.4893162949
 C         -3.1765654964        0.7471042968       -0.4964070122
 C         -3.1193044460       -0.4344778715        0.4822693955
 C         -3.1829968477       -1.7879677442       -0.2565702086
 C          1.4833463560        0.3367638966        0.2155477719
 C          0.4019431815       -1.5297892424       -0.0485165610
 C          2.3562417795       -0.7064762841       -0.1171077522
 C          3.7582256893       -0.4326064363       -0.2396344211
 C          3.0951559081        1.8451470363        0.3515852244
 H         -1.3763853430        0.2593381303       -1.6343307681
 H         -0.7130366443        1.4029442802        1.0766721274
 H         -3.7599734083        0.5062338568       -1.3903497010
 H         -3.9061488841       -0.3823621317        1.2408218450
 H         -4.2275015877       -1.9913920241       -0.5255100098
 H         -2.5897005826       -1.7470195610       -1.1732120160
 H         -1.8843853258        2.8606854527       -0.7440345983
 H         -4.5842973870        1.9427988334        0.1719955378
 H         -0.4138375050       -2.2248630923       -0.0555150665
 H         -3.1003367962       -2.9148772741        1.3404487780
 H          3.4446780503        2.8490478761        0.5362878775
 H          4.9985254098        1.1851205691       -0.0505491361
  31
        -59.63936778
 O         -1.5065575534       -0.0920982735        1.3226866804
 O         -1.8298016682        2.4066059642       -1.1199117173
 O         -4.1003300779        1.1934919109       -0.3503575589
 O         -1.8475185605       -2.2677811396       -0.7739847857
 O          4.7971919366       -0.3639175720       -0.0483686830
 N          0.4238276333        0.9641005805        0.5910714575
 N          2.5491743240        1.5878979967        0.8741614677
 N          0.7933645013       -1.2172541937       -0.4447364873
 N          3.0730184589       -1.7022097806       -0.6711075233
 C         -1.6778919369        1.0717124241       -0.7391214184
 C         -1.0121126854        1.0317401008        0.6505361468
 C         -3.0164334772        0.3251170189       -0.5047730561
 C         -2.7321501313       -0.5490455921        0.7346543293
 C         -2.6079905216       -2.0396314382        0.3833437343
 C          1.1947399987       -0.0487729826        0.1074672156
 C          1.3021448321        1.9105272996        1.0386949003
 C          2.5237914870        0.3506967064        0.2907137092
 C          3.5875383770       -0.5209927057       -0.1195208394
 C          1.7634747715       -1.9919043645       -0.8072876043
 H         -1.0594667633        0.5099669427       -1.4513186955
 H         -1.2561517782        1.9603154284        1.1917512517
 H         -3.2680224727       -0.3108284469       -1.3565640644
 H         -3.5295246656       -0.4227324884        1.4766303730
 H         -2.1775672825       -2.5587577205        1.2480570719
 H         -3.6027636297       -2.4402711252        0.1793163722
 H         -2.3142610278        2.4565513162       -1.9576400107
 H         -3.8804782005        1.9047116281        0.2695128233
 H          0.9755206990        2.8331097827        1.4735551086
 H         -0.9381026964       -1.9370746318       -0.6247596321
 H          1.5034214885       -2.9392046931       -1.2548578974
 H          3.7709401628       -2.3711863873       -0.9824593814
  31
        -59.63936462
 O         -2.1007453374       -0.3921787927        1.3665361822
 O         -1.6405717565        2.6425125185       -0.0784159471
 O         -3.9936517041        1.4862672623       -0.0992585360
 O         -1.2639782592       -1.4310195887       -1.3883041474
 O          4.4613544054       -1.4311717490       -0.2612623470
 N          0.1573372267       -0.1737561085        0.8261894791
 N          1.6607568245       -1.8116940627        1.0444372653
 N          1.4887914212        1.4100521171       -0.4708791611
 N          3.6350494188        0.5767077617       -0.9195681446
 C         -1.5772594664        1.2641137028       -0.2676302193
 C         -1.1043146204        0.5231528300        1.0143874011
 C         -2.9717764149        0.6376621491       -0.5431415240
 C         -2.9111371376       -0.6857605291        0.2274294308
 C         -2.3801097520       -1.8443698452       -0.6259685565
 C          1.2768186697        0.2411579932        0.1767882449
 C          0.4568938564       -1.4073424306        1.3246401777
 C          2.2135735917       -0.7933314841        0.3181212103
 C          3.5145880739       -0.6538280379       -0.2673104459
 C          2.6644235358        1.5177217963       -0.9889077432
 H         -0.8867819591        1.0419002054       -1.0857320074
 H         -0.9802785797        1.2378721840        1.8398987197
 H         -3.1375211736        0.4899762959       -1.6100660114
 H         -3.8878818064       -0.9743964038        0.6239631078
 H         -2.1054144840       -2.6703206733        0.0420650560
 H         -3.1944401229       -2.1682753848       -1.2835251739
 H         -2.5790212311        2.9102236243       -0.1327790534
 H         -4.0432503901        1.4639511108        0.8690811032
 H         -0.2500369649       -1.9708128511        1.8985210700
 H         -1.0537698993       -2.1227913485       -2.0303539970
 H          2.8947090156        2.4276447642       -1.5209086328
 H          4.5338773289        0.7461632033       -1.3599671493
  31
        -59.63936193
 O         -1.7047057710       -0.6079239668        1.1555596213
 O         -1.6828381174        2.7485514216        0.0275893661
 O         -3.8761395358        1.3099241135        0.2341161961
 O         -2.9281855021       -2.1749277866       -1.9331159046
 O          4.7741617221       -0.6713226090        0.1640437123
 N          0.3914706118        0.4312365258        1.1097268621
 N          2.4303590366        0.2235381600        2.0045167248
 N          0.9208020649       -0.1979822717       -1.1963425156
 N          3.1908314544       -0.7206964337       -1.4602178342
 C         -1.5400081115        1.3796844591       -0.1640890872
 C         -1.0394281457        0.6292868481        1.0970069487
 C         -2.8617119331        0.6469814680       -0.4776456914
 C         -2.5915030618       -0.7703943336        0.0472330639
 C         -1.9789494767       -1.7190909722       -1.0010431272
 C          1.2204797295        0.0283442739        0.1054076960
 C          1.1844346426        0.5183379047        2.2201186405
 C          2.4938232711       -0.0943905749        0.6752790255
 C          3.6016997242       -0.5033240782       -0.1398919412
 C          1.9296043509       -0.5656260368       -1.9146861568
 H         -0.8208766684        1.2345535409       -0.9736212390
 H         -1.2780686523        1.2041030229        2.0028691940
 H         -3.0706774235        0.6558261864       -1.5515675748
 H         -3.5018891586       -1.2304376600        0.4462598656
 H         -1.1249266754       -1.2360670014       -1.4863901695
 H         -1.6220619811       -2.6049805296       -0.4695591829
 H         -2.5568817999        2.9118055385        0.4250449266
 H         -4.7445031159        0.9665979069       -0.0162574916
 H          0.7976790253        0.8121877811        3.1746963597
 H         -3.0921141926       -1.4970816479       -2.6030437980
 H          1.7509895718       -0.7623102212       -2.9607894240
 H          3.9244793343       -1.0146546283       -2.0981288904
  31
        -59.63934416
 O         -2.0159234399       -0.4388769925        1.1967755134
 O         -2.2417888836        2.4795251131        0.6541476518
 O         -3.1372159427        1.4189108227       -1.6181883826
 O         -3.2928835432       -2.8108042944        0.1349786750
 O          4.5332233576       -1.2338892750       -0.7238210484
 N          0.2600413015       -0.2223034644        0.6965857596
 N          1.6543960861       -1.9116280325        0.2669834788
 N          1.7339826615        1.6511824728        0.1719285116
 N          3.8499152289        0.9210474842       -0.5270628503
 C         -1.3739163451        1.5352394298        0.0927469426
 C         -0.9577347988        0.4610585885        1.1187520488
 C         -2.1944622749        0.6885831992       -0.9059064568
 C         -2.8037169252       -0.4065779415        0.0013822335
 C         -2.8391109583       -1.7728967680       -0.6927570949
 C          1.4329843124        0.3355970677        0.2911543218
 C          0.4642001438       -1.5726269921        0.6661037136
 C          2.2993103654       -0.7310522118        0.0209641651
 C          3.6331169611       -0.4587572202       -0.4327469600
 C          2.9395408324        1.8752642876       -0.2341053736
 H         -0.5035431858        2.0035323688       -0.3710076251
 H         -0.7951252305        0.8785311341        2.1200481861
 H         -1.5266229956        0.2280833918       -1.6417308653
 H         -3.8193928937       -0.1176981762        0.2994827146
 H         -3.4629739966       -1.6752967311       -1.5912738668
 H         -1.8295610192       -2.0615829728       -0.9969681464
 H         -1.7438227710        3.1881025136        1.0839724131
 H         -3.5092328543        2.0945398099       -1.0237455639
 H         -0.2990223646       -2.2665815804        0.9551955201
 H         -4.1909291874       -2.6179439230        0.4406618558
 H          3.2452409035        2.9037265038       -0.3493001443
 H          4.7772546091        1.1900378549       -0.8410315268
  31
        -59.63933208
 O         -1.8996969804       -0.6524175719        1.1998150002
 O         -2.2798331177        2.5232830714        1.1042392399
 O         -3.5246833799        1.4050583174       -0.8642257936
 O         -2.4323809897       -1.6297361065       -2.2617398933
 O          4.5735041784       -1.0271313692       -0.1449370497
 N          0.3317411016        0.0824581792        1.3044470588
 N          2.2925655243       -0.7732626373        1.9570876625
 N          0.8599164340        0.4959394502       -1.0494423173
 N          3.0554359674       -0.1367015751       -1.5770337990
 C         -1.4871511845        1.5722881426        0.4602331592
 C         -1.0670290373        0.4502192591        1.4333912673
 C         -2.2677258038        0.8195012715       -0.6582342139
 C         -2.4459171900       -0.6110623543       -0.1130313708
 C         -1.7924045426       -1.6675227668       -1.0104572212
 C          1.1403477239        0.0738986925        0.2069427580
 C          1.0876893960       -0.4472094204        2.3140589979
 C          2.3657452014       -0.4582656903        0.6275180238
 C          3.4430580083       -0.5921280055       -0.3115710209
 C          1.8392925903        0.3658607793       -1.8809952845
 H         -0.6035076315        2.0790700872        0.0644053800
 H         -1.2178323432        0.7634630119        2.4730235743
 H         -1.6763901092        0.7877059602       -1.5742838198
 H         -3.5160192795       -0.8324324144       -0.0322626344
 H         -0.7218883899       -1.4438286827       -1.1107639914
 H         -1.9076069825       -2.6445462615       -0.5259467033
 H         -3.2051610677        2.3792802581        0.8216777666
 H         -3.4916043462        2.0203128177       -1.6096222839
 H          0.7022104677       -0.5714202425        3.3054196841
 H         -2.0990562817       -2.3471856980       -2.8184794240
 H          1.6726302930        0.6828368812       -2.8990921482
 H          3.7693061890       -0.2006260971       -2.2966248389
  31
        -59.63928434
 O         -1.6336892416       -0.3822365539        0.9754785838
 O         -1.9400137203        2.4587347825       -0.7057076679
 O         -4.0088417500        0.9314140807       -1.2809021758
 O         -3.8339297439       -2.1113904892        1.8862199939
 O          4.8715630292       -1.0926289151       -0.6775045357
 N          0.4124575328       -0.0803557309       -0.0569090916
 N          1.7992330591       -1.5638153780       -0.9844701876
 N          2.0411991401        1.4373378681        0.9240455751
 N          4.2407031853        0.7472071505        0.4929446602
 C         -1.6005897457        1.1193881452       -0.8932846580
 C         -0.8182187978        0.5621801008        0.3267367232
 C         -2.8571759636        0.2101954055       -0.9631188988
 C         -2.9638564479       -0.3273742484        0.4716419434
 C         -3.5952836822       -1.7173300728        0.5615344277
 C          1.6746146634        0.3405525419        0.2236058491
 C          0.5599583794       -1.2287552430       -0.7825671794
 C          2.5374328793       -0.5916191019       -0.3647081981
 C          3.9553830749       -0.4084629409       -0.2435056040
 C          3.3201976086        1.5832822376        1.0236624446
 H         -0.9814379784        1.0402538516       -1.7956841235
 H         -0.5494206495        1.3864221624        1.0015186113
 H         -2.6844368449       -0.6202669152       -1.6557533249
 H         -3.5572845653        0.3764889944        1.0722521682
 H         -4.5698592917       -1.6953074052        0.0699010681
 H         -2.9438113172       -2.4403843935        0.0525822934
 H         -2.9138161283        2.5261257215       -0.6617145371
 H         -4.1127473600        1.0060685470       -2.2409897379
 H         -0.2774642132       -1.7959565374       -1.1336669408
 H         -2.9957063117       -2.1035619586        2.3700771832
 H          3.6848894324        2.4381257028        1.5719013315
 H          5.2291115924        0.9425450358        0.6199776027
  31
        -59.63928060
 O         -1.8971109519       -0.7506115330        0.7893412807
 O         -1.8422279180        2.6339374661        1.1172351521
 O         -3.9473492565        1.5700848669       -0.0939274483
 O         -1.9332906048       -2.5590202147       -1.4754691090
 O          4.6453689506       -0.9238996459       -0.0012188094
 N          0.2796223791        0.0505084762        1.1418407027
 N          2.2300897361       -0.6926775489        1.9454692782
 N          0.9372320130        0.4038575089       -1.1894717619
 N          3.1833103308       -0.1560219759       -1.5582594799
 C         -1.5217658245        1.5564651931        0.2839876090
 C         -1.1339899463        0.3619573247        1.1748324008
 C         -2.7348362928        1.0396428868       -0.5416477030
 C         -2.6389421656       -0.4896722754       -0.4075070510
 C         -1.9624566723       -1.1575778020       -1.6105565556
 C          1.1556064280        0.0377237274        0.0965031441
 C          0.9932851695       -0.4076553544        2.2159382597
 C          2.3726181122       -0.4243637458        0.6115805479
 C          3.5105850082       -0.5464135794       -0.2542959268
 C          1.9706243421        0.2830176440       -1.9556018724
 H         -0.6922455746        1.8022057320       -0.3877280535
 H         -1.3655154995        0.5967548332        2.2233180716
 H         -2.6564977273        1.3395856925       -1.5878920107
 H         -3.6271713799       -0.9376996156       -0.2595694045
 H         -2.5360985035       -0.9539602906       -2.5157050992
 H         -0.9468193822       -0.7554474421       -1.7242782050
 H         -2.1972350952        3.3607140284        0.5834264758
 H         -4.0435513871        1.4310972756        0.8604529576
 H          0.5552227965       -0.5109948272        3.1877314315
 H         -1.5865980779       -2.7763194113       -0.5982960129
 H          1.8546915700        0.5555346487       -2.9934501249
 H          3.9413704991       -0.2195180040       -2.2309863988
  31
        -59.63921795
 O         -1.6333448208       -0.6114188723        1.0251415508
 O         -1.4286987340        1.7538775569       -1.6450021709
 O         -3.6250169036        1.8436202307       -0.2520310197
 O         -3.8006810227       -2.3222775171        0.0812629804
 O          4.9562056031       -0.8833047612       -0.5007809384
 N          0.4050664926       -0.2774134249       -0.0348827021
 N          1.9528672923       -1.6976643815       -0.7882223003
 N          1.8508511577        1.4909333247        0.8019972737
 N          4.1171341858        0.9915308493        0.4642818192
 C         -1.7406034609        0.5660846190       -1.0008106319
 C         -0.8739448226        0.2898876604        0.2579607270
 C         -3.1758716633        0.5226574753       -0.4123935980
 C         -2.9942290273       -0.1882752362        0.9526660685
 C         -3.9022962193       -1.4068339013        1.1433289055
 C          1.6123244046        0.2977017312        0.2120853981
 C          0.6817495295       -1.4720392001       -0.6365408857
 C          2.5766093962       -0.5965054235       -0.2666169469
 C          3.9654701775       -0.2565805987       -0.1510900258
 C          3.1062153414        1.7776294616        0.8975054720
 H         -1.5894879555       -0.2497634105       -1.7151119326
 H         -0.6919056753        1.2301184233        0.8010073188
 H         -3.8372566593       -0.0592512795       -1.0578140503
 H         -3.1849968913        0.5433654524        1.7505380800
 H         -3.6526347072       -1.8809779822        2.0980474121
 H         -4.9432791345       -1.0811868697        1.1660024992
 H         -1.9851741429        2.4580649611       -1.2610936808
 H         -4.5724348361        1.9116981606       -0.4258363160
 H         -0.0838975744       -2.1552710589       -0.9400823923
 H         -2.9318125279       -2.7435569352        0.1179158979
 H          3.3716374093        2.7161247565        1.3590693553
 H          5.0778169513        1.3002365955        0.5782861360
  31
        -59.63920561
 O         -1.6670337789       -0.5945366932        1.1749912737
 O         -1.8376463380        2.7275706845        0.0430410329
 O         -3.9663130395        1.1742080903        0.1908786964
 O         -2.8458777563       -1.9435107855       -2.0448169327
 O          4.7586642598       -0.7653353144        0.1851561601
 N          0.4052228850        0.4735093335        1.1011795829
 N          2.4284011001        0.1946395433        2.0135287453
 N          0.9377225051       -0.1455895477       -1.2054607660
 N          3.1877601864       -0.7516880583       -1.4524965025
 C         -1.5585932529        1.3746131919       -0.1780963082
 C         -1.0293801093        0.6568062806        1.0891158356
 C         -2.8679592988        0.6084523465       -0.4721487805
 C         -2.5798079395       -0.7834409708        0.0943051376
 C         -1.9835394448       -1.7341198328       -0.9578130665
 C          1.2320120268        0.0509363807        0.1019074735
 C          1.1898648035        0.5226709573        2.2214390824
 C          2.4953502954       -0.1143136199        0.6819588017
 C          3.5954758583       -0.5560529860       -0.1272782903
 C          1.9379531357       -0.5458901391       -1.9183441194
 H         -0.8583841153        1.2167648883       -1.0005088675
 H         -1.2792267139        1.2453676237        1.9838514812
 H         -3.0641870343        0.5551289495       -1.5511607615
 H         -3.4935034565       -1.2064974556        0.5247182620
 H         -1.0728293060       -1.2911275798       -1.3693965647
 H         -1.7208514468       -2.6769400041       -0.4624542143
 H         -1.1137190082        3.2903008966       -0.2600494331
 H         -3.8513839921        2.1391798170        0.1913253828
 H          0.8018044856        0.8173720931        3.1751801945
 H         -3.6418143934       -2.4062380210       -1.7466246005
 H          1.7600450654       -0.7252674468       -2.9676458974
 H          3.9149090506       -1.0721323204       -2.0851632954
  31
        -59.63919899
 O         -2.0559575374       -0.3907502381        1.1839810697
 O         -1.2841265814        2.5834827112       -0.4148335595
 O         -3.7670157484        1.8014157334        0.0224673146
 O         -2.6139371357       -2.8805037130       -0.0293349050
 O          4.6129916491       -1.2196999026       -0.4469170316
 N          0.2077659497       -0.2886413432        0.5627815605
 N          1.6768750126       -1.9510882632        0.3617642393
 N          1.6331031016        1.5949162860       -0.0149725803
 N          3.8271295409        0.9088404896       -0.4739421372
 C         -1.4519167615        1.2046395923       -0.4874410606
 C         -1.0192313602        0.4518914844        0.8019532716
 C         -2.9515564319        0.8540027582       -0.6044180983
 C         -3.0370768669       -0.4794422639        0.1499105578
 C         -2.7869771593       -1.6946283219       -0.7593439229
 C          1.3879108374        0.2798952714        0.2021385137
 C          0.4462297974       -1.6293693058        0.6392479205
 C          2.3064431246       -0.7686765583        0.0825120766
 C          3.6600693553       -0.4701821925       -0.2870123740
 C          2.8591212096        1.8413740829       -0.3438304277
 H         -0.9102157746        0.7830159555       -1.3456054794
 H         -0.8242903509        1.1656534157        1.6154106957
 H         -3.2479315204        0.7389783180       -1.6557416877
 H         -3.9997244207       -0.5709415424        0.6599341030
 H         -3.6187964252       -1.7822024121       -1.4689402085
 H         -1.8582593519       -1.5607055966       -1.3199132118
 H         -0.3375009922        2.7887645729       -0.3468513527
 H         -3.3574898476        2.6765688656       -0.0861248062
 H         -0.3231177146       -2.3312257623        0.8918664798
 H         -3.4117120020       -3.0641428731        0.4873279425
 H          3.1323699472        2.8682753712       -0.5315591705
 H          4.7660982101        1.1939119770       -0.7348127576
  31
        -59.63919606
 O         -1.8996801770       -0.8397700896        0.7898063345
 O         -2.5116012377        2.0940239444        1.5031232172
 O         -2.9968730243        1.9667952906       -1.0988657338
 O         -2.8630930480       -2.5298161326       -1.4219143900
 O          4.5838588948       -1.0195085450       -0.3595226695
 N          0.3146508845       -0.2103248984        1.2011991365
 N          2.1637715771       -1.4215682491        1.5496686960
 N          1.0572437231        1.0606816412       -0.7550843521
 N          3.2423568772        0.4952998990       -1.3886806317
 C         -1.4746338433        1.4938666871        0.7743764764
 C         -1.0841226617        0.1355948956        1.3846815943
 C         -2.0310014405        1.0932463437       -0.6133107449
 C         -2.5477171967       -0.3425119522       -0.3846777812
 C         -2.2635370756       -1.2684712569       -1.5683661037
 C          1.2047887833        0.1441470539        0.2300871411
 C          0.9563961673       -1.1629302974        1.9477333144
 C          2.3599519907       -0.6127595312        0.4638170682
 C          3.4990914235       -0.4569455246       -0.3954692573
 C          2.0894897169        1.1855773655       -1.5208030357
 H         -0.6074324862        2.1477460182        0.6733847894
 H         -1.2769516684        0.1091330746        2.4644992598
 H         -1.2125592541        1.0823382598       -1.3386562061
 H         -3.6274354996       -0.3308708187       -0.1885738123
 H         -2.6872829100       -0.8284443532       -2.4729123013
 H         -1.1751839713       -1.3684580873       -1.6908385890
 H         -2.1630097468        2.7037392749        2.1670639479
 H         -3.5471091195        2.2596931386       -0.3513926704
 H          0.4858361438       -1.6394333186        2.7834439687
 H         -2.5754936949       -2.9145781588       -0.5812816420
 H          2.0252068022        1.8993885222       -2.3277408700
 H          4.0045349879        0.6572277298       -2.0400691978
  31
        -59.63918289
 O         -1.9113565397       -0.6529034464        1.1620827490
 O         -2.2966871133        2.5141123351        1.1814987713
 O         -3.4587581449        1.4596629477       -0.9175840973
 O         -2.5108578732       -1.8887181117       -2.2267042956
 O          4.5637092182       -1.0346044059       -0.1712685152
 N          0.3279372477        0.0564484916        1.3086050137
 N          2.2834562193       -0.8298762607        1.9357860846
 N          0.8603349639        0.5377446365       -1.0318199718
 N          3.0527278228       -0.0912790218       -1.5766802742
 C         -1.4805230911        1.5929374107        0.5250104279
 C         -1.0691355856        0.4269578349        1.4505211304
 C         -2.2101428972        0.8825080597       -0.6524324611
 C         -2.4219067792       -0.5651632097       -0.1663365741
 C         -1.7651048677       -1.6234739270       -1.0687730441
 C          1.1369897921        0.0753142361        0.2113967213
 C          1.0803576883       -0.5086852925        2.3019664814
 C          2.3589304759       -0.4756780465        0.6164571298
 C          3.4362839616       -0.5881701219       -0.3254457522
 C          1.8402571184        0.4261352648       -1.8663289778
 H         -0.5978595831        2.1382659541        0.1865701968
 H         -1.2177747610        0.6903364520        2.5040969947
 H         -1.5626619144        0.8952518866       -1.5351080537
 H         -3.4964492149       -0.7784542942       -0.1118884692
 H         -0.7416055673       -1.3162309088       -1.3199899492
 H         -1.7232061299       -2.5635716794       -0.5136906503
 H         -3.2204873721        2.2115938176        1.1349364668
 H         -3.3404188447        2.3263691760       -1.3337686531
 H          0.6945434274       -0.6606861743        3.2893261292
 H         -2.5876972867       -1.0857256145       -2.7619929876
 H          1.6776683510        0.7746209422       -2.8748837070
 H          3.7659646048       -0.1407908399       -2.2980089711
  31
        -59.63917875
 O         -2.0387240550       -0.7245223040        0.8101615283
 O         -2.3194600148        2.3686969611        1.5069560360
 O         -3.4211444691        1.8323862679       -0.8024759022
 O         -1.8276380172       -2.5351646657       -1.3879251084
 O          4.4884041159       -1.1002975459       -0.2682406114
 N          0.2134415307       -0.1702400441        1.2064604647
 N          2.0778621342       -1.3087598443        1.6863994033
 N          0.9280259468        0.8658553008       -0.8927679000
 N          3.1213446259        0.2615908483       -1.4623749582
 C         -1.4993191897        1.5821796743        0.6973011720
 C         -1.1755847068        0.2254935381        1.3627441104
 C         -2.1944622734        1.1774024434       -0.6362532586
 C         -2.4546718159       -0.3355772730       -0.4963663042
 C         -1.7409719947       -1.1486897487       -1.5872263992
 C          1.0962364090        0.0812604535        0.1991218205
 C          0.8674623531       -1.0199436261        2.0557665092
 C          2.2611293811       -0.6300697946        0.5129438645
 C          3.3947354643       -0.5619470455       -0.3638946907
 C          1.9569060341        0.9114722183       -1.6724370821
 H         -0.5826861042        2.1474763794        0.5212201421
 H         -1.3724606281        0.2605039526        2.4406527752
 H         -1.5176721083        1.3633114875       -1.4748296527
 H         -3.5330326263       -0.5279847238       -0.5406270338
 H         -2.1619741210       -0.8634189884       -2.5603782670
 H         -0.6739280316       -0.9168912157       -1.5837662021
 H         -3.2504167197        2.1708252049        1.2981157750
 H         -3.2736468263        2.7423943537       -1.0991272237
 H          0.4059203474       -1.4003652967        2.9440693801
 H         -2.7578587234       -2.7971653573       -1.3327562260
 H          1.8798455600        1.5182272684       -2.5616379002
 H          3.8798109831        0.3553507379       -2.1311625300
  31
        -59.63916489
 O         -1.5082052126       -0.2478407458        1.2430799376
 O         -2.3229708300        2.7112683105       -0.0607777759
 O         -3.7341182766        0.9141483125       -1.2745054734
 O         -1.8698145986       -2.4280733024       -0.7440928862
 O          4.7587079979       -0.4208002233       -0.2374164630
 N          0.4704317088        0.8872566049        0.8558957489
 N          2.6261620675        1.4124193060        1.1049065200
 N          0.7141614197       -1.1215145464       -0.5131671077
 N          2.9628870734       -1.6082765828       -0.9554416053
 C         -1.6148436235        1.5413708872       -0.3431902977
 C         -0.9618996670        1.0092907612        0.9584094860
 C         -2.5283940129        0.3826279804       -0.8021722411
 C         -2.6865644248       -0.4718508008        0.4723480785
 C         -2.8011859168       -1.9761145712        0.2035373507
 C          1.1809533090       -0.0560707660        0.1783685901
 C          1.4002190801        1.7354860732        1.3876894077
 C          2.5303586819        0.2805412414        0.3425384607
 C          3.5424920957       -0.5392884138       -0.2596637515
 C          1.6390583024       -1.8496439540       -1.0481963925
 H         -0.8388791320        1.7549335368       -1.0921986672
 H         -1.1710364976        1.7238021614        1.7687929734
 H         -2.0132597478       -0.2076657951       -1.5677757817
 H         -3.5622598235       -0.1230449456        1.0379285391
 H         -2.6705520086       -2.4970497256        1.1604256321
 H         -3.7891484371       -2.2091002289       -0.1967564380
 H         -3.1701130698        2.6731810983       -0.5411201376
 H         -4.1974164140        0.2651357416       -1.8198390793
 H          1.1249702600        2.5872288039        1.9756626243
 H         -0.9862189519       -2.1047689065       -0.4839214158
 H          1.3261125217       -2.7145868824       -1.6135927129
 H          3.6215715780       -2.2347671251       -1.4084915132
  31
        -59.63916445
 O         -1.5249962635       -0.2637194707        1.1920686950
 O         -2.0192777478        2.3190973880       -0.6735025975
 O         -3.8947257036        0.5746127596       -1.3546072803
 O         -4.8034753916       -1.7355311993        0.5174206295
 O          4.9363066999       -1.1091068493       -0.5757455274
 N          0.4815684753       -0.0741978748        0.0438284349
 N          1.8631425922       -1.6420925369       -0.7417521169
 N          2.1165470715        1.5628287570        0.7975343561
 N          4.3127797410        0.8476655044        0.3909139328
 C         -1.5823217553        1.0028577698       -0.8360667283
 C         -0.7416625519        0.5987642741        0.3975776781
 C         -2.7492815111       -0.0036165953       -0.8054698443
 C         -2.8561943101       -0.3131600164        0.6985222458
 C         -3.4784569727       -1.6830011293        0.9863075888
 C          1.7455650947        0.3886368177        0.2393310592
 C          0.6254392341       -1.2985984300       -0.5456144385
 C          2.6047261329       -0.5968650124       -0.2601719449
 C          4.0230685243       -0.3879419708       -0.1994032227
 C          3.3959082551        1.7308972399        0.8458532066
 H         -0.9876966683        0.9091455617       -1.7560092161
 H         -0.4588322558        1.4993995047        0.9585697329
 H         -2.4634556165       -0.9137906889       -1.3507591579
 H         -3.4513415565        0.4818191375        1.1741039576
 H         -2.9216318833       -2.4532658346        0.4461889810
 H         -3.4075520113       -1.8946282830        2.0563966479
 H         -2.8575402299        2.4204210199       -1.1570870195
 H         -4.6221402479       -0.0645267061       -1.3083312129
 H         -0.2123291238       -1.9127100759       -0.8040015982
 H         -5.3955860021       -1.3265851763        1.1640739174
 H          3.7640666794        2.6469734013        1.2813383392
 H          5.3016152978        1.0651970737        0.4689123142
  31
        -59.63915223
 O         -1.9929450437       -0.3511505480        1.4407938836
 O         -2.2316479744        2.5278549293        0.6355388567
 O         -3.3511621255        1.2514799373       -1.3493554395
 O         -3.1072921888       -2.1401047930       -1.5802282098
 O          4.5071331923       -1.3533714786       -0.4918928639
 N          0.2793048076       -0.1419637893        0.9088204895
 N          1.7476892978       -1.8257207282        0.8703135312
 N          1.6098054814        1.5590232991       -0.2384730039
 N          3.7158692238        0.7405091372       -0.8644806734
 C         -1.4095488661        1.5117773868        0.1266932553
 C         -0.9543680687        0.5594837422        1.2506728021
 C         -2.2870830893        0.5837540759       -0.7502865773
 C         -2.7287799111       -0.5324017479        0.2292009964
 C         -2.4868421436       -1.9413997236       -0.3386296789
 C          1.3879730274        0.3225036121        0.2692962363
 C          0.5681029757       -1.4339152876        1.2492007336
 C          2.2994168135       -0.7411896664        0.2465466170
 C          3.5842649343       -0.5609901187       -0.3668882864
 C          2.7719454103        1.7027090364       -0.7833933307
 H         -0.5585272152        1.9120513414       -0.4248280773
 H         -0.8058591544        1.0862116861        2.2013765723
 H         -1.6955323198        0.1435056782       -1.5593156640
 H         -3.7895168664       -0.4093203131        0.4761557945
 H         -1.4167518763       -2.0853121802       -0.5139303359
 H         -2.8179099711       -2.6827712209        0.3995451894
 H         -1.7123008506        3.3152413052        0.8469253396
 H         -3.6385589196        1.9595548563       -0.7447780482
 H         -0.1314567141       -2.0441215406        1.7827031819
 H         -4.0677238424       -2.0680668465       -1.4831865514
 H          3.0085047499        2.6668159011       -1.2065300940
 H          4.6043607878        0.9427291714       -1.3125890129
  31
        -59.63910769
 O         -1.6314789195       -0.0872974588        1.0754494326
 O         -2.0806772589        2.5256527234       -0.8427468224
 O         -4.0998069415        0.8700353581       -1.1823171732
 O         -3.3808587610       -2.2911411375        1.8750775304
 O          4.7626275132       -1.2524408975       -0.6180962003
 N          0.3575614849        0.0376672401       -0.1283317794
 N          1.6785675852       -1.5143274350       -1.0424112510
 N          2.0463669287        1.4284734773        0.9342330588
 N          4.2103602926        0.6029071182        0.5673785625
 C         -1.6834790715        1.1940822533       -0.9481620445
 C         -0.8395281734        0.7441457772        0.2710976730
 C         -2.8904073867        0.2146379916       -0.9404347204
 C         -2.9080296786       -0.3427027769        0.4914953750
 C         -3.2101346105       -1.8433483056        0.5567167047
 C          1.6348189319        0.3687747732        0.2024059243
 C          0.4571449010       -1.1044108667       -0.8724547084
 C          2.4561462329       -0.6047054537       -0.3773396810
 C          3.8777257059       -0.5174880273       -0.2028650321
 C          3.3278128174        1.4895733479        1.0798945071
 H         -1.0849304258        1.1031387547       -1.8610656605
 H         -0.5021385812        1.6130911232        0.8502002094
 H         -2.7206154302       -0.5981172192       -1.6556039442
 H         -3.6701563865        0.1928195401        1.0735924714
 H         -4.1529044378       -2.0417980206        0.0432379764
 H         -2.4007858008       -2.3989756035        0.0627433661
 H         -3.0090046225        2.5585897290       -0.5472768802
 H         -4.2227952055        1.0199666406       -2.1312863904
 H         -0.3991673254       -1.6093654356       -1.2702510956
 H         -2.5870708632       -2.0714629783        2.3838967784
 H          3.7278100032        2.3111740326        1.6538049896
 H          5.2038515540        0.7292447884        0.7349030062
  31
        -59.63908647
 O         -1.9033913307       -0.2212894158        1.2194610699
 O         -1.3959285859        2.2745264605       -1.2162626690
 O         -3.7333471782        1.9010657140        0.0583986328
 O         -2.5877039945       -2.8380376254        0.4931543776
 O          4.6750235669       -1.2053601870       -0.5225537297
 N          0.2332272122       -0.2115851517        0.2434417132
 N          1.6310726991       -1.8753155462       -0.2614940159
 N          1.8293989341        1.6107635001        0.4529772325
 N          4.0202743694        0.8999843357        0.0138232321
 C         -1.6820062640        0.9710870009       -0.8367729401
 C         -0.9803391079        0.5336546582        0.4848225958
 C         -3.1777501060        0.7431530089       -0.4995634537
 C         -3.1055472712       -0.4366344538        0.4716740233
 C         -3.1137160057       -1.7872896602       -0.2733974879
 C          1.4809930497        0.3272470254        0.2072061497
 C          0.3933592026       -1.5376424312       -0.0439988557
 C          2.3505547016       -0.7198908856       -0.1186973352
 C          3.7534714658       -0.4500690750       -0.2413047317
 C          3.0961529467        1.8317710288        0.3419609156
 H         -1.3583178883        0.3082494739       -1.6466492063
 H         -0.6703129013        1.4170618139        1.0603692274
 H         -3.7664996140        0.5213362608       -1.3904748245
 H         -3.9146434956       -0.4177340288        1.2079499322
 H         -4.1431608003       -2.0012325833       -0.5864766315
 H         -2.4848225755       -1.7326068307       -1.1649714453
 H         -2.1055638557        2.8562261745       -0.8826287711
 H         -3.4413051991        2.0026336752        0.9771893462
 H         -0.4205810393       -2.2343998656       -0.0414183356
 H         -3.1024188253       -2.9440102478        1.3056032432
 H          3.4484536532        2.8348711485        0.5256931457
 H          4.9976455444        1.1652692840       -0.0570022213
  31
        -59.63904665
 O         -1.5681240380       -0.8938174136        0.7166399645
 O         -1.8966678112        2.5617953841        0.9129544314
 O         -3.8219695849        1.5111693020       -0.4847530291
 O         -2.3263632525       -1.8313476834       -1.9233716578
 O          4.8441017940       -0.5470508464        0.0122082059
 N          0.4351423507        0.1605876253        1.1828056199
 N          2.4976458606       -0.0574834910        2.0101029952
 N          0.9331924650       -0.0915382218       -1.1928494243
 N          3.2203777244       -0.4449727352       -1.5690989269
 C         -1.4789477448        1.4371568757        0.2036403832
 C         -0.9899351417        0.3111413175        1.1576826343
 C         -2.6410727061        0.7655128991       -0.5858093809
 C         -2.8211557570       -0.5918575986        0.1178188411
 C         -3.2052484551       -1.7264537455       -0.8337285233
 C          1.2624654693       -0.0371585878        0.1183607572
 C          1.2422678598        0.1299496098        2.2849171481
 C          2.5515603948       -0.1717392112        0.6470433508
 C          3.6566545268       -0.3985710226       -0.2400644841
 C          1.9402566103       -0.2950813809       -1.9750786156
 H         -0.6620029243        1.7299460707       -0.4619535146
 H         -1.3148166529        0.5491065915        2.1831155006
 H         -2.3430724816        0.5902699030       -1.6223655361
 H         -3.5924871583       -0.4852516723        0.8942594765
 H         -3.2375230816       -2.6626215101       -0.2641726764
 H         -4.1923026173       -1.5222480593       -1.2513497885
 H         -2.8750100024        2.5817355620        0.8855071450
 H         -3.9232697278        2.0886722909       -1.2545195030
 H          0.8606003411        0.2592121303        3.2772569263
 H         -1.4344322784       -1.9844263009       -1.5816272074
 H          1.7466240074       -0.3498421892       -3.0352598819
 H          3.9508746735       -0.6055504449       -2.2558876150
  31
        -59.63903245
 O         -1.6184196212       -0.4058146747        0.9557243278
 O         -1.9548611197        2.4519501789       -0.5972045020
 O         -4.0087885292        0.8701237331       -1.3931560044
 O         -3.8720054241       -2.0859246916        1.9083319038
 O          4.8781660502       -1.1010986374       -0.6638048729
 N          0.4161569612       -0.0752216983       -0.0869464675
 N          1.8068360193       -1.5596636033       -1.0060301436
 N          2.0400572018        1.4375078757        0.9099787437
 N          4.2413394893        0.7384038361        0.5037998035
 C         -1.6090477532        1.1252446826       -0.8835561696
 C         -0.8159206360        0.5537386206        0.3138144033
 C         -2.8653632879        0.2128039985       -0.9536771711
 C         -2.9605946854       -0.3268941173        0.4843902130
 C         -3.6191136287       -1.7026005456        0.5823988604
 C          1.6771663043        0.3412998758        0.2065028087
 C          0.5667181152       -1.2232777086       -0.8134428477
 C          2.5423976459       -0.5913385977       -0.3768689499
 C          3.9598007538       -0.4143503869       -0.2390886786
 C          3.3186413781        1.5782151010        1.0241001635
 H         -1.0089433263        1.0589920661       -1.7969923227
 H         -0.5502610253        1.3707922649        0.9993965672
 H         -2.6962332806       -0.6099431423       -1.6537317916
 H         -3.5181639870        0.3856167370        1.1104146683
 H         -4.5898672211       -1.6623496236        0.0837752162
 H         -2.9824396009       -2.4404995747        0.0773622332
 H         -2.2086703094        2.9107094357       -1.4117662740
 H         -4.1706127339        1.6407384799       -0.8235242149
 H         -0.2699082098       -1.7856820266       -1.1741829795
 H         -3.0326890664       -2.1199179129        2.3891048670
 H          3.6805513742        2.4318210653        1.5761390034
 H          5.2290899818        0.9277603943        0.6445010502
  31
        -59.63902489
 O         -1.6084416821        0.1736091030        1.0928064873
 O         -2.2406128543        2.5301711539       -1.0108512383
 O         -4.1910743187        0.7702590113       -1.0742211620
 O         -2.9051459227       -2.2924008772        1.9782243930
 O          4.6647217304       -1.3812684916       -0.5516002498
 N          0.3149035640        0.1386952832       -0.2489577990
 N          1.6040079726       -1.4356635166       -1.1724792805
 N          2.0114606988        1.3713954674        0.9838324482
 N          4.1448027078        0.4396382191        0.7006521549
 C         -1.7800659669        1.2157598105       -1.0450875083
 C         -0.8576996200        0.8899053776        0.1534487721
 C         -2.9347013676        0.1804359917       -0.9105586844
 C         -2.8204195998       -0.3361431107        0.5340034816
 C         -2.8454383304       -1.8655356452        0.6424429545
 C          1.5871898945        0.3755687379        0.1737573755
 C          0.3985518376       -0.9663293427       -1.0500677733
 C          2.3879262107       -0.6111420392       -0.4111131104
 C          3.7987157321       -0.6175222262       -0.1488805842
 C          3.2828870169        1.3495783452        1.2074956140
 H         -1.2267376029        1.1004252316       -1.9817779963
 H         -0.4812729320        1.8028239291        0.6297375715
 H         -2.7878144152       -0.6449009565       -1.6168847900
 H         -3.6508178075        0.0680906257        1.1269703824
 H         -3.7467300238       -2.2491487131        0.1605753036
 H         -1.9590422319       -2.2845656214        0.1455667108
 H         -3.0873508526        2.5616275502       -0.5317025524
 H         -4.3681063958        0.9402962493       -2.0114281265
 H         -0.4533034638       -1.3968844241       -1.5351099117
 H         -2.1692096476       -1.8933344829        2.4647035070
 H          3.6918390427        2.1152996615        1.8484270270
 H          5.1313624347        0.4981918636        0.9338241342
  31
        -59.63901652
 O         -2.0469535084       -0.7142235679        0.7929480471
 O         -2.0468529284        2.5642574385        1.2584918965
 O         -3.9598309106        1.5509261827       -0.2493196548
 O         -1.0949829475       -2.2632239983       -1.2910381678
 O          4.4746878387       -1.2200409729       -0.1121575551
 N          0.1801196515       -0.0540794633        1.1170688811
 N          1.9944662131       -1.1961836641        1.7593575187
 N          1.0076731187        0.7953911044       -1.0270093219
 N          3.1976687296        0.0808447127       -1.4627898798
 C         -1.5826008785        1.5829361238        0.3728714647
 C         -1.2156690694        0.3362344121        1.2023280242
 C         -2.6931691649        1.0782438810       -0.5999851673
 C         -2.5622886005       -0.4543861221       -0.5103622693
 C         -1.6467757843       -1.0117466250       -1.6175971432
 C          1.1061535628        0.0926940973        0.1280325262
 C          0.7799435659       -0.8490006022        2.0559984735
 C          2.2385979686       -0.6192757704        0.5435294625
 C          3.4032529554       -0.6581248266       -0.2923221065
 C          2.0646255732        0.7463191585       -1.7683774802
 H         -0.7120281859        1.9310803049       -0.1905979064
 H         -1.4180213454        0.5251304717        2.2647758491
 H         -2.5212364061        1.4251578797       -1.6200121729
 H         -3.5396642732       -0.9446266681       -0.5425879391
 H         -2.2196437193       -1.0644855297       -2.5519009970
 H         -0.7943974216       -0.3445170610       -1.7644664485
 H         -2.3430810786        3.3388126934        0.7570076314
 H         -4.1196923311        1.3934089281        0.6941120338
 H          0.2743871177       -1.1458275132        2.9522870606
 H         -1.8069357608       -2.8899012796       -1.0983324147
 H          2.0397997004        1.2816104058       -2.7052494261
 H          3.9798789760        0.0919641829       -2.1101657890
  31
        -59.63895741
 O         -1.8746748969       -0.4130199049        1.4278639820
 O         -2.1585024204        2.4350477192        0.5251399141
 O         -3.2175906531        1.0482143451       -1.5290092702
 O         -3.9097515290       -1.9008697668       -1.1872235609
 O          4.6337106176       -1.2358454097       -0.5637256858
 N          0.3565297772       -0.1642107202        0.7991103194
 N          1.7967470942       -1.8552000438        0.5652518863
 N          1.7616303984        1.6626856302       -0.0083826349
 N          3.8891013851        0.9066694228       -0.6442019755
 C         -1.3857947878        1.3973880930       -0.0047423456
 C         -0.8762852354        0.5261745073        1.1538817969
 C         -2.2422029570        0.3840187323       -0.7851525635
 C         -2.8046905726       -0.4948674697        0.3476881487
 C         -3.0201399370       -1.9416915825       -0.0953264555
 C          1.5039169185        0.3692185959        0.2974254176
 C          0.6043843116       -1.4992559036        0.9420992982
 C          2.3988157756       -0.6990695113        0.1514886492
 C          3.7161895693       -0.4525341188       -0.3615948287
 C          2.9518024560        1.8645764545       -0.4655444469
 H         -0.5559220520        1.7971941349       -0.5985317295
 H         -0.7026931541        1.1338991104        2.0501300472
 H         -1.5897604415       -0.2184618937       -1.4353248571
 H         -3.7617533231       -0.0737941037        0.6831518859
 H         -2.0560754241       -2.3788610872       -0.3891960305
 H         -3.4322002881       -2.5155521720        0.7416878728
 H         -2.7848759854        2.7196125619       -0.1615562382
 H         -3.8132434898        0.3907266801       -1.9195363630
 H         -0.1300185932       -2.1679567781        1.3414961879
 H         -4.1226553523       -2.8019684951       -1.4670075096
 H          3.2206509694        2.8761781271       -0.7276746870
 H          4.8026658674        1.1586130884       -1.0091935022
  31
        -59.63894170
 O         -1.9266916135       -0.4049890476        1.4374693551
 O         -2.2312145777        2.4432084696        0.6584945532
 O         -3.1717507388        1.1395100574       -1.4992883079
 O         -3.5803504763       -1.9470583802       -1.4086353607
 O          4.5625619660       -1.2846512364       -0.5320303563
 N          0.3219960031       -0.1390133348        0.8837595450
 N          1.7788118067       -1.8279182322        0.7487019575
 N          1.6764236934        1.6238427849       -0.1344404879
 N          3.7905024927        0.8357492707       -0.7752131747
 C         -1.4043005008        1.4602427179        0.1035453526
 C         -0.9194896054        0.5417147512        1.2338230006
 C         -2.1929124169        0.4654105476       -0.7684187490
 C         -2.7541553331       -0.5176728253        0.2790315055
 C         -2.7899002204       -1.9549708662       -0.2426478404
 C          1.4433287536        0.3609047349        0.2951519534
 C          0.5960248786       -1.4533877290        1.1363110498
 C          2.3483916918       -0.7060835555        0.2131142158
 C          3.6437994469       -0.4942438102       -0.3670661322
 C          2.8478924950        1.7961120386       -0.6485457642
 H         -0.5650951588        1.9175134096       -0.4317290190
 H         -0.7769288097        1.1025535415        2.1649969484
 H         -1.4949999835       -0.0618785966       -1.4355406614
 H         -3.7696750974       -0.2084181745        0.5562416461
 H         -1.7652096347       -2.2857775682       -0.4632520227
 H         -3.2141998016       -2.6046722416        0.5302159419
 H         -2.8467874614        2.7391266391       -0.0329622356
 H         -3.6948313110        0.4932880757       -1.9964760235
 H         -0.1162469144       -2.0927057474        1.6162423172
 H         -3.7019205109       -2.8529342657       -1.7254435442
 H          3.0938490682        2.7831860884       -1.0084375157
 H          4.6879255764        1.0629583842       -1.1926552167
  31
        -59.63893049
 O         -1.5757921299       -0.9942520439        0.8408827756
 O         -2.4667482069        2.0447058123        1.3827685318
 O         -3.1382780157        1.5556492421       -1.1530223759
 O         -3.7714494624       -1.3887384302       -2.0549567475
 O          4.8219897874       -0.6606154627       -0.1557491171
 N          0.4886246402       -0.0289602885        1.3088811953
 N          2.5403169687       -0.6286194881        1.9648783427
 N          0.9503071307        0.4048877373       -1.0519821503
 N          3.1984495421        0.0160332459       -1.5894414497
 C         -1.4644520498        1.3909336773        0.6534774723
 C         -0.9419430384        0.1383219848        1.3979920741
 C         -2.1141908012        0.7856544459       -0.6103582459
 C         -2.5627450181       -0.5988198644       -0.1027114498
 C         -2.6738535400       -1.6403571792       -1.2169243187
 C          1.2875135220        0.0355042697        0.2050170853
 C          1.3062048581       -0.4485515121        2.3233829141
 C          2.5692428801       -0.3353700427        0.6282378506
 C          3.6473381047       -0.3641906658       -0.3192922022
 C          1.9310982215        0.3708399304       -1.8913429455
 H         -0.6414380274        2.0615696373        0.3963939140
 H         -1.1890394533        0.1966906043        2.4674198806
 H         -1.3463962565        0.6618230776       -1.3801963362
 H         -3.5363069340       -0.5067193144        0.4028396815
 H         -1.7341748213       -1.6593038534       -1.7856798189
 H         -2.8362380798       -2.6264498619       -0.7768299892
 H         -2.0913978654        2.7114716737        1.9729813951
 H         -3.6419506415        1.9579364602       -0.4251594641
 H          0.9462558059       -0.6004928949        3.3205654190
 H         -3.7241228566       -0.4739814032       -2.3742132941
 H          1.7231167335        0.6512670539       -2.9126314155
 H          3.9079499278        0.0139530487       -2.3159964647
  31
        -59.63890411
 O         -1.7373814994       -0.2499074756        1.1107564646
 O         -1.4955321704        2.0691853749       -1.5667606226
 O         -3.7043773285        1.8973483838       -0.0659548302
 O         -3.2666553493       -2.7388794394        1.1736513508
 O          4.8018198864       -1.0912077945       -0.5142493149
 N          0.3047088076       -0.1669908084       -0.0344396113
 N          1.7478901145       -1.7088424773       -0.7592724644
 N          1.8732743707        1.5198347788        0.7436778201
 N          4.0979706030        0.8623211202        0.4027515171
 C         -1.7579637549        0.8195841974       -1.0217043931
 C         -0.9280483616        0.5189304843        0.2550871312
 C         -3.2107652184        0.6639406522       -0.5101289247
 C         -3.0707200288       -0.3855697358        0.5946287658
 C         -3.3163468001       -1.8220320023        0.1121513234
 C          1.5514162201        0.3293837504        0.1889948045
 C          0.4964058593       -1.3931558763       -0.6060424156
 C          2.4491807218       -0.6396332959       -0.2710747824
 C          3.8587191907       -0.3901148097       -0.1750924796
 C          3.1456617341        1.7253924132        0.8217029336
 H         -1.5316661042        0.0637995560       -1.7817660536
 H         -0.6263073986        1.4527219551        0.7512168487
 H         -3.8830745397        0.3412751249       -1.3064032573
 H         -3.7517553024       -0.1868372982        1.4293968951
 H         -4.3206899220       -1.9005385369       -0.3072255193
 H         -2.5841871028       -2.0858459715       -0.6629781337
 H         -2.1839297953        2.6888109198       -1.2562678369
 H         -3.3534032067        2.1095437627        0.8120241903
 H         -0.3117603569       -2.0370297806       -0.8870956098
 H         -2.4367027276       -2.6161616144        1.6571781387
 H          3.4771945821        2.6564135014        1.2547654777
 H          5.0778700878        1.1100160186        0.5004289478
  31
        -59.63884268
 O         -1.8015343620       -0.7482418830        0.7741477386
 O         -1.6974581090        2.7388528841        0.7332524194
 O         -3.9611747100        1.4192634305        0.2622669851
 O         -2.0775943532       -2.6347096564       -1.4294788005
 O          4.6876814734       -0.8244698822        0.0908002342
 N          0.3043480997        0.1970078780        1.1215710792
 N          2.2866330760       -0.3289630467        2.0110740601
 N          0.9244488000        0.1661590954       -1.2447359459
 N          3.1816118218       -0.3854890006       -1.5492478906
 C         -1.5334385530        1.5159259385        0.0732135670
 C         -1.1197697868        0.4364962955        1.0929542269
 C         -2.8664827713        0.9613075245       -0.4841957686
 C         -2.6943438521       -0.5543118156       -0.3310399567
 C         -2.1286994267       -1.2360166020       -1.5822291608
 C          1.1699839430        0.0315054089        0.0806417147
 C          1.0422106567       -0.0454461003        2.2476326184
 C          2.4073204320       -0.2932139479        0.6485617425
 C          3.5379542903       -0.5312011550       -0.2028924858
 C          1.9516641139       -0.0565294191       -1.9963412117
 H         -0.7875831578        1.5604613882       -0.7233788062
 H         -1.4011410505        0.7588536172        2.1062733688
 H         -3.0098074378        1.2333724281       -1.5366881939
 H         -3.6445495815       -1.0212410081       -0.0526694037
 H         -2.7833854310       -1.0503394763       -2.4347081708
 H         -1.1275805288       -0.8340792216       -1.7899741031
 H         -1.6044330052        3.4756610019        0.1114812839
 H         -3.6604962372        2.1634430109        0.8161257847
 H          0.6173589701        0.0062084078        3.2293797239
 H         -1.6406900344       -2.8352227045       -0.5895672374
 H          1.8159587066        0.0297881144       -3.0636053508
 H          3.9325488388       -0.5457095732       -2.2137855474
  31
        -59.63880700
 O         -1.9285967346       -0.5013051553        1.3477336792
 O         -1.2406768619        2.3918357524       -0.5112330996
 O         -3.6944503207        1.6371869969        0.1821320993
 O         -3.7790619383       -1.9710208810       -1.4271935941
 O          4.7400634793       -1.1199381734       -0.2706665576
 N          0.3259008871       -0.2646694878        0.7653220091
 N          1.9135921233       -1.8266093906        0.8628973357
 N          1.5830604482        1.5270535528       -0.3036839253
 N          3.7979135198        0.8922508446       -0.7336926945
 C         -1.4185570190        1.0157967013       -0.4294876864
 C         -0.9541529469        0.4023495926        0.9194512867
 C         -2.9187181131        0.6599851670       -0.4525494016
 C         -2.9564457974       -0.6332833935        0.3670497335
 C         -2.7364733003       -1.8872005122       -0.4886900469
 C          1.4414620085        0.2823007027        0.2136996435
 C          0.6766704667       -1.5289965836        1.1362815166
 C          2.4329951716       -0.7033157455        0.2799405387
 C          3.7431809442       -0.4139597702       -0.2289853374
 C          2.7711544380        1.7680938201       -0.7538857845
 H         -0.9069029878        0.4978138228       -1.2523796482
 H         -0.8406418270        1.1936242059        1.6756500304
 H         -3.2820377700        0.4847267842       -1.4729282954
 H         -3.9080404633       -0.7112938630        0.8984732964
 H         -1.7607699708       -1.8210189017       -0.9920842428
 H         -2.7260020749       -2.7545858713        0.1812466178
 H         -0.2872151681        2.5864990776       -0.5271480522
 H         -3.3563066891        2.5091631124       -0.0818815515
 H         -0.0201021713       -2.1901560500        1.6084586142
 H         -3.7380894975       -2.8239832631       -1.8829389851
 H          2.9590715443        2.7416248716       -1.1799132023
 H          4.6997601899        1.1680681550       -1.1101739569
  31
        -59.63877589
 O         -1.8988098954       -0.6589556723        1.1580560537
 O         -2.2884768919        2.4654740709        1.2273138092
 O         -3.4847113227        1.5032956434       -0.9219849195
 O         -2.4980229063       -1.8897346683       -2.2347607528
 O          4.5627622366       -1.0475005077       -0.1670598726
 N          0.3302055632        0.0717170115        1.3004205673
 N          2.2790085729       -0.8229043930        1.9356734547
 N          0.8697468234        0.5430458122       -1.0395407491
 N          3.0589788950       -0.1010633840       -1.5784834559
 C         -1.4811835369        1.5814725257        0.4982417209
 C         -1.0694803033        0.4337530426        1.4312823640
 C         -2.2702082308        0.8740259570       -0.6450520262
 C         -2.4260789012       -0.5882278823       -0.1650335363
 C         -1.7395064386       -1.6105146017       -1.0876088543
 C          1.1418853168        0.0813390882        0.2048657732
 C          1.0766580104       -0.4945763365        2.2977773266
 C          2.3598884270       -0.4738124900        0.6150856887
 C          3.4380177486       -0.5957843352       -0.3248860935
 C          1.8504117041        0.4234042512       -1.8720857567
 H         -0.5957729533        2.0899108995        0.1069848560
 H         -1.2312493867        0.7149249479        2.4784850191
 H         -1.6875330266        0.9158471425       -1.5674265080
 H         -3.4863492432       -0.8596063582       -0.0955119313
 H         -0.7356273690       -1.2572707212       -1.3559408691
 H         -1.6478259610       -2.5556142857       -0.5468624155
 H         -2.4891793541        3.2404775437        0.6797610277
 H         -3.9901527854        1.5975794003       -0.0983144081
 H          0.6870049666       -0.6411718117        3.2844070436
 H         -2.6257680735       -1.0793173940       -2.7490394205
 H          1.6914376738        0.7711322878       -2.8814479912
 H          3.7725155335       -0.1580458335       -2.2990160562
  31
        -59.63873351
 O         -1.5832902672       -0.1205378488        1.2619481997
 O         -1.5576029967        1.9839480798       -1.4998343189
 O         -3.8542559133        1.6322052349       -0.1590558011
 O         -4.3583739947       -2.2632606710        0.1259488584
 O          4.8895623929       -1.1171397919       -0.3697874577
 N          0.3909191152       -0.1482848786        0.0024283052
 N          1.8366392004       -1.7503587464       -0.5722069601
 N          1.9598365700        1.6022097756        0.6283063009
 N          4.1854504972        0.9123084087        0.3638036007
 C         -1.7383460939        0.7030682174       -0.9767866196
 C         -0.8432048909        0.5482908073        0.2721291140
 C         -3.1667545217        0.4462866684       -0.4284475355
 C         -2.9037004818       -0.4236063622        0.8120319078
 C         -3.0507258965       -1.9249645608        0.5021677354
 C          1.6375334034        0.3663413266        0.1846018932
 C          0.5848843385       -1.4239932251       -0.4480628128
 C          2.5367063736       -0.6401794601       -0.1829213542
 C          3.9464587351       -0.3860405914       -0.1012980742
 C          3.2321010457        1.8117129855        0.6954178432
 H         -1.4737864435       -0.0670033057       -1.7159761635
 H         -0.5384498766        1.5406391249        0.6350949797
 H         -3.7914229560       -0.0963562464       -1.1423490223
 H         -3.5870022536       -0.1513414532        1.6240779416
 H         -2.4217242936       -2.1891713873       -0.3510260362
 H         -2.7137708821       -2.4981296103        1.3736718128
 H         -2.2496085095        2.1749977440       -2.1513473268
 H         -3.3206474623        2.2116246219        0.4051013739
 H         -0.2227004849       -2.0922289112       -0.6649845415
 H         -4.9560992476       -2.1642770401        0.8808077854
 H          3.5629648673        2.7784079939        1.0424016677
 H          5.1652620478        1.1651530497        0.4486007940
  31
        -59.63869335
 O         -1.6487349541       -0.0652722400        1.2285086814
 O         -2.0836256487        2.4778031891       -0.6871754291
 O         -4.0304176407        0.8240405797       -1.2802091576
 O         -2.8063223356       -2.5432646395        0.4636642132
 O          4.7223041431       -1.2761731078       -0.6245562244
 N          0.3331675980       -0.0021278100        0.0196407681
 N          1.6227205363       -1.6223336170       -0.8148114530
 N          2.0579982846        1.5116049772        0.8262892715
 N          4.2099485722        0.6815537971        0.4031072238
 C         -1.7000952167        1.1423515032       -0.8287809020
 C         -0.8489332902        0.7345568360        0.3924206967
 C         -2.9040513900        0.1802735980       -0.7601793649
 C         -2.9901978901       -0.1289730237        0.7465906025
 C         -3.5595898321       -1.5166164269        1.0624185634
 C          1.6214598353        0.3788499686        0.2312339982
 C          0.4061585760       -1.2126482487       -0.6118220824
 C          2.4230256525       -0.6392445987       -0.2977710440
 C          3.8508368532       -0.5154608600       -0.2272696712
 C          3.3446490011        1.6033279382        0.8821080856
 H         -1.1283300833        1.0095303221       -1.7587165834
 H         -0.5080174718        1.6322057928        0.9245910886
 H         -2.6750070855       -0.7430953363       -1.3068610171
 H         -3.5934606209        0.6456430007        1.2398844824
 H         -3.6015252315       -1.6428176177        2.1486162583
 H         -4.5686571828       -1.5964028149        0.6552962285
 H         -2.9425853803        2.5949073438       -1.1294163420
 H         -4.7508759501        0.1937947946       -1.4110399078
 H         -0.4646723658       -1.7668133672       -0.8984111580
 H         -1.9625137851       -2.6131552292        0.9303371477
 H          3.7640769848        2.4827403126        1.3458581769
 H          5.2094546809        0.8379024184        0.4900626025
  31
        -59.63864257
 O         -1.7317496181       -0.9227719167        0.7814137441
 O         -2.2998654647        2.2018368890        1.4696165785
 O         -3.2768919810        1.8015530126       -0.9465831014
 O         -1.9417978321       -1.7215395360       -1.9765613483
 O          4.6966003758       -0.7663729884       -0.1909071810
 N          0.3726070252       -0.0780783077        1.2740590069
 N          2.4021405499       -0.7525319170        1.9204482140
 N          0.8551874526        0.4218044154       -1.0677859314
 N          3.0960750178       -0.0039397698       -1.6073259798
 C         -1.4859639415        1.4463717898        0.6178348764
 C         -1.0434798603        0.1673331358        1.3559791409
 C         -2.2617249905        0.9026738478       -0.6000209579
 C         -2.7758184011       -0.4480372232       -0.0665085421
 C         -3.0522150612       -1.4975969693       -1.1449384649
 C          1.1795570718        0.0061670790        0.1781864675
 C          1.1712005332       -0.5485193050        2.2793017294
 C          2.4479199120       -0.4146154801        0.5945231952
 C          3.5297978599       -0.4366320924       -0.3488249347
 C          1.8389393540        0.3915214256       -1.9035479668
 H         -0.6145705197        2.0360507361        0.3068276517
 H         -1.3014235811        0.2567232383        2.4206378911
 H         -1.5565285664        0.7195540519       -1.4169458352
 H         -3.6860228741       -0.2790638706        0.5266728810
 H         -3.3660497008       -2.4261470434       -0.6541159881
 H         -3.8572295466       -1.1475352233       -1.7921922357
 H         -2.9452200805        2.6776437567        0.9176746050
 H         -3.5016347694        1.7104594763       -1.8812512981
 H          0.7998662222       -0.7200943903        3.2690550340
 H         -1.2237366446       -2.0687896615       -1.4311486839
 H          1.6422363056        0.7061197058       -2.9168547326
 H          3.8094213317        0.0023345418       -2.3301311570
  31
        -59.63863045
 O         -1.6987562785       -0.1660751068        1.1295746755
 O         -2.1522840717        2.5351272831       -0.4657347713
 O         -3.8621376284        0.7681466653       -1.5601421319
 O         -3.6989030047       -2.2869666084        1.6836956390
 O          4.7717313721       -1.1892274234       -0.7103741990
 N          0.3587124954       -0.0397394923        0.0107359578
 N          1.6772513121       -1.5960722383       -0.8971854486
 N          2.0554152745        1.4746169858        0.8709071627
 N          4.2220584603        0.7127819655        0.3999900925
 C         -1.6016494708        1.2827934663       -0.7473471066
 C         -0.8211990283        0.6823446048        0.4385955394
 C         -2.7094718429        0.2300893652       -0.9948578405
 C         -2.9280944097       -0.3534020622        0.4161190611
 C         -3.3170363286       -1.8326155336        0.4121520126
 C          1.6420348721        0.3580604790        0.2296488544
 C          0.4540608065       -1.2214320851       -0.6696592712
 C          2.4608941417       -0.6185377226       -0.3456838328
 C          3.8864444189       -0.4656394848       -0.2776143502
 C          3.3404877717        1.5932458361        0.9234593717
 H         -0.9629467074        1.4239725659       -1.6213946535
 H         -0.4516205379        1.4646178554        1.1144763403
 H         -2.3459601415       -0.5549768377       -1.6671161387
 H         -3.7199555811        0.2039602045        0.9352364428
 H         -4.1865771840       -1.9615775534       -0.2357437509
 H         -2.4836480643       -2.4314201707        0.0212446468
 H         -2.5597189348        2.5413196174        0.4141616326
 H         -3.8521448139        1.7344279222       -1.4272083417
 H         -0.4043169889       -1.7841983530       -0.9732672472
 H         -2.9603805404       -2.1574954958        2.2961420635
 H          3.7434368163        2.4611037374        1.4224458058
 H          5.2184440189        0.8883752990        0.4866912591
  31
        -59.63859371
 O         -1.3335005604        1.3476492780        0.7178066154
 O         -2.7513393370        0.6398937538       -2.3341012539
 O         -4.2016644177        1.0368914165       -0.1513204882
 O         -1.1610951424       -1.7159140682        0.8098109956
 O          4.4831818716       -1.3403983797       -0.3343891296
 N          0.2517545844        0.4406610921       -0.7813768901
 N          1.9011869703       -0.5799808327       -1.8897499877
 N          1.2874939337        0.5615558961        1.4310576970
 N          3.4254651002       -0.4051967080        1.4412242392
 C         -2.1821131693        0.1507779527       -1.1615648655
 C         -1.0482051397        1.0713582938       -0.6146830941
 C         -3.1779459559        0.0958504003        0.0247119286
 C         -2.2756847678        0.4019505055        1.2252397895
 C         -1.6252420202       -0.8489265641        1.8277815059
 C          1.2455927054        0.2280866665        0.1204573028
 C          0.7092036629       -0.0658016954       -1.9639029874
 C          2.2750735890       -0.4151448347       -0.5850251507
 C          3.4822153366       -0.7797358707        0.0954660700
 C          2.3800093378        0.2244042152        2.0262714788
 H         -1.7715868338       -0.8453887241       -1.3538949435
 H         -1.0233525312        2.0199222270       -1.1709367908
 H         -3.6601634649       -0.8787663010        0.0974299889
 H         -2.8137811722        0.9205413946        2.0226605945
 H         -0.7904792446       -0.5174050247        2.4569496027
 H         -2.3789650110       -1.3514992473        2.4431392995
 H         -3.6260356284        1.0139454816       -2.1109752547
 H         -3.8737606591        1.9223123538        0.0690905328
 H          0.1256308171       -0.0255571034       -2.8615915922
 H         -0.9312234829       -2.5670020698        1.2068820369
 H          2.4717053651        0.4608648116        3.0753375920
 H          4.2499407225       -0.6313022321        1.9884566274
  31
        -59.63853927
 O         -1.6114684636       -0.2771449338        1.2409031675
 O         -1.4715012829        1.8965762182       -1.5114600361
 O         -3.6713961910        1.7239321234       -0.0070614849
 O         -4.5259771435       -2.1581631775        0.0073223352
 O          4.9131167988       -1.0571923131       -0.3624041450
 N          0.4007135418       -0.1887977616        0.0703248979
 N          1.8753125310       -1.7812162811       -0.4531517181
 N          1.9345570631        1.6343478005        0.5643361142
 N          4.1713406729        0.9881950380        0.2839607559
 C         -1.7086917868        0.6384573656       -0.9562415635
 C         -0.8565564041        0.4680672379        0.3216884077
 C         -3.1480846617        0.4879221794       -0.4115259558
 C         -2.9544847975       -0.4524154247        0.7854539173
 C         -3.2049451873       -1.9251710142        0.4156699367
 C          1.6353799252        0.3683704743        0.1955561506
 C          0.6181292675       -1.4817314836       -0.3155295082
 C          2.5530256629       -0.6333726431       -0.1407807234
 C          3.9568428699       -0.3383650222       -0.1074106663
 C          3.2019184278        1.8791299165        0.5913089176
 H         -1.4777490671       -0.1736954978       -1.6541360429
 H         -0.6055503055        1.4570240212        0.7322930399
 H         -3.8263482007        0.0318520264       -1.1439875728
 H         -3.6173404811       -0.1508150435        1.6037114759
 H         -2.5790243321       -2.2022788730       -0.4363184909
 H         -2.9247862288       -2.5512727383        1.2705404409
 H         -1.7344720595        1.9144979075       -2.4436985233
 H         -3.0975194142        2.4296346137       -0.3570638523
 H         -0.1800420071       -2.1787092801       -0.4690095632
 H         -5.1288607701       -2.0301586313        0.7536536710
 H          3.5143608690        2.8709422990        0.8794820223
 H          5.1457653862        1.2696190200        0.3327307212
  31
        -59.63847567
 O         -1.5725402269       -0.4367824769        1.0166111260
 O         -1.6640362066        2.1693350317       -1.2377432569
 O         -4.1221161118        1.2947037576       -0.7594896881
 O         -3.5378022630       -2.4381116413        0.5142015019
 O          4.9235151666       -1.0412876880       -0.5241599185
 N          0.4128640459       -0.1493412185       -0.1325304081
 N          1.8819623487       -1.6141967075       -0.9549778738
 N          1.9503491964        1.4423673816        0.8780534529
 N          4.1862445621        0.8094516920        0.5635463662
 C         -1.7242458271        0.7899983748       -1.0155725551
 C         -0.8405586546        0.4535510363        0.2089064968
 C         -3.1452796285        0.3185995314       -0.5811880440
 C         -2.9493885511       -0.1023411291        0.8926463506
 C         -3.8018207324       -1.3056490602        1.3022977908
 C          1.6488765570        0.3162230398        0.1934681467
 C          0.6255051097       -1.3145171853       -0.8158610463
 C          2.5634835861       -0.6036477416       -0.3309689463
 C          3.9686732247       -0.3740437228       -0.1519807972
 C          3.2189034498        1.6308416593        1.0290246573
 H         -1.3737810685        0.2322477432       -1.8915416104
 H         -0.6117441723        1.3874034061        0.7459259520
 H         -3.4640911015       -0.5486872979       -1.1655830695
 H         -3.1837580392        0.7487641692        1.5484318956
 H         -3.6328396256       -1.5190382597        2.3634380486
 H         -4.8525197789       -1.0560523882        1.1438144351
 H         -2.1185465122        2.3864909374       -2.0661070945
 H         -3.8074944446        2.1343678996       -0.3843358243
 H         -0.1773162352       -1.9154521432       -1.1913507243
 H         -2.6339006706       -2.7317180046        0.6951223768
 H          3.5331436397        2.5111555199        1.5681451204
 H          5.1617370986        1.0380193198        0.7293313994
  31
        -59.63845298
 O         -1.8336344928       -0.3890981276        1.4041409689
 O         -2.0983087435        2.4420271326        0.3793431426
 O         -3.2600832812        0.9765173295       -1.5714759793
 O         -4.2104395354       -2.0133881444       -0.8736277070
 O          4.6796486182       -1.2044334143       -0.6157538844
 N          0.3803458350       -0.1705981431        0.7061181573
 N          1.7863549091       -1.8662766389        0.3437968260
 N          1.8522820509        1.6923617867        0.1488930129
 N          3.9843937680        0.9523752093       -0.4902403111
 C         -1.3747150911        1.3570173231       -0.1210656294
 C         -0.8417740770        0.5337444971        1.0634133681
 C         -2.2827220526        0.3260157405       -0.8177051523
 C         -2.8307243168       -0.4690394159        0.3829019265
 C         -3.1455037794       -1.9309355805        0.0406700161
 C          1.5577968928        0.3805231297        0.3044490916
 C          0.5882448234       -1.5194853156        0.7118407658
 C          2.4318385656       -0.6903591527        0.0770526167
 C          3.7722265640       -0.4246650702       -0.3613756227
 C          3.0629614182        1.9105637140       -0.2423153950
 H         -0.5558221542        1.6990511618       -0.7653441002
 H         -0.6369501881        1.1842136932        1.9223534710
 H         -1.6634123369       -0.3313957583       -1.4454241191
 H         -3.7372081336        0.0311515721        0.7526089674
 H         -2.2803397686       -2.3872614946       -0.4490627731
 H         -3.3516236784       -2.4792545894        0.9644556369
 H         -2.6995872747        2.7520266006       -0.3182868517
 H         -3.8059916247        0.3182475099       -2.0261870213
 H         -0.1753808528       -2.2072376046        1.0109974985
 H         -5.0519193554       -1.9156042895       -0.4060006629
 H          3.3648853601        2.9367093927       -0.3841913714
 H          4.9163813864        1.2176967208       -0.7935487523
  31
        -59.63844148
 O         -1.6614331756       -0.3142842862        1.2303326531
 O         -1.4091108402        1.8678421476       -1.5854449356
 O         -3.4980875065        1.8194693709        0.0562620893
 O         -4.5388970578       -2.3054575781        0.1740465220
 O          4.8975199704       -1.0282317664       -0.4201827676
 N          0.3906651399       -0.1981868227        0.1257082722
 N          1.8644087117       -1.7787275073       -0.4338399822
 N          1.9200894304        1.6371733068        0.5843004339
 N          4.1541278123        1.0107068572        0.2433823754
 C         -1.6831885739        0.6762968828       -0.9348936181
 C         -0.8672191595        0.4590283270        0.3686292078
 C         -3.1295822469        0.5500681051       -0.4146687999
 C         -2.9791938618       -0.4920238480        0.7029799081
 C         -3.1837415056       -1.9443575598        0.2266655976
 C          1.6223766160        0.3692785464        0.2196799038
 C          0.6078449291       -1.4871862086       -0.2695546588
 C          2.5400838307       -0.6256889431       -0.1377474580
 C          3.9410838049       -0.3179472470       -0.1411887484
 C          3.1854122453        1.8930612334        0.5770237930
 H         -1.4522242116       -0.1311449823       -1.6374933345
 H         -0.6232395388        1.4249073780        0.8327083829
 H         -3.8087783136        0.2134617652       -1.2052349684
 H         -3.6745589009       -0.3042951520        1.5285087938
 H         -2.6925074575       -2.1021208613       -0.7408340964
 H         -2.7226928232       -2.6026172170        0.9669166100
 H         -1.8848410085        2.5846901422       -1.1297798553
 H         -4.4215216024        1.8230898611        0.3435624273
 H         -0.1897826330       -2.1885722269       -0.4046070338
 H         -4.9688671471       -1.8979459447       -0.5906431810
 H          3.4972481537        2.8870713261        0.8580709963
 H          5.1266733250        1.3015885311        0.2631414414
  31
        -59.63842720
 O         -1.6556422633       -0.2806587331        1.0413914457
 O         -2.0522152945        2.4803318269       -0.5080982960
 O         -3.8974324005        0.8907561213       -1.4762908934
 O         -3.7631466834       -2.1782784686        1.8274971153
 O          4.8237842032       -1.1382489357       -0.6910265395
 N          0.3872016198       -0.0464111718       -0.0374476453
 N          1.7409498694       -1.5642288984       -0.9593069829
 N          2.0508550588        1.4574833740        0.9052244641
 N          4.2345293691        0.7261235384        0.4621020419
 C         -1.6151636584        1.1946540966       -0.8291664578
 C         -0.8240972029        0.6268527989        0.3675776533
 C         -2.7867901512        0.2005225214       -0.9871668171
 C         -2.9518326656       -0.3444051480        0.4437029539
 C         -3.4514819797       -1.7896908567        0.5160517801
 C          1.6595605286        0.3577321907        0.2231369469
 C          0.5095148043       -1.2069282582       -0.7483449960
 C          2.5012818886       -0.5954029299       -0.3614549093
 C          3.9233461010       -0.4337626644       -0.2568652728
 C          3.3329692077        1.5839008052        0.9906256636
 H         -0.9859556047        1.2208467940       -1.7307055638
 H         -0.5216245460        1.4455859225        1.0332550787
 H         -2.4892694457       -0.6109668967       -1.6647721795
 H         -3.6325891492        0.3104284702        1.0061064157
 H         -4.3782863325       -1.8918271545       -0.0514433219
 H         -2.6886216363       -2.4527230480        0.0856925595
 H         -2.8768784238        2.6525052506       -0.9949593758
 H         -4.6299023362        0.2852727499       -1.6518488438
 H         -0.3383364696       -1.7670385237       -1.0850455268
 H         -2.9771092342       -2.0678041111        2.3809878663
 H          3.7167948368        2.4399465285        1.5237605789
 H          5.2271627814        0.9067875598        0.5773041680
  31
        -59.63842644
 O         -1.7244872308       -0.3226823808        1.1215655355
 O         -2.1819005695        2.4634491946       -0.1945352648
 O         -3.6899490528        0.8230507701       -1.6599723413
 O         -3.9620948695       -2.3117813519        1.4482793679
 O          4.7972032076       -1.1443299166       -0.7311099769
 N          0.3840547585       -0.1067272267        0.1396491657
 N          1.7171359567       -1.6776029601       -0.7186723220
 N          2.0580865985        1.5420894892        0.7718623601
 N          4.2278425420        0.8204724540        0.2518973788
 C         -1.5176483811        1.3032560290       -0.6039684425
 C         -0.8116233484        0.5871062741        0.5728317311
 C         -2.5982867713        0.2747308859       -1.0004732971
 C         -2.9361655686       -0.3562193729        0.3665810413
 C         -3.4777858786       -1.7812550447        0.2437980275
 C          1.6574416988        0.3592536789        0.2508622436
 C          0.4926342284       -1.3341287585       -0.4489140590
 C          2.4859667788       -0.6292085311       -0.2915550233
 C          3.9056588060       -0.4204743290       -0.3110901647
 C          3.3388333023        1.7095125060        0.7473432220
 H         -0.8159375106        1.5008339634       -1.4207809022
 H         -0.4912788180        1.3026992041        1.3411683036
 H         -2.1728856618       -0.4838615732       -1.6649317645
 H         -3.6757338546        0.2767522982        0.8785732144
 H         -4.2586388850       -1.7728755292       -0.5285175442
 H         -2.6752246577       -2.4530031438       -0.0683621932
 H         -1.5669620919        3.2046784105       -0.1065692642
 H         -3.8890783691        1.6872358630       -1.2589218400
 H         -0.3584042173       -1.9527017808       -0.6448461015
 H         -4.6972547616       -1.7715362709        1.7721478182
 H          3.7314123838        2.6301998893        1.1505462915
 H          5.2199086493        1.0356272538        0.2758468040
  31
        -59.63840860
 O         -2.0002925279       -0.6284265695        1.2129815646
 O         -2.4863018161        2.3576177342        1.2355455985
 O         -3.1459874451        1.5567105768       -1.2104780686
 O         -2.4521237570       -1.8339464824       -2.2191769954
 O          4.4624944744       -1.2006568654       -0.3078827179
 N          0.2816594964       -0.0541755042        1.2786221043
 N          2.0927544811       -1.2982103239        1.7006055100
 N          1.0043786781        0.9643534884       -0.8281718316
 N          3.1463813131        0.2483630410       -1.4568036714
 C         -1.5039222808        1.5779851285        0.6172818010
 C         -1.0823547193        0.3943311542        1.4978392313
 C         -2.0612793332        0.8783710418       -0.6495902894
 C         -2.4296015390       -0.5414527620       -0.1477153857
 C         -1.7962395907       -1.6563741149       -0.9928423321
 C          1.1514923637        0.1584768332        0.2498427120
 C          0.9120905558       -0.9461929298        2.1059958684
 C          2.2830728897       -0.6183349015        0.5289130864
 C          3.3993009186       -0.6014574476       -0.3735747876
 C          2.0153643178        0.9639411663       -1.6318642634
 H         -0.6754207064        2.2450458014        0.3831156372
 H         -1.1748065401        0.6223887678        2.5660118912
 H         -1.2660857963        0.8167740568       -1.4008261924
 H         -3.5166205146       -0.6813530392       -0.1563765235
 H         -0.7265846424       -1.4477788310       -1.1455317817
 H         -1.8902772910       -2.6030543119       -0.4554996114
 H         -3.1669451640        1.7870986357        1.6266683739
 H         -3.4085736848        2.2744881305       -0.6053553994
 H          0.4511971912       -1.3101038743        3.0014490562
 H         -2.4838796723       -0.9927460589       -2.6981911552
 H          1.9501648450        1.5856726927       -2.5116982102
 H          3.8944677572        0.3112195494       -2.1408164704
  31
        -59.63840247
 O         -1.8892794142       -0.7160496709        1.1559321422
 O         -2.5206927394        2.2845400817        1.2672465262
 O         -3.2093840689        1.5573695968       -1.1506354082
 O         -2.6389356797       -1.7393347447       -2.2800710267
 O          4.5433528766       -1.0912200771       -0.2466307015
 N          0.3395150699        0.0067652311        1.3183301276
 N          2.2476804599       -1.0335956741        1.8516077016
 N          0.9274004657        0.7411178934       -0.9418463347
 N          3.0925713264        0.0752497793       -1.5443390665
 C         -1.5068773964        1.5583390274        0.6276109794
 C         -1.0593853475        0.3622123712        1.4895746977
 C         -2.1135083924        0.8765595713       -0.6259527755
 C         -2.4426883376       -0.5598972824       -0.1488236494
 C         -1.8954702342       -1.6383770485       -1.0953102871
 C          1.1625792149        0.1163810657        0.2360489891
 C          1.0547984244       -0.7068579319        2.2432430732
 C          2.3552847610       -0.5300129856        0.5840255964
 C          3.4385626466       -0.5798658129       -0.3565682931
 C          1.9101053201        0.6826826959       -1.7778874537
 H         -0.6584493092        2.1882033402        0.3548007372
 H         -1.2061298444        0.5565753568        2.5583405131
 H         -1.3513160233        0.8434828895       -1.4098978637
 H         -3.5281322517       -0.6910753519       -0.0617110581
 H         -0.8358245653       -1.4351408137       -1.3107828714
 H         -1.9692598387       -2.6107688966       -0.6027251591
 H         -2.1545724640        3.0139455091        1.7846047860
 H         -3.7036047753        1.9590857137       -0.4155010853
 H          0.6483564534       -0.9605975519        3.2009817892
 H         -2.6928550099       -0.8709065344       -2.7059042318
 H          1.7754288869        1.1591935516       -2.7369209568
 H          3.8110631901        0.0760842606       -2.2621272530
  31
        -59.63836574
 O         -1.8943602821       -0.4120355672        1.4161691631
 O         -2.1830401197        2.4378005808        0.5985689106
 O         -3.1689104979        1.1159683157       -1.5338160748
 O         -3.8647430108       -2.0482229827       -1.2175451837
 O          4.6130788055       -1.2476311511       -0.5595165833
 N          0.3463003627       -0.1590454803        0.8222532224
 N          1.7917051152       -1.8493403162        0.6146705714
 N          1.7357852412        1.6527682426       -0.0470484525
 N          3.8591677372        0.8892124178       -0.6869440345
 C         -1.3823622517        1.4325887845        0.0462694821
 C         -0.8876510796        0.5275718982        1.1833053020
 C         -2.2053223782        0.4339869513       -0.7895487107
 C         -2.7824709378       -0.4953571162        0.2980991272
 C         -2.9262211140       -1.9484952116       -0.1752182481
 C          1.4859495337        0.3666717467        0.2950804990
 C          0.6018814192       -1.4895318973        0.9952380583
 C          2.3840553317       -0.7011934294        0.1664044221
 C          3.6947280453       -0.4629311683       -0.3673231590
 C          2.9201416052        1.8475324192       -0.5222170684
 H         -0.5470521260        1.8659681017       -0.5146691684
 H         -0.7248081120        1.1044152248        2.1015669152
 H         -1.5263179733       -0.1354056428       -1.4402840301
 H         -3.7589574144       -0.1063235303        0.6174597351
 H         -1.9705336728       -2.2957525065       -0.5794382809
 H         -3.1903155422       -2.5792863504        0.6783751235
 H         -2.7812233896        2.7589355203       -0.0965158809
 H         -3.6353069791        0.4912238085       -2.1074877437
 H         -0.1272670993       -2.1523873770        1.4134545909
 H         -4.7596396115       -2.0793143112       -0.8509171289
 H          3.1815408403        2.8531320422       -0.8134502320
 H          4.7676173062        1.1350361424       -1.0684627659
  31
        -59.63835477
 O         -1.9453891064       -0.7707338427        1.1192421208
 O         -1.1827142038        2.3249903462       -0.4759109954
 O         -3.6250524091        1.8219821178        0.4225719102
 O         -2.5300070816       -1.8878328445       -1.4966194122
 O          4.7432598604       -1.0685213479       -0.2005615230
 N          0.2879257285       -0.3212969690        0.7353660550
 N          1.9432072289       -1.8002620537        0.9626145845
 N          1.4904897077        1.4406638262       -0.4505071759
 N          3.7301796068        0.8644481320       -0.8239524153
 C         -1.5028099674        0.9734710052       -0.4194860213
 C         -1.0294018531        0.2584713370        0.8678701737
 C         -3.0293643818        0.7951114724       -0.3210943010
 C         -3.1832257992       -0.5317246051        0.4336907211
 C         -3.4977759296       -1.7192232764       -0.4865296143
 C          1.3847833370        0.2317515766        0.1523080597
 C          0.6932427516       -1.5375023046        1.2058227969
 C          2.4170726881       -0.7028015337        0.2988570567
 C          3.7200735015       -0.4008955693       -0.2214639085
 C          2.6717281461        1.6956043329       -0.9110033345
 H         -1.1288053052        0.4223105319       -1.2932461096
 H         -1.0205614369        0.9808456592        1.7027463544
 H         -3.4798118727        0.7345814444       -1.3198207051
 H         -3.9750475581       -0.4291252972        1.1833907945
 H         -3.5879933239       -2.6231180884        0.1234292809
 H         -4.4450951675       -1.5319854861       -0.9941705606
 H         -0.2136172515        2.4133926016       -0.5614932725
 H         -3.2180739410        2.6627196484        0.1543563090
 H          0.0217191080       -2.1912453264        1.7227126868
 H         -1.7349250223       -2.2708627292       -1.1027649011
 H          2.8231106447        2.6442901450       -1.4028034955
 H          4.6241195223        1.1466907336       -1.2146487058
  31
        -59.63832576
 O         -2.0648955989       -0.5193768396        1.1533054812
 O         -2.3333104295        2.4221791397        0.9565710387
 O         -2.9388271093        1.5806603659       -1.5550315048
 O         -3.2668381451       -2.7654915081       -0.4724197887
 O          4.4807625043       -1.2400505462       -0.6333509311
 N          0.2422134767       -0.2188931261        0.8786545484
 N          1.7323482866       -1.8728175209        0.6754136900
 N          1.5474083278        1.5981998938       -0.1132971817
 N          3.6635342936        0.8701752996       -0.8119968114
 C         -1.3998907023        1.5691568882        0.3593259600
 C         -1.0168385224        0.4003664078        1.2745982017
 C         -2.0285648377        0.8129133052       -0.8348447890
 C         -2.6639484317       -0.4219661381       -0.1509496595
 C         -2.4670097102       -1.7141831714       -0.9478859657
 C          1.3419440780        0.3190531856        0.2807660251
 C          0.5500429096       -1.5345068525        1.0920584025
 C          2.2673476008       -0.7257243758        0.1578140192
 C          3.5493248344       -0.4730067566       -0.4364531451
 C          2.7064689190        1.8076140499       -0.6424098307
 H         -0.5457769214        2.1823787291        0.0745459914
 H         -0.9483899645        0.6929345846        2.3296338425
 H         -1.2453222235        0.4864737393       -1.5283811345
 H         -3.7406478613       -0.2708161329       -0.0096940787
 H         -2.7803481843       -1.5392589491       -1.9792758539
 H         -1.4042836450       -1.9955479135       -0.9374029423
 H         -3.0146702507        1.9067159175        1.4158367887
 H         -3.2483165441        2.3073630870       -0.9832737997
 H         -0.1372157916       -2.2039744277        1.5666629662
 H         -3.0658966361       -2.9221277655        0.4613623499
 H          2.9275644838        2.8098663509       -0.9757733246
 H          4.5491367616        1.1256147685       -1.2383483323
  31
        -59.63830377
 O         -1.5545915882       -1.0018128189        0.7768443458
 O         -2.3264597540        2.1038146735        1.4165181461
 O         -3.2318724166        1.5432654255       -1.0364966441
 O         -3.9412978703       -1.4941421448       -1.9230840464
 O          4.8467232462       -0.6313987729       -0.1330393672
 N          0.4950174638       -0.0501929508        1.2962750560
 N          2.5423792257       -0.6449354280        1.9648924913
 N          0.9749805748        0.4184996456       -1.0544068524
 N          3.2329950522        0.0549192781       -1.5723831071
 C         -1.4298108069        1.3849831172        0.6195916980
 C         -0.9334212687        0.1238504477        1.3630037382
 C         -2.1199313866        0.7967028688       -0.6337734493
 C         -2.5617511056       -0.5875671327       -0.1340892106
 C         -2.7233785689       -1.6325587914       -1.2404240019
 C          1.3036514334        0.0360711286        0.2019936678
 C          1.3033641885       -0.4759460285        2.3135683907
 C          2.5833629909       -0.3330252936        0.6327874602
 C          3.6715269732       -0.3407724160       -0.3032596948
 C          1.9663766479        0.4038737939       -1.8826595868
 H         -0.5813323483        2.0290098797        0.3620263786
 H         -1.2048173898        0.1922079906        2.4255984424
 H         -1.3757192702        0.6789184697       -1.4282599019
 H         -3.5221713979       -0.4870047149        0.3952825474
 H         -1.8715554853       -1.5725282033       -1.9309678659
 H         -2.7332025360       -2.6244542095       -0.7841714848
 H         -3.1641615224        2.1957710125        0.9232317492
 H         -2.9452873262        2.3138387849       -1.5488187382
 H          0.9330296221       -0.6406630223        3.3048593782
 H         -4.0361795697       -0.5796036640       -2.2288186249
 H          1.7692747561        0.6960393177       -2.9028541822
 H          3.9507490399        0.0699005437       -2.2906944881
  31
        -59.63827786
 O         -1.4556968740        0.4089727737        1.1905927665
 O         -2.1041236432        2.2439852140       -1.4422455919
 O         -4.2245674580        1.0616404106       -0.4778471990
 O         -3.6219729129       -2.4989161554        0.5383625357
 O          4.7224743104       -1.3926108349       -0.2949236202
 N          0.3491000714        0.0949531663       -0.2877068011
 N          1.6812001035       -1.5560678735       -0.9910662112
 N          2.0000858949        1.4850709127        0.8349499386
 N          4.1495177689        0.5540066665        0.7223624484
 C         -1.8606328816        0.9066869037       -1.1102305567
 C         -0.8260369474        0.8820736290        0.0309436053
 C         -3.1202268080        0.2071450752       -0.5134873696
 C         -2.6708369221       -0.2675070009        0.8846752780
 C         -2.4859928111       -1.7956386883        0.9658148525
 C          1.6075565854        0.3944337410        0.1393460776
 C          0.4674644305       -1.0941152909       -0.9546431712
 C          2.4348137270       -0.6412100558       -0.3061345432
 C          3.8377183836       -0.5987379350       -0.0073225982
 C          3.2647232627        1.5066330950        1.0934271057
 H         -1.4794001294        0.3583510754       -1.9791233994
 H         -0.4586619312        1.8945529900        0.2408464006
 H         -3.4309113890       -0.6511658987       -1.1145766465
 H         -3.4020462454        0.0483927056        1.6374697705
 H         -1.6736236301       -2.1053248561        0.3050518484
 H         -2.2064453334       -2.0600750151        1.9923460023
 H         -2.7557239457        2.2881587424       -2.1594808299
 H         -3.9624110002        1.9114456131       -0.0872853749
 H         -0.3592270757       -1.5920116698       -1.4194614555
 H         -4.3513642086       -2.3566044858        1.1584660314
 H          3.6478154024        2.3496800119        1.6474595174
 H          5.1286787744        0.6523490937        0.9730195107
  31
        -59.63825635
 O         -2.0857810668       -0.3666186126        1.1733789866
 O         -1.8118804059        2.7080954573        0.4975064286
 O         -3.7931259757        1.6405122578       -0.8037220986
 O         -2.4325667975       -2.9007780305       -0.0817583300
 O          4.5307576943       -1.3475407633       -0.4662107925
 N          0.1911717951       -0.2200154743        0.6314809042
 N          1.6257593950       -1.9266284483        0.5071370985
 N          1.6564114592        1.5811211706       -0.1263396064
 N          3.8101443727        0.7980476202       -0.6240018522
 C         -1.4382176872        1.5094129443       -0.1222798146
 C         -1.0261138782        0.5067523955        0.9780381593
 C         -2.6607541720        0.8263453570       -0.8139677276
 C         -2.8562110918       -0.4883613003       -0.0224854896
 C         -2.4486710581       -1.7228457168       -0.8445578897
 C          1.3709828550        0.2949871672        0.1889385687
 C          0.4172555957       -1.5561270982        0.8116369933
 C          2.2621038656       -0.7828946594        0.1103860804
 C          3.6084106901       -0.5551682041       -0.3295598565
 C          2.8727782110        1.7659472776       -0.5176319883
 H         -0.6122757975        1.6600198208       -0.8187493213
 H         -0.8506449768        1.0415588021        1.9210871869
 H         -2.4492931837        0.6077503947       -1.8635097323
 H         -3.8966314344       -0.5908154155        0.3020089903
 H         -3.1325191758       -1.8118280053       -1.6981901493
 H         -1.4297714753       -1.6039410262       -1.2223399721
 H         -1.7193815763        3.4470951736       -0.1204400367
 H         -3.8031683730        2.1445471871        0.0301036245
 H         -0.3494495910       -2.2218051706        1.1537831938
 H         -3.3190662860       -3.0754784818        0.2658583689
 H          3.1652481589        2.7700316450       -0.7833253406
 H          4.7460773074        1.0356443949       -0.9379052089
  31
        -59.63824689
 O         -1.5993305659        0.0705285902        1.3270463374
 O         -2.2430859783        2.4230786744       -0.5943747431
 O         -3.9340539145        0.5619706530       -1.3208368029
 O         -4.1292388411       -2.2838393905        0.1182896674
 O          4.7810585663       -1.2970207584       -0.5300604491
 N          0.3926994121        0.0059660312        0.0795485731
 N          1.6781606133       -1.6685487232       -0.6484816662
 N          2.1220270234        1.5912960085        0.7202737338
 N          4.2719441612        0.7368846951        0.3390201439
 C         -1.6232750296        1.1817542989       -0.7733830283
 C         -0.7707119257        0.7857920138        0.4516545635
 C         -2.7365165508        0.1077550347       -0.7787488387
 C         -2.8383082482       -0.2827144086        0.7133441825
 C         -3.1087529537       -1.7794716767        0.9367454134
 C          1.6843702747        0.4066767682        0.2355319497
 C          0.4630546018       -1.2503437219       -0.4546213970
 C          2.4826135224       -0.6452983097       -0.2244807931
 C          3.9109326536       -0.5104986877       -0.1848921742
 C          3.4095112312        1.6928321716        0.7492997379
 H         -1.0282711773        1.1540775849       -1.6922616401
 H         -0.3797077367        1.6655321042        0.9776395476
 H         -2.4374254816       -0.7619704347       -1.3712746069
 H         -3.6312829235        0.3164090817        1.1817300162
 H         -2.2098240286       -2.3469322386        0.6824580168
 H         -3.3247865021       -1.9466308165        1.9990472290
 H         -1.6268807900        3.1476163670       -0.7683425924
 H         -4.0364154298        1.5024994359       -1.0914745477
 H         -0.4067197550       -1.8297727141       -0.6858663106
 H         -4.9615379122       -1.8292592115        0.3107151994
 H          3.8310598367        2.6116713438        1.1267216808
 H          5.2718373966        0.9029419511        0.3998692125
  31
        -59.63823679
 O         -1.5563564899        0.2556637362        1.3007107365
 O         -2.3157636230        2.4252071595       -0.7786979520
 O         -4.0598164526        0.5383083587       -1.1750454555
 O         -3.8465751676       -2.4028359765        0.2554814728
 O          4.7317178032       -1.3762105905       -0.4649667740
 N          0.3684438454        0.0809184760       -0.0500725331
 N          1.6304448064       -1.6046233089       -0.7958308831
 N          2.1162707690        1.5523072663        0.7824184495
 N          4.2502663413        0.6269862280        0.4873818660
 C         -1.7052471823        1.1706149398       -0.8847914651
 C         -0.7810411589        0.8846060178        0.3177190582
 C         -2.8132453432        0.0986243593       -0.7387342417
 C         -2.7788379114       -0.2510903834        0.7680689622
 C         -2.8725214934       -1.7641525774        1.0366680965
 C          1.6632137739        0.4148629430        0.2080994094
 C          0.4230078115       -1.1466094645       -0.6511243683
 C          2.4465726697       -0.6428597960       -0.2632791279
 C          3.8737572861       -0.5725639852       -0.1287627639
 C          3.4021686486        1.5966227509        0.8957549908
 H         -1.1640590944        1.0629320488       -1.8303554436
 H         -0.3685956453        1.8036307497        0.7509476765
 H         -2.5777530185       -0.7920360265       -1.3291661808
 H         -3.6012887785        0.2709535426        1.2738351096
 H         -1.9200886115       -2.2325116607        0.7745749060
 H         -3.0461227238       -1.9265470492        2.1071728415
 H         -1.7231862223        3.1273885884       -1.0796883792
 H         -4.1252977164        1.4934151839       -0.9979515795
 H         -0.4505346093       -1.6736909578       -0.9755054417
 H         -4.7226848565       -2.0521114982        0.4695956536
 H          3.8349724753        2.4751532408        1.3488389346
 H          5.2500286112        0.7456680927        0.6196589318
  31
        -59.63823014
 O         -1.4963616482        0.4875184071        1.2341813493
 O         -2.4448472566        2.4057144688       -0.9800236243
 O         -4.1744072466        0.4863862570       -0.9924505816
 O         -3.4799534533       -2.5068910440        0.4835243729
 O          4.6420769799       -1.4883058401       -0.3742056938
 N          0.3395648663        0.1857532204       -0.2214344887
 N          1.5766024093       -1.5130088687       -0.9809303723
 N          2.0827140177        1.4962144354        0.8567332021
 N          4.1845389579        0.4721618583        0.6747643224
 C         -1.8113413898        1.1581174282       -1.0139516444
 C         -0.7975054967        1.0118141213        0.1394573835
 C         -2.8774486655        0.0789369745       -0.6893732045
 C         -2.6650091439       -0.2140564687        0.8170483405
 C         -2.5096440562       -1.7171236488        1.1171353332
 C          1.6226598495        0.4267684159        0.1690217569
 C          0.3853225700       -1.0005172597       -0.9029859096
 C          2.3898804570       -0.6385292002       -0.3114853773
 C          3.8015925510       -0.6598974848       -0.0541858297
 C          3.3546311547        1.4601938318        1.0774196639
 H         -1.3363491071        0.9741148484       -1.9825071346
 H         -0.3778540735        1.9725891054        0.4579741541
 H         -2.7032029793       -0.8352421636       -1.2653831717
 H         -3.5080916649        0.1939219247        1.3872779877
 H         -1.5444750333       -2.0626055551        0.7367373855
 H         -2.5178969461       -1.8635958226        2.2039925108
 H         -1.9004718280        3.0844488204       -1.4013489243
 H         -4.2268167952        1.4513480530       -0.8747434981
 H         -0.4792666066       -1.4541062855       -1.3423371731
 H         -4.3585882728       -2.2813146253        0.8205078780
 H          3.7919709665        2.2814785310        1.6238884649
 H          5.1738737600        0.5246184872        0.8981245330
  31
        -59.63821758
 O         -1.6502482026       -0.1539944736        1.2476709595
 O         -1.5288918805        1.9718995380       -1.5748752787
 O         -3.7031080089        1.7484215975       -0.0201808783
 O         -4.3356362578       -2.4382009085        0.3077281078
 O          4.8696574077       -1.0998692037       -0.4085127675
 N          0.3746786958       -0.1581293513        0.0597625106
 N          1.8166541573       -1.7590745141       -0.5255744567
 N          1.9441805586        1.6111159866        0.6255863015
 N          4.1675589641        0.9332799193        0.3162759028
 C         -1.7148828120        0.7382068711       -0.9662606898
 C         -0.8591913059        0.5426028116        0.3165392034
 C         -3.1535810846        0.5269814855       -0.4319985245
 C         -2.9362286228       -0.4727907288        0.7067496036
 C         -3.0229951486       -1.9460954506        0.2602287882
 C          1.6211235343        0.3671804894        0.2047211600
 C          0.5654137017       -1.4379934054       -0.3789015501
 C          2.5182246956       -0.6390922044       -0.1691614681
 C          3.9272715016       -0.3729396089       -0.1258808438
 C          3.2162047883        1.8302393576        0.6598722533
 H         -1.4491419933       -0.0372445238       -1.6929715376
 H         -0.5547368982        1.5125096613        0.7338955550
 H         -3.8169823242        0.1496118991       -1.2116477193
 H         -3.6588315656       -0.3321970503        1.5181344495
 H         -2.5931942381       -2.0725730291       -0.7413392352
 H         -2.4515359774       -2.5475059402        0.9714812290
 H         -2.2290193601        2.5773409605       -1.2631933920
 H         -3.3536951015        2.0000270649        0.8477525990
 H         -0.2443941052       -2.1131700637       -0.5630958990
 H         -4.8817286079       -2.0068072235       -0.3644828951
 H          3.5485889647        2.8031727515        0.9873623037
 H          5.1471312447        1.1945768308        0.3721741437
  31
        -59.63818995
 O         -1.6988088030       -0.6133967214        1.1727266961
 O         -1.7684052691        2.7085801228        0.1565001487
 O         -3.9614353795        1.2108508348        0.1485414775
 O         -2.9229012941       -1.9140626100       -2.0032060503
 O          4.7674992515       -0.7245281516        0.1834284438
 N          0.3923209922        0.4311095603        1.1030912987
 N          2.4155547466        0.1629046512        2.0175229296
 N          0.9423738548       -0.1425501606       -1.2129355349
 N          3.2049980619       -0.7031018153       -1.4616097793
 C         -1.5502855953        1.3632999771       -0.1637466775
 C         -1.0399988676        0.6259737456        1.0909289528
 C         -2.8639573616        0.6112984177       -0.4873561576
 C         -2.5905776233       -0.7899671746        0.0735624636
 C         -1.9815648933       -1.7307033400       -0.9721714345
 C          1.2277171693        0.0389517740        0.0990308016
 C          1.1725640096        0.4727529297        2.2261959574
 C          2.4912152992       -0.1201738892        0.6809812191
 C          3.6026645058       -0.5275826823       -0.1307060616
 C          1.9536884649       -0.5104750225       -1.9282289408
 H         -0.8315413225        1.2391952194       -0.9768733359
 H         -1.2780313334        1.2175886932        1.9869138250
 H         -3.0634087466        0.5542559753       -1.5632624736
 H         -3.5147432232       -1.2239666743        0.4660522454
 H         -1.0541641604       -1.2862401092       -1.3567045299
 H         -1.7439278499       -2.6784465073       -0.4734888652
 H         -1.8149412493        3.2400023346       -0.6520806601
 H         -3.6654701930        2.0632640318        0.5184336127
 H          0.7773384185        0.7460899120        3.1833163193
 H         -2.5746912973       -2.5504830356       -2.6437104692
 H          1.7849312015       -0.6721730686       -2.9819516441
 H          3.9414798482       -0.9948377725       -2.0974438472
  31
        -59.63816777
 O         -2.1043189143       -0.4106929383        1.1787359224
 O         -2.2678894307        2.5251097226        0.8300725647
 O         -3.1594318239        1.5630648905       -1.5027187923
 O         -2.7840211807       -2.8726452399       -0.1204769258
 O          4.4513905437       -1.3018127679       -0.6508789003
 N          0.1974878628       -0.2132359924        0.7680852627
 N          1.6167003255       -1.9142739701        0.4853040468
 N          1.6203406224        1.6164346671       -0.0063959344
 N          3.7322064065        0.8504763465       -0.6777575028
 C         -1.4159528978        1.5961283097        0.2243539592
 C         -1.0210522265        0.4669537368        1.1878269328
 C         -2.1644542392        0.8106234554       -0.8821706700
 C         -2.7162069045       -0.4215535448       -0.1188216847
 C         -2.4448201759       -1.7342276231       -0.8667188004
 C          1.3467317833        0.3189667476        0.2684749499
 C          0.4317187409       -1.5564453563        0.8802736818
 C          2.2280321780       -0.7554992070        0.0926227000
 C          3.5444072709       -0.5131586719       -0.4247675848
 C          2.8097018917        1.8149510615       -0.4684106438
 H         -0.5560954743        2.1513753306       -0.1488457579
 H         -0.8859852553        0.8239431153        2.2164262298
 H         -1.4604499799        0.4802976695       -1.6545568180
 H         -3.7951006740       -0.3177389851        0.0436266311
 H         -2.9903734867       -1.7001142240       -1.8187689823
 H         -1.3768693099       -1.8322221171       -1.0789940318
 H         -2.9182897301        2.0687164837        1.3870589694
 H         -3.3415853901        2.3448618963       -0.9472325451
 H         -0.3122041979       -2.2318887552        1.2525959066
 H         -3.7308842488       -2.8618951089        0.0805225910
 H          3.0892271757        2.8294877714       -0.7071576859
 H          4.6456899485        1.0987988620       -1.0452725392
  31
        -59.63816740
 O         -2.0107796978       -0.3778498048        1.4182659137
 O         -2.3160684590        2.4802148437        0.7509671710
 O         -3.0606426756        1.2324889917       -1.5408544337
 O         -3.3424768988       -2.2093751620       -1.4704241018
 O          4.4730700931       -1.3224162877       -0.5503378170
 N          0.2740246898       -0.1399218049        0.9550649398
 N          1.7422852509       -1.8210660797        0.8576701584
 N          1.5743724755        1.5782523178       -0.2016378979
 N          3.6705200362        0.7751355001       -0.8781287195
 C         -1.4060359903        1.5439926339        0.2506709781
 C         -0.9605056460        0.5413813734        1.3231607055
 C         -2.0922395272        0.5993713849       -0.7649142493
 C         -2.6562754257       -0.5219066067        0.1459411405
 C         -2.4469938306       -1.9303120016       -0.4272204245
 C          1.3680718171        0.3367616558        0.2982374322
 C          0.5705956821       -1.4382559969        1.2668992362
 C          2.2801483184       -0.7249997089        0.2414536681
 C          3.5523456465       -0.5331514808       -0.3952821536
 C          2.7248097663        1.7329765095       -0.7673831549
 H         -0.5752748197        2.1047306473       -0.1765855940
 H         -0.8298896618        1.0048556850        2.3084599349
 H         -1.3402997213        0.1824496718       -1.4458981859
 H         -3.7331019945       -0.3818162184        0.3001958420
 H         -1.4043905975       -2.0536773368       -0.7558722456
 H         -2.6536221302       -2.6653106892        0.3540646460
 H         -2.9500510071        2.0465701173        1.3433499003
 H         -3.3470063215        2.0421892628       -1.0805789841
 H         -0.1201513270       -2.0606855416        1.7977060440
 H         -3.2590138685       -1.5384579902       -2.1637775196
 H          2.9478478224        2.7024448663       -1.1855481840
 H          4.5499750406        0.9864801822       -1.3397867999
  31
        -59.63816570
 O         -1.7735676831       -0.7408661345        0.7678586048
 O         -1.7524736790        2.7867057048        0.6012106931
 O         -3.9662241954        1.3539251887        0.3317364344
 O         -2.0838343607       -2.6368673258       -1.4311485771
 O          4.6904561236       -0.8324313201        0.1072218700
 N          0.3132887305        0.2320805184        1.1219750932
 N          2.2962081196       -0.2778544065        2.0203060712
 N          0.9277830347        0.1391403152       -1.2438317319
 N          3.1812580922       -0.4312191746       -1.5398479504
 C         -1.5465737686        1.5207325249        0.0465388510
 C         -1.1133072678        0.4584570377        1.0858968852
 C         -2.8868591297        0.9491189674       -0.4640797387
 C         -2.6899419005       -0.5609191005       -0.3195448912
 C         -2.1403103675       -1.2379590068       -1.5802809610
 C          1.1760456210        0.0353875025        0.0836124599
 C          1.0528395499        0.0138961294        2.2524229561
 C          2.4138109750       -0.2779161656        0.6569923158
 C          3.5410779694       -0.5427111891       -0.1911457063
 C          1.9514173549       -0.1083546311       -1.9922878023
 H         -0.8270487304        1.5327807997       -0.7759293425
 H         -1.4095179813        0.7788994247        2.0956306042
 H         -3.0607468890        1.2330324804       -1.5098852818
 H         -3.6295490549       -1.0373867645       -0.0220942887
 H         -2.8071110286       -1.0518159875       -2.4231266854
 H         -1.1428566074       -0.8340073222       -1.8007879375
 H         -0.9476364198        3.3196400939        0.5676767815
 H         -3.8450065683        2.2911216491        0.5581630719
 H          0.6302703969        0.0912257574        3.2335173888
 H         -1.6334735180       -2.8381446222       -0.5985976976
 H          1.8132216470       -0.0485760061       -3.0610399623
 H          3.9291643948       -0.6139467825       -2.2019985993
  31
        -59.63815446
 O         -1.4783696227        0.6240905595        1.1870406653
 O         -2.4647795136        2.4057247855       -1.1502666538
 O         -4.2170119483        0.4810553474       -0.8577012556
 O         -3.2524765467       -2.5498106308        0.6278291117
 O          4.5892366515       -1.5322241101       -0.3428838822
 N          0.3171487124        0.2248514666       -0.3044392287
 N          1.5525440845       -1.4668730869       -1.0816467865
 N          2.0357154215        1.4503878277        0.9038202851
 N          4.1241955011        0.3932778756        0.7657900750
 C         -1.8651181149        1.1461917597       -1.0737344423
 C         -0.8074265670        1.0728940350        0.0401729589
 C         -2.8981646311        0.0595217596       -0.6612001298
 C         -2.5911226962       -0.1975644440        0.8333824972
 C         -2.2831009157       -1.6749191733        1.1386225879
 C          1.5869204215        0.4219381084        0.1499947301
 C          0.3694699965       -0.9326813263       -1.0341925076
 C          2.3529694951       -0.6389608138       -0.3409952141
 C          3.7517533957       -0.7000639800       -0.0251163238
 C          3.2961017682        1.3797074837        1.1758867970
 H         -1.4375122616        0.9569968542       -2.0595798931
 H         -0.3745431783        2.0505668269        0.2811564470
 H         -2.7485213894       -0.8676736670       -1.2278779746
 H         -3.4412785545        0.1333494664        1.4411628450
 H         -1.3410791663       -1.9583760374        0.6615570520
 H         -2.1637499088       -1.7918597605        2.2226588370
 H         -2.6831714538        2.7274911721       -0.2610831919
 H         -4.1988834176        1.3750177184       -1.2486673918
 H         -0.4819042573       -1.3485887888       -1.5327882627
 H         -4.1004680171       -2.3949351662        1.0680592642
 H          3.7239033653        2.1677400431        1.7762021769
 H          5.1044116676        0.4177785196        1.0302422275
  31
        -59.63812363
 O         -1.6958356328        0.0622907591        1.2908886154
 O         -2.1782498465        2.5364215097       -0.6839659091
 O         -4.0420624155        0.7203142998       -1.3202519731
 O         -2.4929961219       -2.5364764581        0.4796965535
 O          4.6553040183       -1.3392765494       -0.6429220209
 N          0.2906835489        0.0013189155        0.0424619652
 N          1.5455183664       -1.6468586397       -0.7882767718
 N          2.0456726085        1.5017509911        0.8039766244
 N          4.1803757331        0.6371963158        0.3663946523
 C         -1.7005951398        1.2265463298       -0.7847832561
 C         -0.8569203099        0.7914502208        0.4299401671
 C         -2.8636955247        0.2070569633       -0.7807339713
 C         -2.9870018087       -0.1539510123        0.7134294710
 C         -3.4373197237       -1.6021303208        0.9433521215
 C          1.5886196007        0.3658503615        0.2296691704
 C          0.3369500457       -1.2190664203       -0.5748943123
 C          2.3679061945       -0.6691020837       -0.2965274069
 C          3.7980870443       -0.5631332746       -0.2450507737
 C          3.3344148728        1.5770159210        0.8436074578
 H         -1.1209064582        1.1894835464       -1.7091895553
 H         -0.4434616099        1.6566101110        0.9652531943
 H         -2.5948373391       -0.6917427453       -1.3468192590
 H         -3.7131178814        0.5138692778        1.1964898217
 H         -3.6454482597       -1.7537268039        2.0068518672
 H         -4.3512827879       -1.7661063966        0.3686113510
 H         -2.5293619152        2.7050590340        0.2039136733
 H         -3.9611775086        1.6911288217       -1.3671469279
 H         -0.5439027181       -1.7712521472       -0.8344011971
 H         -1.7547320729       -2.5592162176        1.1041428672
 H          3.7716408023        2.4561986980        1.2910233628
 H          5.1829173802        0.7804952382        0.4393453423
  31
        -59.63809203
 O         -1.3105017376        1.2152778723        0.7692279568
 O         -2.5634459010        0.9415900749       -2.4268615437
 O         -4.1257776499        1.0149804625       -0.2897057804
 O         -2.5167051077       -2.1285551258        1.7823788180
 O          4.6286708309       -1.1518754486       -0.4038818078
 N          0.3638508975        0.5666384663       -0.7707047872
 N          2.1031715526       -0.2005675144       -1.9447477338
 N          1.2813138409        0.3235830149        1.4842676967
 N          3.4516982948       -0.5666426219        1.4462161869
 C         -2.0461510422        0.2974475701       -1.3081993328
 C         -0.9581839792        1.1448672960       -0.5750367210
 C         -3.1014488215        0.0638824130       -0.1945889305
 C         -2.2580279951        0.1941397147        1.0766119661
 C         -1.5810157068       -1.1346447050        1.4586876378
 C          1.3213525338        0.2279098851        0.1353479404
 C          0.9005588475        0.2888976960       -1.9973115625
 C          2.4053535297       -0.2556191099       -0.6125697056
 C          3.5900802458       -0.7014126151        0.0614695102
 C          2.3549075074       -0.0816333933        2.0721068761
 H         -1.6080133909       -0.6539104421       -1.6299551469
 H         -0.9294191800        2.1650945273       -0.9837215749
 H         -3.5733946753       -0.9164180159       -0.2767881045
 H         -2.8439695136        0.5655064583        1.9216734780
 H         -1.0152382225       -1.5211168877        0.6071646545
 H         -0.8788527926       -0.9437091467        2.2772806337
 H         -3.4557032843        1.2709994609       -2.2006470021
 H         -3.8252335553        1.8604356927        0.0785287482
 H          0.3622971519        0.4699235198       -2.9058448217
 H         -2.9449165894       -1.9144481287        2.6239474094
 H          2.3845707269       -0.0293038599        3.1495365784
 H          4.2556814862       -0.8612388051        1.9916737110
  31
        -59.63808312
 O         -2.0494509904       -0.4653726583        1.3523425865
 O         -2.4251248554        2.4233537299        0.9754781241
 O         -3.0066705205        1.4014207401       -1.4497250838
 O         -2.8903287426       -2.1156131824       -1.8123604311
 O          4.4153918749       -1.3310617542       -0.4771846413
 N          0.2525195023       -0.1192891134        1.1024775674
 N          1.8166044386       -1.7145952844        1.1845605819
 N          1.3660417509        1.4304062274       -0.4321987902
 N          3.4607106087        0.6274403216       -1.1133427424
 C         -1.4450859307        1.5833161748        0.4372147122
 C         -1.0279188780        0.4917640098        1.4287710510
 C         -2.0253168268        0.7333981950       -0.7195557857
 C         -2.5481759518       -0.5322156143        0.0112237408
 C         -2.1253107405       -1.8421527451       -0.6692397432
 C          1.2679154065        0.2896102822        0.2909945984
 C          0.6506433582       -1.3293509867        1.6045703926
 C          2.2421833128       -0.7157696902        0.3526683967
 C          3.4573009293       -0.5759261170       -0.3985525285
 C          2.4652392321        1.5393008459       -1.1012712983
 H         -0.6180693327        2.2163862294        0.1193353580
 H         -0.9910803570        0.8506462562        2.4640958327
 H         -1.2198063966        0.4604189250       -1.4116024084
 H         -3.6429127860       -0.5196205432        0.0648671398
 H         -1.0515577272       -1.8143938357       -0.9092519082
 H         -2.3023845875       -2.6709650628        0.0201245493
 H         -3.0811588740        1.8995073891        1.4620196395
 H         -3.3258094801        2.1556151362       -0.9211657727
 H          0.0304690199       -1.8905480549        2.2731138817
 H         -2.8338343801       -1.3742065745       -2.4328419521
 H          2.5985638244        2.4290492544       -1.6972823347
 H          4.2934368911        0.7974448202       -1.6691987039
  31
        -59.63808255
 O         -1.3309959005        1.3224024013        0.7491324125
 O         -2.7058101986        0.6128909204       -2.3515024501
 O         -4.1589936493        1.0570917505       -0.2270815014
 O         -1.2088730809       -1.7359925909        0.8481581119
 O          4.5022319287       -1.2935762658       -0.3711010475
 N          0.2596616835        0.4722547195       -0.7701242251
 N          1.9228517183       -0.4928968628       -1.9076903221
 N          1.2799678505        0.5051593303        1.4535567370
 N          3.4275255175       -0.4410370004        1.4357383481
 C         -2.1663873202        0.1526141517       -1.1567992396
 C         -1.0498691029        1.0818203418       -0.5872692033
 C         -3.1802260057        0.0784026097        0.0066542028
 C         -2.3020073575        0.3954497109        1.2286956251
 C         -1.6776186696       -0.8578660797        1.8547696911
 C          1.2485627981        0.2289169312        0.1293426770
 C          0.7278911163        0.0166430719       -1.9687872263
 C          2.2874137532       -0.3778868577       -0.5950742269
 C          3.4941092498       -0.7598168825        0.0763522832
 C          2.3719437543        0.1526037875        2.0404097939
 H         -1.7415442085       -0.8383320748       -1.3410732543
 H         -1.0416412240        2.0420880817       -1.1230732659
 H         -3.6199732593       -0.9202611099        0.0754770470
 H         -2.8523758466        0.9348376000        2.0033365144
 H         -0.8489477884       -0.5299164522        2.4928969697
 H         -2.4441702012       -1.3512061741        2.4627667724
 H         -3.4471275035        1.2087711873       -2.1396511274
 H         -4.9067382705        0.9373103313        0.3735284877
 H          0.1479173190        0.0869800507       -2.8669699188
 H         -0.9467370716       -2.5702168366        1.2610851825
 H          2.4551786760        0.3447727387        3.0991626886
 H          4.2519780059       -0.6800798999        1.9774754940
  31
        -59.63807817
 O         -1.4401071549        1.0213327767        0.8165567763
 O         -2.5114166977        1.0422734982       -2.4855379941
 O         -4.2021600325        1.0086566936       -0.4383131079
 O         -1.2163300943       -1.3028757600        2.5812837108
 O          4.5992901969       -1.0498180574       -0.4993416623
 N          0.3015643156        0.6070122386       -0.7355770831
 N          2.1113642319        0.1161771265       -1.9503608535
 N          1.1256228318       -0.0589208113        1.4704543730
 N          3.3236838043       -0.8671665204        1.3695140440
 C         -2.0769564750        0.3255290911       -1.3768288970
 C         -1.0451739501        1.1138534235       -0.5136780681
 C         -3.2075180164        0.0252245073       -0.3590635049
 C         -2.4546283986        0.0206348315        0.9726203580
 C         -1.8503852354       -1.3446626507        1.3326231543
 C          1.2279976306        0.1186831966        0.1325979013
 C          0.8982218270        0.5804245971       -1.9662176030
 C          2.3584899084       -0.1859185779       -0.6402682921
 C          3.5272002635       -0.7250435566       -0.0078932538
 C          2.1855703718       -0.5485630577        2.0221871582
 H         -1.6166852355       -0.6051983258       -1.7274660251
 H         -1.0357673147        2.1736505859       -0.8086208062
 H         -3.6983506500       -0.9251508852       -0.5712406772
 H         -3.0781300144        0.3529951375        1.8073483801
 H         -2.6470825697       -2.0862561643        1.4136690111
 H         -1.1463278699       -1.6589753392        0.5491024462
 H         -3.4047963718        1.3883525668       -2.2919589114
 H         -3.9230726223        1.8054760666        0.0384089345
 H          0.3892441009        0.9142792430       -2.8478996439
 H         -0.5337076959       -0.6078739656        2.5403754628
 H          2.1607709824       -0.7200625456        3.0873792664
 H          4.1107642359       -1.2476111909        1.8860348529
  31
        -59.63807404
 O         -1.3126686471        1.1727813678        0.8094079358
 O         -2.4832150424        0.8933456071       -2.4525990268
 O         -4.0775044640        1.0166430259       -0.3910336029
 O         -2.6326895105       -2.1165707409        1.8386426580
 O          4.6691710766       -1.0448254326       -0.4465999370
 N          0.3833588923        0.6341969056       -0.7439200358
 N          2.1625299181        0.0148255930       -1.9458459732
 N          1.2489251200        0.1676740794        1.4968575537
 N          3.4368656780       -0.6766020017        1.4229188230
 C         -2.0071354909        0.2850158732       -1.2996396193
 C         -0.9607735369        1.1550110402       -0.5329776225
 C         -3.0923999196        0.0292365348       -0.2281880779
 C         -2.2969105621        0.1786608356        1.0781007285
 C         -1.6622145723       -1.1564009622        1.5092172440
 C          1.3229482880        0.2162384992        0.1468330986
 C          0.9527873715        0.4890345157       -1.9782348046
 C          2.4339642131       -0.1704750781       -0.6187412868
 C          3.6106177014       -0.6634649634        0.0357947862
 C          2.3154395445       -0.2791176581        2.0668678712
 H         -1.5371133690       -0.6570079339       -1.6006684426
 H         -0.9722151806        2.1857133129       -0.9154953147
 H         -3.5123160588       -0.9772897121       -0.3171949831
 H         -2.9111421088        0.5827077671        1.8872847639
 H         -1.0892586213       -1.5754644785        0.6778424510
 H         -0.9712647805       -0.9625156483        2.3352294146
 H         -3.2597729645        1.4312183203       -2.2110219755
 H         -4.8795531001        0.7786353038        0.0928228503
 H          0.4286451043        0.7471781836       -2.8763615064
 H         -3.0333664683       -1.8953858232        2.6918206285
 H          2.3173736001       -0.3416286049        3.1441809257
 H          4.2331277428       -1.0127423870        1.9554706760
  31
        -59.63805748
 O         -1.5717594177       -0.2511269485        1.2070744512
 O         -1.6553756537        1.8896249740       -1.6213788333
 O         -3.6740484941        1.7082823165        0.0749602749
 O         -4.5011942540       -2.1791714475        0.0880150899
 O          4.9165169060       -1.0943575163       -0.2971499148
 N          0.4060986077       -0.1528373440       -0.0085947982
 N          1.8717204016       -1.7607720541       -0.5127249536
 N          1.9540181577        1.6337746637        0.5698496140
 N          4.1877030444        0.9505001929        0.3663347059
 C         -1.7510216235        0.6508695149       -0.9907650697
 C         -0.8499939445        0.5017474487        0.2635340573
 C         -3.1640459882        0.4905408910       -0.3914982507
 C         -2.9236250395       -0.4486124638        0.7930910995
 C         -3.1669028739       -1.9251703295        0.4356037590
 C          1.6463284044        0.3784134507        0.1719587324
 C          0.6158414941       -1.4433771969       -0.4090955660
 C          2.5578358049       -0.6317302109       -0.1542022341
 C          3.9646269588       -0.3634984265       -0.0622563103
 C          3.2237105287        1.8544580335        0.6507255742
 H         -1.5481576364       -0.1770748788       -1.6814407535
 H         -0.6026966589        1.4919851902        0.6729183837
 H         -3.8572264759        0.0377007151       -1.1133110816
 H         -3.5657620411       -0.1517411435        1.6293730237
 H         -2.5765562428       -2.1951180278       -0.4434690421
 H         -2.8391868288       -2.5447716938        1.2784428762
 H         -0.8627290107        1.9470595298       -2.1705255932
 H         -3.4639124194        2.3979668648       -0.5758214307
 H         -0.1872097090       -2.1242476520       -0.6030867623
 H         -5.0720206440       -2.0534651573        0.8595863948
 H          3.5421612411        2.8358431617        0.9666991012
 H          5.1645357864        1.2110750359        0.4623438528
  31
        -59.63804830
 O         -1.8454232581       -0.8966936645        0.8375106462
 O         -2.4708448591        2.1520778691        1.4618521024
 O         -3.1384103601        1.8344328690       -1.0978136699
 O         -1.6194721053       -1.7616782898       -1.8207840301
 O          4.5725409887       -1.0038900970       -0.3233487634
 N          0.3199244430       -0.1517911122        1.2607138032
 N          2.2470575846       -1.1809941643        1.7399854443
 N          0.9224027958        0.8004867338       -0.9089647024
 N          3.1069887988        0.2322866342       -1.5380009539
 C         -1.5075014410        1.4650243583        0.7070689301
 C         -1.0863609218        0.1521401132        1.4008313623
 C         -2.1852697070        0.9610425116       -0.5867815039
 C         -2.7540906700       -0.3997575757       -0.1443812561
 C         -2.8735275318       -1.4070728417       -1.2913999092
 C          1.1580601135        0.0752017048        0.2080524369
 C          1.0385085731       -0.9228960034        2.1353006406
 C          2.3616277736       -0.5675767464        0.5214881916
 C          3.4561757818       -0.5117171503       -0.4055416226
 C          1.9142936838        0.8351376944       -1.7340953327
 H         -0.6398677792        2.0868146978        0.4824829081
 H         -1.2989438687        0.1940837456        2.4781195446
 H         -1.4294137756        0.8018644129       -1.3615575803
 H         -3.7402049843       -0.2538746525        0.3179036733
 H         -3.4089494423       -2.2967343257       -0.9402107194
 H         -3.4343624146       -0.9407811480       -2.1031306513
 H         -2.0556268234        2.8025910712        2.0434243674
 H         -3.6210402830        2.2289905493       -0.3508691910
 H          0.6247556977       -1.2692376618        3.0604084153
 H         -1.1226804028       -2.2131835709       -1.1246137699
 H          1.7814979294        1.3929743167       -2.6481622737
 H          3.8318520364        0.3074527367       -2.2452137499
  31
        -59.63803911
 O         -1.9794952916       -0.3936729797        1.3760457685
 O         -1.5963595857        2.6742928548       -0.0315751423
 O         -3.8655415927        1.4710844351       -0.1173654451
 O         -3.0936511841       -2.0958404882       -1.6496882851
 O          4.6104714865       -1.3115431926       -0.1973382261
 N          0.2721030311       -0.1288735075        0.8428269409
 N          1.8133763608       -1.7268612950        1.1025080150
 N          1.5736784575        1.4514790656       -0.4927540040
 N          3.7447564659        0.6644951953       -0.9013847615
 C         -1.4857269275        1.3052662260       -0.2333034714
 C         -1.0049787836        0.5477085880        1.0414411173
 C         -2.8403381797        0.6240209736       -0.5661256986
 C         -2.7723558975       -0.6876803976        0.2321423370
 C         -2.1885465116       -1.8327426216       -0.6055871579
 C          1.3875043236        0.2973670630        0.1888968376
 C          0.6017051995       -1.3436527652        1.3750444631
 C          2.3456324161       -0.7129144775        0.3548473118
 C          3.6483851015       -0.5557061785       -0.2251059239
 C          2.7515243284        1.5773681181       -1.0028050939
 H         -0.7608856203        1.1577034022       -1.0371317930
 H         -0.8952335096        1.2480464163        1.8798259787
 H         -2.9335017609        0.4206671307       -1.6361810777
 H         -3.7561219795       -0.9839215482        0.6042165073
 H         -1.2071072050       -1.5380690488       -1.0032889910
 H         -2.0568927431       -2.7062924685        0.0433734603
 H         -2.5074789947        2.8646548945        0.2588731402
 H         -4.7071609341        1.2207962296       -0.5202550013
 H         -0.0955882408       -1.9082657198        1.9589585528
 H         -2.8061782046       -2.8780091366       -2.1412567159
 H          2.9611960496        2.4789840341       -1.5570816813
 H          4.6439325725        0.8478737514       -1.3358436990
  31
        -59.63802729
 O         -1.7015364235       -0.2262462034        1.3434504886
 O         -2.1340316299        2.4191107597       -0.2079068602
 O         -3.6265803786        0.6878533928       -1.5455273774
 O         -4.5279068723       -2.0770156886       -0.0899131548
 O          4.7995775754       -1.1818968625       -0.6437030096
 N          0.4169230007       -0.1253917804        0.3501803125
 N          1.7509547747       -1.7883945537       -0.3090061879
 N          2.0634987772        1.6538831434        0.5605992713
 N          4.2200340022        0.9104938964        0.0169654339
 C         -1.4655610164        1.2307489187       -0.5180357840
 C         -0.7737313121        0.6152769191        0.7197012966
 C         -2.5421811589        0.1714550964       -0.8487085077
 C         -2.8828304206       -0.3782460645        0.5533565949
 C         -3.3178515475       -1.8491123697        0.5778653782
 C          1.6755071013        0.3872596746        0.2843745501
 C          0.5338473921       -1.4342212860       -0.0193423487
 C          2.5047462523       -0.6602187719       -0.1316707378
 C          3.9103831622       -0.4194747454       -0.2928596854
 C          3.3319320414        1.8491245976        0.4122758987
 H         -0.7550890883        1.3643447393       -1.3400433930
 H         -0.4511003235        1.3926425438        1.4240721930
 H         -2.1178821100       -0.6252185024       -1.4678479121
 H         -3.6744610689        0.2461380834        0.9927992751
 H         -2.5754609601       -2.4631731813        0.0620561434
 H         -3.3661783928       -2.1725021205        1.6254649377
 H         -1.5219602091        3.1676294761       -0.1880527536
 H         -3.8191903641        1.5766825973       -1.1986174671
 H         -0.3046427859       -2.0985718804       -0.0412597534
 H         -5.2458996762       -1.6090709089        0.3595225997
 H          3.7139804819        2.8372535395        0.6175226986
 H          5.2017100276        1.1542334429       -0.0727187808
  31
        -59.63801779
 O         -1.4707078818        0.5432919273        1.1855491964
 O         -2.3552347689        2.3524029131       -1.2924554649
 O         -4.2239519856        0.6725772111       -0.6833462538
 O         -3.4521567629       -2.4565681234        0.6217490536
 O          4.6331294830       -1.4849526990       -0.3276532471
 N          0.3361868889        0.2085125512       -0.2880092750
 N          1.5939167198       -1.4785495663       -1.0424941368
 N          2.0436627722        1.4777956602        0.8931013415
 N          4.1477283662        0.4501883487        0.7556080943
 C         -1.8533216998        1.0662612943       -1.1030730050
 C         -0.8169871295        1.0247262416        0.0434554808
 C         -2.9597715784        0.0717806598       -0.6342970763
 C         -2.6055260437       -0.2376624567        0.8346780892
 C         -2.3418262909       -1.7285710141        1.0868183586
 C          1.6039984861        0.4337941695        0.1554284435
 C          0.4031914835       -0.9597555340       -0.9964857279
 C          2.3847607991       -0.6241041459       -0.3224632480
 C          3.7860251399       -0.6594673870       -0.0160920735
 C          3.3061764132        1.4292674397        1.1579194810
 H         -1.3880859049        0.7590876622       -2.0445140042
 H         -0.4310132688        2.0224393476        0.2792770022
 H         -2.9356294001       -0.8499297516       -1.2202113809
 H         -3.4384079727        0.0865995637        1.4685109020
 H         -1.4251652274       -2.0331124442        0.5625009237
 H         -2.1877813938       -1.8679828828        2.1626429896
 H         -3.2162361564        2.4120386217       -0.8353851412
 H         -4.6542299567        0.4962766087       -1.5317841289
 H         -0.4445311351       -1.3957381400       -1.4841814023
 H         -3.3647415888       -3.3833647606        0.8846105072
 H          3.7257428847        2.2305897341        1.7462768436
 H          5.1291865331        0.4940987158        1.0126329472
  31
        -59.63797852
 O         -2.0082639081       -0.3917194175        1.3649859080
 O         -1.7649000581        2.6884925490        0.3564086493
 O         -3.9149775129        1.4027217787       -0.3978190526
 O         -2.8947266645       -2.0841522139       -1.7386651580
 O          4.5714596466       -1.3449790843       -0.1990062238
 N          0.2584623368       -0.1122235563        0.8868330193
 N          1.8124584570       -1.6892794490        1.1947683327
 N          1.5219786640        1.3928409489       -0.5724975347
 N          3.6844894357        0.5882162472       -0.9899865468
 C         -1.4790108204        1.3990888136       -0.1077458378
 C         -1.0190760555        0.5580408386        1.1030287682
 C         -2.7546439774        0.6574822814       -0.6167721047
 C         -2.7214439242       -0.6699348710        0.1644464570
 C         -2.0620872134       -1.7953608610       -0.6439078380
 C          1.3547831671        0.2788477357        0.1798975992
 C          0.6075387433       -1.2948391919        1.4779117879
 C          2.3205409317       -0.7178666420        0.3774162796
 C          3.6078769498       -0.5929538567       -0.2441212287
 C          2.6872552305        1.4905828923       -1.1190263373
 H         -0.6981499709        1.4208865069       -0.8720768685
 H         -0.9253870902        1.2028891876        1.9872510195
 H         -2.7252310795        0.4636635429       -1.6903847665
 H         -3.7289324717       -0.9835700964        0.4485149273
 H         -1.0682480492       -1.4726318525       -0.9866658899
 H         -1.9416223521       -2.6659760177        0.0121440276
 H         -1.9896582635        3.2612330031       -0.3917285486
 H         -3.9053386902        1.7552049403        0.5065776014
 H         -0.0737220359       -1.8286024765        2.1081258233
 H         -2.5592594908       -2.8613797486       -2.2074205021
 H          2.8802235081        2.3594545850       -1.7291447995
 H          4.5720315990        0.7474322605       -1.4568866182
  31
        -59.63790479
 O         -1.9716406295       -0.6908197181        0.9956176870
 O         -1.1198794582        2.4971967040       -0.3015928719
 O         -3.6094018659        1.8129589203        0.3700901469
 O         -3.4862350020       -2.8360680161       -0.4813495229
 O          4.7537166903       -1.0636068835       -0.2838712818
 N          0.3002311679       -0.3094287844        0.6569371910
 N          1.9151121179       -1.8460862246        0.7473876908
 N          1.5667076075        1.5429705423       -0.3028383013
 N          3.7992805767        0.9531038864       -0.7010621519
 C         -1.4043301906        1.1420583572       -0.4125333598
 C         -1.0023129287        0.3034124818        0.8252667015
 C         -2.9273378442        0.9177794315       -0.4618443307
 C         -3.0732323257       -0.5012327558        0.0948692941
 C         -3.0713869915       -1.5929481498       -0.9840320961
 C          1.4220172579        0.2766414571        0.1586341428
 C          0.6672703056       -1.5790398119        0.9968479894
 C          2.4283562728       -0.6947541358        0.2175910650
 C          3.7477372384       -0.3710586876       -0.2449351178
 C          2.7628360739        1.8163352424       -0.7117092653
 H         -0.9419700616        0.7004971672       -1.3061639935
 H         -0.9732266001        0.9490955527        1.7183297907
 H         -3.3047937017        0.9906022867       -1.4897467010
 H         -3.9894897467       -0.5790551599        0.6885726602
 H         -3.7875856007       -1.3375753524       -1.7664504534
 H         -2.0669455470       -1.6700320577       -1.4234385988
 H         -0.1524026473        2.6179149363       -0.3352460827
 H         -3.2188748424        2.6951080788        0.2524788695
 H         -0.0262087779       -2.2672702313        1.4322684831
 H         -2.9323265919       -3.0748706110        0.2749035799
 H          2.9481926945        2.8094018812       -1.0914503822
 H          4.7065142473        1.2535250878       -1.0445878738
  31
        -59.63788634
 O         -1.7557775315       -0.7176209160        0.8383420041
 O         -1.6091668847        2.8069378029        0.3374309676
 O         -3.8682968799        1.4192088451        0.4237340841
 O         -2.3132532284       -2.7274004026       -1.3039308201
 O          4.7461314722       -0.6348714023        0.1462310290
 N          0.3285651068        0.3167277152        1.0926933147
 N          2.3571171715        0.0912247252        2.0046991397
 N          0.9027018491       -0.1475409383       -1.2396633034
 N          3.1861219963       -0.6120298318       -1.5009058609
 C         -1.5550301248        1.4790075246       -0.0654063526
 C         -1.1005760626        0.5069153892        1.0523846269
 C         -2.9186918759        0.8790839173       -0.4594837644
 C         -2.6856961650       -0.6233456301       -0.2445703568
 C         -2.1682326129       -1.3368020352       -1.4982790802
 C          1.1805930181        0.0011191950        0.0774875978
 C          1.1018295356        0.3460653023        2.2189825771
 C          2.4475068928       -0.1358880446        0.6587059290
 C          3.5744877868       -0.4702739496       -0.1635741278
 C          1.9282820122       -0.4514567968       -1.9639671779
 H         -0.8545879901        1.4136084932       -0.9016514379
 H         -1.3858347821        0.9029111068        2.0381208632
 H         -3.1713376604        1.1110606846       -1.4984271478
 H         -3.5898926938       -1.1397385208        0.0940316114
 H         -2.7672536330       -1.0138086782       -2.3597594091
 H         -1.1189400915       -1.0628273399       -1.6543467933
 H         -2.4582230682        2.9545798986        0.7908069614
 H         -4.7598271863        1.1468272079        0.1671039790
 H          0.6952424721        0.5679095714        3.1847242692
 H         -1.9049014489       -3.1968367557       -2.0442386294
 H          1.7680597510       -0.5847806770       -3.0230112072
 H          3.9343622065       -0.8510213763       -2.1447446747
  31
        -59.63786783
 O         -2.1520131465       -0.5154564422        1.0328774438
 O         -1.9723187173        2.6594571980        0.9437431803
 O         -3.8347227036        1.6630478337       -0.5932253366
 O         -1.7355283516       -2.7044038128       -0.7219970449
 O          4.4467866019       -1.3846651876       -0.3120304596
 N          0.1518269127       -0.1775730818        0.8710096312
 N          1.7008430856       -1.7758172280        1.0888022395
 N          1.4099780986        1.3796240030       -0.5448958380
 N          3.5601498474        0.5782222941       -1.0240349922
 C         -1.4987757533        1.5899474613        0.1692814937
 C         -1.1434520612        0.4415746395        1.1346323306
 C         -2.6212351173        0.9881851493       -0.7357243541
 C         -2.6936311690       -0.4880653274       -0.2854403855
 C         -1.9259662249       -1.4158835040       -1.2437168103
 C          1.2399021932        0.2365861776        0.1639766216
 C          0.4999987909       -1.3914359412        1.3976143799
 C          2.2039880404       -0.7713243991        0.3098525902
 C          3.4847629727       -0.6290522669       -0.3199888185
 C          2.5685404560        1.4904809423       -1.1043884179
 H         -0.6244636436        1.8794903361       -0.4164178025
 H         -1.1414962780        0.8092817414        2.1693032167
 H         -2.3612759130        1.0578313223       -1.7938118556
 H         -3.7304323966       -0.8222086547       -0.1895456917
 H         -2.4631493675       -1.4495414197       -2.2002499292
 H         -0.9223765433       -1.0211328066       -1.4231399119
 H         -2.0691812558        3.4450904327        0.3856802623
 H         -3.9824557652        1.8537802234        0.3483785016
 H         -0.1832085027       -1.9594978023        1.9947084518
 H         -2.5948169346       -3.1159794505       -0.5486231864
 H          2.7586628520        2.3814286535       -1.6828262184
 H          4.4423076844        0.7482706838       -1.4972110953
  31
        -59.63783098
 O         -2.1019829947       -0.3848069016        1.1645680871
 O         -2.0308711882        2.6872778645        0.6922302283
 O         -3.5859064546        1.5527157137       -1.1051503366
 O         -2.5197519876       -2.8906542972       -0.1190204100
 O          4.4842867717       -1.3519265855       -0.5303514757
 N          0.1898878507       -0.2040339282        0.7127435866
 N          1.6171162410       -1.9149649949        0.5478138596
 N          1.6344720040        1.5882812728       -0.1103190175
 N          3.7669256787        0.7956327104       -0.6780609873
 C         -1.4290825325        1.5910207748        0.0758264756
 C         -1.0307275505        0.4989690413        1.0965583210
 C         -2.4088720020        0.8353037596       -0.8694662373
 C         -2.7628683884       -0.4532416916       -0.1000129712
 C         -2.3777073327       -1.7211576463       -0.8798094651
 C          1.3535230091        0.3059913114        0.2236238865
 C          0.4213418298       -1.5402032049        0.8926409100
 C          2.2399246523       -0.7744533637        0.1216007089
 C          3.5707753677       -0.5545784026       -0.3671311279
 C          2.8367140607        1.7669013215       -0.5451575052
 H         -0.5486646773        1.9774482602       -0.4383773529
 H         -0.8831647723        0.9286708983        2.0956096345
 H         -1.9055125000        0.5848795002       -1.8124028330
 H         -3.8362841023       -0.4683400139        0.1181864116
 H         -2.9867601281       -1.7622780023       -1.7921591921
 H         -1.3224394748       -1.6836193794       -1.1631304829
 H         -2.9239035185        2.4479337661        0.9888993409
 H         -3.3823294439        2.3821806048       -1.5628446096
 H         -0.3344538254       -2.2010859986        1.2671555069
 H         -3.4429030073       -2.9932516289        0.1545385503
 H          3.1215991040        2.7689352015       -0.8264455403
 H          4.6915849597        1.0279847168       -1.0275879224
  31
        -59.63779620
 O         -2.0452287365       -0.7234864660        0.8515103377
 O         -2.5116477247        2.2267397785        1.4717741838
 O         -3.1690396553        1.9397915307       -1.0325623375
 O         -2.0405987225       -2.5829732522       -1.3846170499
 O          4.4461563151       -1.1679785849       -0.3697481789
 N          0.2166297192       -0.1906606302        1.2030788682
 N          2.0101609316       -1.4862221870        1.5365037242
 N          1.0132232365        1.0682404997       -0.7399587501
 N          3.1700460853        0.4115953223       -1.3831264348
 C         -1.5078717888        1.5712806611        0.7432900120
 C         -1.1664837625        0.2172250767        1.3953942570
 C         -2.0870837386        1.1580257591       -0.6366630583
 C         -2.4458628210       -0.3401370054       -0.4627851028
 C         -1.7772017851       -1.2124791484       -1.5340883796
 C          1.1212739976        0.1357489148        0.2362842018
 C          0.8145971771       -1.1798389889        1.9370738589
 C          2.2420558419       -0.6741631624        0.4602890225
 C          3.3858796668       -0.5599540381       -0.3987099288
 C          2.0486372517        1.1529970248       -1.5070872616
 H         -0.6170481091        2.1865722163        0.6193290650
 H         -1.3493387068        0.2299444163        2.4760010004
 H         -1.3135534114        1.2658620596       -1.4016411245
 H         -3.5323403746       -0.4766147545       -0.5052708835
 H         -2.1020381918       -0.8523990875       -2.5191394719
 H         -0.6907819054       -1.1144038283       -1.4646104572
 H         -2.1381400516        2.9146811507        2.0379062052
 H         -3.6413066736        2.2310821963       -0.2315072956
 H          0.3211919032       -1.6465250849        2.7650244391
 H         -2.9964283477       -2.7341666370       -1.4171222900
 H          2.0152949515        1.8756562930       -2.3078990915
 H          3.9373693049        0.5441440496       -2.0349910734
  31
        -59.63774262
 O         -1.7992476915        0.0121256165        1.4074737384
 O         -2.1483042545        2.5934513908       -0.3121897533
 O         -3.8050383214        0.7832187663       -1.4450440071
 O         -2.6618449418       -2.5639086777       -0.1825341919
 O          4.5992139217       -1.3505466492       -0.6747309409
 N          0.2804733626       -0.0536187892        0.3125419695
 N          1.5151689049       -1.7785836888       -0.3766050687
 N          2.0313426618        1.6112380572        0.5962030659
 N          4.1422995803        0.7531847274        0.0427202559
 C         -1.5876703249        1.3332410012       -0.5392058315
 C         -0.8593170106        0.7593680696        0.6913565429
 C         -2.6839898300        0.2731124679       -0.7923497423
 C         -2.9786000624       -0.2460829260        0.6308831824
 C         -3.3646793976       -1.7343648036        0.7142949346
 C          1.5690501060        0.3811265782        0.2741334829
 C          0.3179271655       -1.3601729996       -0.0881789823
 C          2.3357078749       -0.7041820505       -0.1638673702
 C          3.7538889281       -0.5453681186       -0.3081230994
 C          3.3102300706        1.7323252309        0.4634423814
 H         -0.9163659275        1.4483512819       -1.3923112244
 H         -0.4570320433        1.5571246393        1.3290054171
 H         -2.2728842887       -0.5381289212       -1.4024180106
 H         -3.8007749796        0.3303415775        1.0749820917
 H         -3.1136296656       -2.0765291992        1.7218417299
 H         -4.4427449701       -1.8219366300        0.5645482522
 H         -2.5596494993        2.6318318245        0.5647893908
 H         -3.8107316920        1.7518924259       -1.3391833070
 H         -0.5571772035       -1.9783806754       -0.1325522235
 H         -3.1613458225       -2.6587896369       -1.0044340243
 H          3.7514265004        2.6867198139        0.7055702032
 H          5.1376946624        0.9382227182       -0.0333627130
  31
        -59.63769994
 O         -1.6232076007       -1.0039480367        0.5273351508
 O         -1.7312405702        2.4029669625        1.1070640259
 O         -3.8408492826        1.6480439150       -0.2983454522
 O         -2.7001852409       -1.7418721552       -2.0357119021
 O          4.8835148743       -0.7184004167        0.0496314945
 N          0.4296593996       -0.0823099412        1.0820126365
 N          2.3821989280       -0.8033080999        1.8974350852
 N          1.1607631656        0.5417598927       -1.1690562678
 N          3.4476724089        0.1349642049       -1.4869666130
 C         -1.4518569665        1.3470363957        0.2272952362
 C         -0.9871716450        0.1349144867        1.0616529498
 C         -2.7354597251        0.8203665666       -0.4849770283
 C         -2.9202780342       -0.5950193838        0.1092190919
 C         -3.4866129441       -1.6143768657       -0.8802121411
 C          1.3450711335        0.0526378434        0.0796207702
 C          1.1220091840       -0.6108944246        2.1380549489
 C          2.5635953917       -0.3956329922        0.6037525984
 C          3.7414326321       -0.3721359575       -0.2161925429
 C          2.2302973019        0.5551542610       -1.8928276758
 H         -0.6827902361        1.6129435654       -0.5007002255
 H         -1.3093339073        0.2963973309        2.1046358418
 H         -2.5779682470        0.7401496964       -1.5634915275
 H         -3.5861694397       -0.5353478516        0.9832569638
 H         -3.5937210461       -2.5800969606       -0.3721580747
 H         -4.4673013796       -1.2670295390       -1.2105599302
 H         -1.7996005557        3.2305126868        0.6086250319
 H         -3.8446441760        1.9635501210        0.6218274661
 H          0.6509414081       -0.8327935522        3.0739460771
 H         -1.8293914758       -2.0744436627       -1.7773493785
 H          2.1453258876        0.9325671610       -2.9003623347
 H          4.2354874843        0.1806528849       -2.1260962333
  31
        -59.63768185
 O         -2.0048676660       -0.5511786585        1.2728481974
 O         -2.2392899158        2.4649767229        0.7982882231
 O         -3.2563969919        1.4221824777       -1.4460940261
 O         -2.1674438556       -2.2756641892       -1.1024692948
 O          4.5155698424       -1.2945809555       -0.5802832125
 N          0.2595545976       -0.2253148598        0.8483520413
 N          1.7525246688       -1.8836935181        0.7227343806
 N          1.5776505522        1.5595344164       -0.1821058045
 N          3.6987649725        0.8068635611       -0.8386192141
 C         -1.4321865817        1.4854196306        0.1994483554
 C         -0.9934760031        0.4180216848        1.2213178906
 C         -2.3289078231        0.6596641861       -0.7467203593
 C         -2.9552655587       -0.3662285049        0.2177260468
 C         -3.2815878778       -1.6992668379       -0.4627449470
 C          1.3665563293        0.2920217512        0.2480273153
 C          0.5641421703       -1.5309407141        1.1120339053
 C          2.2932494787       -0.7562448835        0.1705646647
 C          3.5807156387       -0.5230902694       -0.4191297637
 C          2.7418223721        1.7503785410       -0.7075877861
 H         -0.5737854294        1.9203868326       -0.3134784153
 H         -0.8782591436        0.8457935775        2.2272182822
 H         -1.7205878258        0.1292794556       -1.4873811233
 H         -3.8752478494        0.0466812205        0.6511283233
 H         -3.7095535651       -2.3861475232        0.2744876489
 H         -4.0142719775       -1.5046699879       -1.2483363028
 H         -1.7006783251        3.2019492163        1.1166009804
 H         -3.5953889780        2.1095730151       -0.8462779077
 H         -0.1273232647       -2.1771800807        1.6124331362
 H         -1.5563118787       -2.6112669077       -0.4330407237
 H          2.9686129315        2.7411783328       -1.0701688740
 H          4.5875551271        1.0467246904       -1.2671424398
  31
        -59.63754820
 O         -1.9142100544       -0.5531153130        1.2755586127
 O         -1.1946725530        2.4137129535       -0.4628049256
 O         -3.6657351898        1.6798860761        0.1872047772
 O         -4.0239958104       -2.2351991033       -1.1940574234
 O          4.7750272206       -1.0859745351       -0.2747961465
 N          0.3448133965       -0.2840590439        0.7350111812
 N          1.9432425824       -1.8357200384        0.8162362012
 N          1.5996655526        1.5385496655       -0.2848603307
 N          3.8224793700        0.9279314082       -0.7079528463
 C         -1.3909046522        1.0386266068       -0.4241885456
 C         -0.9391438990        0.3717067822        0.9010610310
 C         -2.8970381996        0.7096621909       -0.4635887914
 C         -2.9663816961       -0.6131016263        0.3097029676
 C         -2.8196794374       -1.8589042059       -0.5825889131
 C          1.4617519534        0.2824929162        0.2060022095
 C          0.7016865583       -1.5533717791        1.0834829141
 C          2.4597290633       -0.6970317914        0.2615168358
 C          3.7725824856       -0.3884565745       -0.2290957213
 C          2.7900461703        1.7966861475       -0.7198832493
 H         -0.8850181974        0.5370391260       -1.2611843565
 H         -0.8372705163        1.1315338060        1.6913139210
 H         -3.2409423543        0.5934837530       -1.5007266375
 H         -3.9044831639       -0.6806960712        0.8690385686
 H         -2.0291022639       -1.7013634801       -1.3290904878
 H         -2.5334801670       -2.6994721303        0.0534444814
 H         -0.2382919710        2.5963954276       -0.4711963607
 H         -3.2851786276        2.5529651699       -0.0073478823
 H          0.0056314382       -2.2298798697        1.5342643164
 H         -4.3385166651       -1.5321957339       -1.7798199979
 H          2.9746073496        2.7797306888       -1.1251189020
 H          4.7255999677        1.2171945815       -1.0711611070
  31
        -59.63752774
 O         -1.7289320369       -0.8993391362        0.6385401316
 O         -2.6185501541        1.9512096582        1.6427791364
 O         -3.1355790292        1.9777044272       -0.9469055809
 O         -2.6955605451       -2.4439070926       -1.6868539738
 O          4.7118199430       -0.6763319018       -0.1656682494
 N          0.3669660163       -0.0798419013        1.2796913543
 N          2.4251986239       -0.6476507449        1.9464994145
 N          0.8336106853        0.3443677796       -1.0826379243
 N          3.0865082686       -0.0293556062       -1.6110093611
 C         -1.5553201938        1.4670173470        0.8689906819
 C         -1.0686029131        0.0908556304        1.3776639101
 C         -2.1002149674        1.1422454563       -0.5411411250
 C         -2.5078471760       -0.3419513701       -0.4191510987
 C         -2.2760713736       -1.1043915719       -1.7251971070
 C          1.1692433607       -0.0086939407        0.1791199166
 C          1.1873545352       -0.4802205312        2.2990719156
 C          2.4542764768       -0.3633705037        0.6083460400
 C          3.5347946939       -0.3920303802       -0.3358137794
 C          1.8163208175        0.3100601087       -1.9192620510
 H         -0.7277380981        2.1795112378        0.8223311715
 H         -1.3198364081       -0.0428126478        2.4384526415
 H         -1.2958229611        1.2353933153       -1.2748656371
 H         -3.5658331735       -0.4102807581       -0.1267739181
 H         -2.7841468357       -0.5542660539       -2.5279528092
 H         -1.2038678515       -1.1317659257       -1.9305481195
 H         -2.2981023716        2.4735405320        2.3902379969
 H         -3.6861344416        2.1837374761       -0.1712856760
 H          0.8273631199       -0.6308226440        3.2965683097
 H         -3.6426604301       -2.4815422126       -1.4910280651
 H          1.6072209201        0.5771089631       -2.9439019296
 H          3.7974407888       -0.0341223511       -2.3361164080
  31
        -59.63752476
 O         -1.5376508104       -0.3870407577        1.1881959854
 O         -2.4794882765        2.6299351600        0.3064781370
 O         -3.6042558793        0.9780431714       -1.4081923882
 O         -1.8585727027       -2.3525553490       -0.9810513286
 O          4.7532990574       -0.4232279014       -0.2484476129
 N          0.4666178903        0.7657131432        0.9814292813
 N          2.6265439518        1.2172289930        1.3319619548
 N          0.7053963760       -1.0258081573       -0.6590364392
 N          2.9518721477       -1.4721245374       -1.1476096426
 C         -1.6087268273        1.6181599097       -0.1214602163
 C         -0.9666828075        0.8891135823        1.0932249166
 C         -2.4446461887        0.5064806644       -0.8032228100
 C         -2.6914426662       -0.4808488665        0.3542853992
 C         -2.8625302700       -1.9321073402       -0.0953234015
 C          1.1765662886       -0.0788767308        0.1830224485
 C          1.4013036237        1.5104598326        1.6467424326
 C          2.5273641189        0.2126406343        0.4088114505
 C          3.5362346023       -0.5235050371       -0.2984965095
 C          1.6259640050       -1.6814210816       -1.2857442246
 H         -0.8350535607        2.0008802249       -0.7910894415
 H         -1.1704185040        1.4651682912        2.0090164289
 H         -1.8567093862        0.0050473226       -1.5778283314
 H         -3.5777778353       -0.1686089610        0.9245125304
 H         -2.8776783235       -2.5675313812        0.8004150317
 H         -3.8105647039       -2.0300037669       -0.6279272851
 H         -2.0664470825        3.5013006086        0.2480261521
 H         -3.9798115378        1.6793331930       -0.8475539843
 H          1.1337551479        2.2634163107        2.3597288433
 H         -0.9986098442       -2.0490107488       -0.6354325974
 H          1.3066483745       -2.4518884782       -1.9712449238
 H          3.6078252501       -2.0354881117       -1.6803329766
  31
        -59.63742843
 O         -1.6873161290       -0.3674980779        1.0867415499
 O         -2.1873404907        2.4289360024       -0.2486429244
 O         -3.7137880618        0.7519283724       -1.6675682274
 O         -4.1535608305       -2.0572616284        1.5460238329
 O          4.8359120958       -1.1141165871       -0.7169575764
 N          0.4064268655       -0.1043427053        0.1004303110
 N          1.7580657759       -1.6533757357       -0.7690892620
 N          2.0659283921        1.5317236572        0.8009561062
 N          4.2460325152        0.8255659232        0.3035074310
 C         -1.5296953646        1.2612162319       -0.6460915815
 C         -0.8011186849        0.5676642124        0.5316698384
 C         -2.6153310707        0.2241572905       -1.0041484505
 C         -2.9283656996       -0.3718947646        0.3827785338
 C         -3.5171211936       -1.7763071663        0.3223902684
 C          1.6765075600        0.3610599210        0.2455588371
 C          0.5284069660       -1.3180821936       -0.5134926922
 C          2.5167986655       -0.6133367140       -0.3045692112
 C          3.9361381423       -0.4017555098       -0.2949023500
 C          3.3464807876        1.7015169735        0.8033491652
 H         -0.8422680090        1.4440828257       -1.4788327071
 H         -0.4946002538        1.2963823413        1.2936718703
 H         -2.1967099224       -0.5506508733       -1.6544064402
 H         -3.6381578215        0.2764274537        0.9150106602
 H         -4.2388894001       -1.7979223314       -0.5052447552
 H         -2.7098606338       -2.4926581358        0.1263873448
 H         -1.5688126117        3.1686345280       -0.1732083745
 H         -3.9395709532        1.6056996899       -1.2599517666
 H         -0.3184649962       -1.9317699083       -0.7407395381
 H         -4.4893906905       -2.9644005944        1.5333139974
 H          3.7297581478        2.6133162378        1.2348135309
 H          5.2370465815        1.0423144605        0.3489322989
  31
        -59.63740648
 O         -1.9465772304       -0.3692789821        1.4267614783
 O         -2.2587414871        2.4575307064        0.5613267966
 O         -3.1684258628        1.1296702919       -1.5543539556
 O         -3.6975763755       -2.1053218364       -1.2368822430
 O          4.5502375778       -1.2842743539       -0.5893337675
 N          0.3145915900       -0.1574145493        0.8564951536
 N          1.7462676339       -1.8581011471        0.6420517836
 N          1.7028213009        1.6395641293       -0.0445020830
 N          3.8080338614        0.8566154257       -0.7186437164
 C         -1.3790611382        1.4764831576        0.0870300324
 C         -0.9124992364        0.5433371705        1.2205920357
 C         -2.1964870594        0.4982543570       -0.7904599163
 C         -2.7441389905       -0.5102702315        0.2477192062
 C         -2.7234847573       -1.9629364189       -0.2341918158
 C          1.4484516824        0.3555881593        0.3049485707
 C          0.5652396125       -1.4874271893        1.0392096144
 C          2.3377517601       -0.7183176353        0.1715350804
 C          3.6403372438       -0.4926983887       -0.3870111334
 C          2.8808133860        1.8228976115       -0.5414122858
 H         -0.5343189044        1.9098152915       -0.4513244523
 H         -0.7464705102        1.0772093424        2.1639837490
 H         -1.5355785821       -0.0175645903       -1.4945827549
 H         -3.7777731917       -0.2484800708        0.5027667963
 H         -1.7220283148       -2.2089138830       -0.6153960286
 H         -2.9434276764       -2.6076113700        0.6270481513
 H         -1.7711927636        3.2358238829        0.8640717359
 H         -3.5942849888        1.8095014811       -1.0038143299
 H         -0.1596191400       -2.1405427702        1.4796126083
 H         -3.7060378846       -3.0205574489       -1.5503910882
 H          3.1460573393        2.8252308164       -0.8405072534
 H          4.7107804712        1.0928781558       -1.1192322168
  31
        -59.63735442
 O         -1.8536055877       -0.3818286202        1.3955862775
 O         -2.1772478231        2.4211298268        0.3260975455
 O         -3.2007897562        0.9306862138       -1.6622431030
 O         -4.3066196566       -1.9980807031       -0.7064233896
 O          4.6681299521       -1.1878754800       -0.6634648385
 N          0.3730555441       -0.1893802553        0.6998601436
 N          1.7690715171       -1.8763997651        0.2703872550
 N          1.8503005276        1.6870967097        0.2137825819
 N          3.9782826918        0.9643831839       -0.4569207647
 C         -1.3555136761        1.3742351326       -0.1023223108
 C         -0.8403533757        0.5223973669        1.0760990507
 C         -2.2499472123        0.3491045045       -0.8370654211
 C         -2.8169151445       -0.4724628780        0.3411004792
 C         -3.1040022592       -1.9392268430        0.0188855673
 C          1.5525515910        0.3700922182        0.3170634417
 C          0.5726245243       -1.5381977857        0.6522240306
 C          2.4211741075       -0.6946720874        0.0485253446
 C          3.7623423949       -0.4166763323       -0.3799353493
 C          3.0620317495        1.9157152382       -0.1710458353
 H         -0.5313073144        1.7304854101       -0.7254318636
 H         -0.6200462619        1.1303377815        1.9621409010
 H         -1.6337407632       -0.2929090487       -1.4757387998
 H         -3.7533704723       -0.0131659058        0.6841498200
 H         -2.2712434022       -2.3626006075       -0.5589210799
 H         -3.1898095449       -2.4784983320        0.9718130681
 H         -1.6472794913        3.1873529399        0.5860671449
 H         -3.6175714181        1.6658587597       -1.1818078281
 H         -0.1954906241       -2.2320827430        0.9240562285
 H         -4.4949716490       -2.9164079881       -0.9451675617
 H          3.3688287446        2.9451718483       -0.2733748146
 H          4.9105686289        1.2373770820       -0.7522708135
  31
        -59.63729553
 O         -1.8101095008       -0.3759611589        1.3735511413
 O         -2.1551084282        2.4052612614        0.1967490970
 O         -3.2617850999        0.8301164771       -1.6905713389
 O         -4.5027051555       -1.9339432298       -0.4467021581
 O          4.7166488179       -1.1552211782       -0.6883701460
 N          0.3950518870       -0.1907153475        0.6142829462
 N          1.7744633502       -1.8640368371        0.0904107116
 N          1.9165952262        1.6896640913        0.3343515102
 N          4.0548068621        0.9843782762       -0.3219340833
 C         -1.3642267383        1.3265048125       -0.2077459984
 C         -0.8139933908        0.5242563836        0.9910622178
 C         -2.2989790229        0.2807259155       -0.8577343248
 C         -2.8418661387       -0.4549471316        0.3855435406
 C         -3.2326436329       -1.9144580870        0.1553311350
 C          1.5962666952        0.3743914890        0.3181957346
 C          0.5709944926       -1.5342922564        0.4578651711
 C          2.4549667068       -0.6815019045       -0.0098818258
 C          3.8142290844       -0.3940218278       -0.3695258277
 C          3.1448243373        1.9263189888        0.0115207519
 H         -0.5581327297        1.6386443221       -0.8779136149
 H         -0.5693142619        1.1726310646        1.8415365494
 H         -1.7126561244       -0.4110030089       -1.4723330893
 H         -3.7283550506        0.0754619004        0.7590941939
 H         -2.4849247994       -2.4045743377       -0.4824240521
 H         -3.2505466753       -2.4112475186        1.1346399405
 H         -1.6055201826        3.1697319899        0.4186047304
 H         -3.6616369546        1.5934669696       -1.2411077193
 H         -0.2176814984       -2.2330728168        0.6453129798
 H         -4.7607697530       -2.8484138055       -0.6285786404
 H          3.4719209709        2.9546380815        0.0058287931
 H          5.0008388354        1.2631253966       -0.5635716146
  31
        -59.63726758
 O         -1.4999092015       -0.6289296510        0.9380036392
 O         -1.6712187452        2.1512060060       -1.1398643890
 O         -4.0304549035        0.9571129883       -0.9277869665
 O         -5.0578241754       -1.3355801838        1.1618318635
 O          5.0683571563       -0.9162233233       -0.5389742008
 N          0.5305896293       -0.2157290050       -0.0818373231
 N          2.0478580086       -1.6269905264       -0.9100462121
 N          2.0128385667        1.4566184931        0.8791277344
 N          4.2686719285        0.9154466407        0.5365578462
 C         -1.5745462425        0.7697990900       -1.0034388635
 C         -0.7466808718        0.3435923161        0.2490660690
 C         -2.9521693351        0.0826450561       -0.7748703657
 C         -2.8719157745       -0.3769206805        0.6930316179
 C         -3.6939796061       -1.6268466744        1.0129066628
 C          1.7496148109        0.3087743040        0.2147077390
 C          0.7817657734       -1.3790854647       -0.7536901303
 C          2.6947979229       -0.5785546466       -0.3125996534
 C          4.0911097035       -0.2859246966       -0.1599120993
 C          3.2743673971        1.7009693355        1.0073470111
 H         -1.0818668356        0.4007944889       -1.9078094846
 H         -0.5534283007        1.2251099820        0.8790039628
 H         -3.0448895444       -0.7912682625       -1.4321766311
 H         -3.2267293630        0.4464854506        1.3327053580
 H         -3.5325206987       -2.3865330405        0.2363895377
 H         -3.3552705070       -2.0305284777        1.9689550318
 H         -2.4223947507        2.4777440587       -0.6143776196
 H         -4.1416964065        1.1917478748       -1.8614876077
 H         -0.0027233742       -2.0219148694       -1.0965300747
 H         -5.3738945612       -0.8574755089        0.3807469498
 H          3.5592116698        2.6009668221        1.5300126562
 H          5.2359338622        1.1875971951        0.6836228493
  31
        -59.63722097
 O         -1.5724619846        0.4286247382        1.0700298123
 O         -2.4048272352        2.5150041196       -1.1802415053
 O         -4.2790368391        0.6903836205       -0.8819668379
 O         -2.2048126245       -2.2459303547        2.0198046548
 O          4.5367706520       -1.5372066256       -0.4444785464
 N          0.2694844936        0.2305173583       -0.3872451591
 N          1.5308058283       -1.3820448806       -1.2842790785
 N          1.9456075730        1.3238361819        0.9946513325
 N          4.0354780263        0.2727106138        0.8303431545
 C         -1.8916489373        1.2204297178       -1.1396701284
 C         -0.8792135490        1.0234137432        0.0118296817
 C         -2.9886777955        0.1535356382       -0.8412138326
 C         -2.6978373323       -0.3095613086        0.6002895252
 C         -2.4717619549       -1.8256704212        0.7082913082
 C          1.5212900394        0.3761443130        0.1291344485
 C          0.3471511125       -0.8493225216       -1.2229357198
 C          2.3043600744       -0.6346342361       -0.4373245864
 C          3.6896522645       -0.7348758229       -0.0772200497
 C          3.1946536957        1.2198898306        1.3036287608
 H         -1.4102929161        1.0619614643       -2.1070559430
 H         -0.4750393429        1.9747382447        0.3757359003
 H         -2.8959021261       -0.6917578467       -1.5350419438
 H         -3.5409741148       -0.0265109547        1.2424781289
 H         -3.3565585358       -2.3358320360        0.3042561064
 H         -1.5937361498       -2.1194343350        0.1282039272
 H         -3.0279314675        2.6463964784       -0.4467928501
 H         -4.4957031401        0.9730467314       -1.7831256351
 H         -0.4863917431       -1.2091222816       -1.7904459830
 H         -2.9417971124       -2.0007796642        2.5978244091
 H          3.6020295406        1.9446748911        1.9914822680
 H          5.0042706311        0.2631387548        1.1346140442
  31
        -59.63715619
 O         -1.6653525122       -0.8436321317        0.9739657681
 O         -1.4808503332        2.5315992287       -0.2321383798
 O         -3.8032061112        1.4662378850        0.5172708447
 O         -2.2121106450       -1.4224493440       -1.9753988324
 O          4.8370144257       -0.4832992042        0.2315226618
 N          0.3610434891        0.2978355429        1.0463014866
 N          2.3772010040        0.2010565426        2.0079478845
 N          1.0059565330       -0.2413999873       -1.2513859944
 N          3.3153896231       -0.5995088810       -1.4475478345
 C         -1.5915266083        1.1472760335       -0.2805318607
 C         -1.0657737588        0.4309114144        0.9828634090
 C         -3.0405855758        0.6267071897       -0.3155060209
 C         -2.8989205586       -0.8003217085        0.2469440491
 C         -2.9137444756       -1.8773689850       -0.8421244580
 C          1.2461962436       -0.0248839180        0.0615027306
 C          1.1081314451        0.4100361640        2.1856011156
 C          2.5055011321       -0.0785204103        0.6744248517
 C          3.6653412608       -0.3888436913       -0.1104868569
 C          2.0593137765       -0.5192120415       -1.9419199189
 H         -1.0379932454        0.7805727183       -1.1485878965
 H         -1.3743929204        0.9897888706        1.8824183945
 H         -3.4271389576        0.6116569197       -1.3364687376
 H         -3.7017385859       -1.0093737063        0.9648016245
 H         -2.4497095199       -2.7764486576       -0.4212260441
 H         -3.9588412638       -2.0936634172       -1.0997890683
 H         -2.2391388898        2.8765881379        0.2722234048
 H         -4.7458591933        1.3559457180        0.3346308438
 H          0.6710576966        0.6553574153        3.1323241725
 H         -2.1774810154       -2.1315239719       -2.6323647247
 H          1.9294828417       -0.7003429604       -2.9975734147
 H          4.0887117862       -0.8224404230       -2.0667004431
  31
        -59.63712557
 O         -1.4687711600        0.4128241129        1.1793554066
 O         -2.4368090861        2.4366025573       -0.9475933373
 O         -4.1117400102        0.3815177862       -1.1377226139
 O         -3.8279582298       -2.3793290778        0.9961856718
 O          4.6894723809       -1.4361695760       -0.4037952199
 N          0.3714234010        0.2016917937       -0.2824097428
 N          1.6425188428       -1.4440559091       -1.1007008061
 N          2.0715655460        1.4543493565        0.9240986010
 N          4.1860208462        0.4569248543        0.7437213421
 C         -1.7976560658        1.1955452567       -1.0173943062
 C         -0.7730158540        1.0000404294        0.1103409699
 C         -2.8081312394        0.0429374136       -0.7752922708
 C         -2.6500941236       -0.2576426125        0.7352103812
 C         -2.5729212732       -1.7561355404        1.0614164787
 C          1.6417991581        0.4267019130        0.1580250549
 C          0.4462601421       -0.9440205889       -1.0270750774
 C          2.4302125157       -0.6043096364       -0.3600026166
 C          3.8340501786       -0.6324572428       -0.0618405251
 C          3.3365522819        1.4130274190        1.1807532974
 H         -1.3397883499        1.1446529210       -2.0067266555
 H         -0.3526642877        1.9480421631        0.4664703949
 H         -2.5248217254       -0.8384929678       -1.3622659415
 H         -3.5010670079        0.1605772155        1.2887439211
 H         -1.8482964219       -2.2514190078        0.3993418138
 H         -2.2293010117       -1.8685025887        2.0921952545
 H         -2.6608662621        2.6508184709       -0.0282828246
 H         -4.1584673455        1.3471464277       -1.2669767630
 H         -0.3987882613       -1.3774647788       -1.5196710648
 H         -4.2147993278       -2.2492317617        0.1180730689
 H          3.7501980005        2.2009901313        1.7910731153
 H          5.1677548806        0.5023106176        0.9996639498
  31
        -59.63707055
 O         -1.6070440749       -0.6314847818        0.7776267103
 O         -1.6168533203        2.2909784691       -1.1329755575
 O         -4.0308429156        1.3200402874       -0.8241023254
 O         -3.8939771572       -2.0781005875        2.0115211248
 O          4.9759948764       -0.9501183415       -0.6055737630
 N          0.4464582600       -0.1838441624       -0.1732595471
 N          1.9489664612       -1.5575122369       -1.0874485160
 N          1.9458195559        1.3712014544        0.9459914855
 N          4.1957687905        0.8082554690        0.5983071605
 C         -1.6254759279        0.9023701282       -1.0526980037
 C         -0.8262688710        0.3733343778        0.1774610751
 C         -3.0547703331        0.3200893321       -0.8342847069
 C         -2.9735922419       -0.3190305368        0.5658696631
 C         -3.8303368121       -1.5794286568        0.7031454676
 C          1.6700427795        0.2870640058        0.1863378531
 C          0.6856089207       -1.2941230505       -0.9328206790
 C          2.6062905916       -0.5759656890       -0.3951359738
 C          4.0052152727       -0.3293278842       -0.1948036155
 C          3.2096537543        1.5761744632        1.1136030645
 H         -1.1706966423        0.5189256670       -1.9714503372
 H         -0.6299606703        1.2056873593        0.8707663646
 H         -3.2682261681       -0.4511058444       -1.5804380383
 H         -3.2965360048        0.4361356646        1.2995296140
 H         -4.8338496617       -1.3503537451        0.3215802011
 H         -3.3865609331       -2.3783256913        0.1054873573
 H         -2.4230502980        2.6310927053       -0.6998746599
 H         -4.3192363972        1.5226206664       -1.7263973538
 H         -0.1055527627       -1.8895523923       -1.3400468325
 H         -4.2953246097       -1.4182969615        2.5952926033
 H          3.5040488853        2.4258939535        1.7099040583
 H          5.1657981239        1.0446031044        0.7837820506
  31
        -59.63698948
 O         -1.5481720214       -0.1992385472        1.1936894640
 O         -1.9709141917        2.3931578248       -0.8391802523
 O         -3.9976735962        0.6644844870       -1.1803951799
 O         -4.7116031660       -1.9353639687        0.7244105316
 O          4.8991996772       -1.1527234142       -0.5637331367
 N          0.4591562187       -0.0463149812        0.0380069746
 N          1.8175353578       -1.6328808507       -0.7508280153
 N          2.1164021006        1.5581898154        0.8091943930
 N          4.3023233516        0.8074914322        0.4129670858
 C         -1.5832770872        1.0562425816       -0.8529214565
 C         -0.7563634283        0.6458337731        0.3963431099
 C         -2.7838347572        0.0735431215       -0.8229605316
 C         -2.8521375106       -0.3609741136        0.6502630336
 C         -3.3219314345       -1.8057222594        0.8566856998
 C          1.7298970413        0.3927768435        0.2429474458
 C          0.5848567342       -1.2695531353       -0.5579044288
 C          2.5745854706       -0.6037853929       -0.2589243476
 C          3.9957325597       -0.4190753333       -0.1879935567
 C          3.3981779839        1.7041075445        0.8668913300
 H         -0.9756518194        0.9336979152       -1.7538174325
 H         -0.4454029393        1.5335093077        0.9633292465
 H         -2.5593316055       -0.7931664943       -1.4616522958
 H         -3.5554440839        0.3002433682        1.1785086474
 H         -2.7935951826       -2.4745551830        0.1630528573
 H         -3.0784345446       -2.1047475028        1.8781185278
 H         -2.7030991867        2.5284893081       -0.2171418122
 H         -3.9500379945        1.0074954232       -2.0849613067
 H         -0.2620328013       -1.8685848253       -0.8219403440
 H         -4.9927277896       -1.5839302350       -0.1334385568
 H          3.7796267767        2.6111399410        1.3098372441
 H          5.2941808607        1.0066816739        0.4999941690
  31
        -59.63695871
 O         -1.6253236255       -0.2025810530        1.2312459074
 O         -1.6536806326        1.7215878788       -1.7755800787
 O         -3.7193276367        1.9052603663       -0.0928219108
 O         -2.8480777579       -2.4178951819       -0.0612616930
 O          4.8096651396       -1.1072332292       -0.4290206690
 N          0.3048229134       -0.1649676832       -0.0737844311
 N          1.7608742703       -1.7071361190       -0.7693767976
 N          1.8583751668        1.5150278812        0.7497700702
 N          4.0888997349        0.8474032895        0.4716260054
 C         -1.8849149933        0.5977526072       -0.9900734422
 C         -0.9318347946        0.5008789514        0.2256990933
 C         -3.2716601431        0.5945174553       -0.3083182839
 C         -3.0376417958       -0.2079443242        0.9797793960
 C         -3.5442807184       -1.6590439632        0.8988600661
 C          1.5466505644        0.3258152006        0.1862274325
 C          0.5064759117       -1.3893965611       -0.6469916826
 C          2.4529932499       -0.6440133234       -0.2549478013
 C          3.8601014892       -0.4021645049       -0.1167902929
 C          3.1291260875        1.7151197079        0.8627474413
 H         -1.7686937187       -0.2962832265       -1.6117333766
 H         -0.6462638782        1.5043233707        0.5770479082
 H         -4.0222846905        0.1253771602       -0.9459835383
 H         -3.5352972577        0.2803874023        1.8262117038
 H         -3.4617471384       -2.1159921651        1.8891811656
 H         -4.5927479790       -1.6513975262        0.5954160016
 H         -2.3381361930        2.3857075670       -1.5641631670
 H         -3.2495434258        2.3095962395        0.6519726852
 H         -0.2974045839       -2.0187713007       -0.9707281305
 H         -2.0072125818       -2.6961761241        0.3254951777
 H          3.4527615486        2.6449031465        1.3044429028
 H          5.0667667330        1.0896253058        0.5988318464
  31
        -59.63691120
 O         -1.3196660787        1.2003202241        0.7725371012
 O         -2.5557661565        0.9324528837       -2.4333829956
 O         -4.1150146909        1.0140303232       -0.2995735903
 O         -2.5996531963       -2.0494386108        1.8320976910
 O          4.6400218994       -1.1249501846       -0.4073871902
 N          0.3647842648        0.5696918258       -0.7663545719
 N          2.1118247398       -0.1749448783       -1.9438585723
 N          1.2775979821        0.3050598566        1.4884689087
 N          3.4552631005       -0.5671211921        1.4462381843
 C         -2.0413487508        0.2888113216       -1.3136287104
 C         -0.9615518678        1.1391110913       -0.5713569495
 C         -3.1010105571        0.0517238186       -0.2049420063
 C         -2.2613729774        0.1725525129        1.0688516328
 C         -1.5873992573       -1.1500283307        1.4516559633
 C          1.3218548567        0.2268777945        0.1386075872
 C          0.9067065025        0.3085496166       -1.9944881224
 C          2.4109223729       -0.2421880085       -0.6115867732
 C          3.5975437695       -0.6862725576        0.0603434616
 C          2.3531028760       -0.0973999299        2.0746483218
 H         -1.5978702339       -0.6592123175       -1.6373172947
 H         -0.9369423910        2.1615555819       -0.9744988936
 H         -3.5828731116       -0.9227488179       -0.2902132355
 H         -2.8558638899        0.5154763211        1.9190366488
 H         -1.0189725259       -1.5409034272        0.5960936273
 H         -0.8898591628       -0.9453897080        2.2712515737
 H         -3.4397780250        1.2798241167       -2.2008057472
 H         -3.8205873325        1.8431639914        0.1080459536
 H          0.3695494349        0.4961356112       -2.9023524186
 H         -2.2006692415       -2.8580632355        2.1825682801
 H          2.3788890316       -0.0573418029        3.1527249074
 H          4.2614514542       -0.8583337342        1.9902964303
  31
        -59.63690791
 O         -2.0898294656       -0.4709707275        1.1643880870
 O         -2.3444669029        2.4523728011        0.9221530448
 O         -3.0144031213        1.5699382877       -1.5391310671
 O         -3.0624294834       -2.7796732093       -0.3476737409
 O          4.4454335375       -1.2785579463       -0.6403893203
 N          0.2174170983       -0.2030890421        0.8612435948
 N          1.6699372122       -1.8846891187        0.6273364026
 N          1.5688771686        1.6096684483       -0.0716781671
 N          3.6756556560        0.8529784985       -0.7693019397
 C         -1.4172856391        1.5918698428        0.3259063987
 C         -1.0308105275        0.4363960485        1.2582598820
 C         -2.0637394297        0.8215756488       -0.8503576851
 C         -2.6486602539       -0.4352956988       -0.1551760243
 C         -2.3615788136       -1.7144579884       -0.9421890904
 C          1.3341120407        0.3257175401        0.2890625828
 C          0.4908231337       -1.5310285688        1.0423148173
 C          2.2369248857       -0.7364232728        0.1467046241
 C          3.5291050769       -0.4966469246       -0.4297527834
 C          2.7373252950        1.8068369618       -0.5847041084
 H         -0.5649925857        2.1997271898        0.0243908380
 H         -0.9496486217        0.7485474309        2.3066594592
 H         -1.2941658360        0.5187387560       -1.5695455267
 H         -3.7347055654       -0.3549770511       -0.0381308415
 H         -2.7015153098       -1.5468924804       -1.9726630003
 H         -1.2804311575       -1.9112142670       -0.9464845370
 H         -3.0112618304        1.9388857034        1.4049121135
 H         -3.3078935066        2.2989640759       -0.9611508199
 H         -0.2237433294       -2.1949834525        1.4854649671
 H         -2.9168671847       -3.5884432983       -0.8580489207
 H          2.9833709870        2.8117025471       -0.8915901812
 H          4.5706136077        1.0999210188       -1.1808778960
  31
        -59.63677932
 O         -1.4716599682        0.4549113362        1.1543074740
 O         -2.3526759588        2.4303254676       -1.1855187299
 O         -4.1996189145        0.5766467432       -0.8435392220
 O         -3.6471002656       -2.4769131442        1.0609628688
 O          4.6601038312       -1.4621693981       -0.3667360145
 N          0.3578538871        0.2178891184       -0.3058128963
 N          1.6255051535       -1.4378125629       -1.1101039174
 N          2.0510631156        1.4495807023        0.9320298852
 N          4.1584037845        0.4321108925        0.7793888379
 C         -1.8190218535        1.1473373035       -1.0874198156
 C         -0.7966668809        1.0153378524        0.0629685385
 C         -2.8971667356        0.0794274645       -0.7351093226
 C         -2.6219929685       -0.2780119293        0.7393381286
 C         -2.4306939320       -1.7810823039        1.0031774305
 C          1.6220029378        0.4296059294        0.1555211155
 C          0.4331600711       -0.9252100157       -1.0529525902
 C          2.4089764683       -0.6079437275       -0.3540066927
 C          3.8075205129       -0.6507464217       -0.0348975054
 C          3.3112851725        1.3950111018        1.2072611937
 H         -1.3416591049        0.9524778891       -2.0504963181
 H         -0.4005559937        1.9873694581        0.3778303139
 H         -2.7656797187       -0.8046648828       -1.3746873908
 H         -3.4652024726        0.0647648512        1.3528209316
 H         -1.7572412614       -2.2220817383        0.2554046199
 H         -1.9707170280       -1.8931881773        1.9875822145
 H         -2.9435709054        2.6036916056       -0.4349201183
 H         -4.3679486941        0.8781017717       -1.7490610387
 H         -0.4098455981       -1.3475737148       -1.5592980552
 H         -4.1240479584       -2.3845981683        0.2237736463
 H          3.7232437973        2.1772308361        1.8260017464
 H          5.1366579910        0.4675652001        1.0495370635
  31
        -59.63671476
 O         -1.6211652982       -0.1124499445        1.0724536777
 O         -2.0869813990        2.5187259402       -0.7920237627
 O         -4.0728187036        0.8436764262       -1.2246691803
 O         -3.4379296829       -2.3014713616        1.8634550393
 O          4.7813930518       -1.2385379859       -0.6256138820
 N          0.3723069309        0.0322901628       -0.1215695562
 N          1.6967680429       -1.5157347672       -1.0369595079
 N          2.0587673602        1.4333856368        0.9314397769
 N          4.2248819334        0.6145620881        0.5610486010
 C         -1.6674967964        1.1964649834       -0.9334026571
 C         -0.8267602687        0.7317138959        0.2821494934
 C         -2.8617862971        0.2051492961       -0.9464404739
 C         -2.9031085485       -0.3315750282        0.4947425263
 C         -3.2819814287       -1.8162610696        0.5580265445
 C          1.6488519292        0.3695851409        0.2045887944
 C          0.4740721932       -1.1116635150       -0.8617054835
 C          2.4726345318       -0.6010969979       -0.3766586607
 C          3.8942595251       -0.5075860951       -0.2073561894
 C          3.3402951563        1.4988634395        1.0742544205
 H         -1.0638751157        1.1291451940       -1.8459432301
 H         -0.4935406426        1.5949813372        0.8724564552
 H         -2.6643366249       -0.6143943586       -1.6457975281
 H         -3.6407425276        0.2562637336        1.0606018935
 H         -4.2023564285       -1.9559196288       -0.0250929959
 H         -2.4811895769       -2.4165028156        0.1195079902
 H         -3.0471540558        2.5241026887       -0.6169386168
 H         -4.1826257933        0.9667480215       -2.1792738620
 H         -0.3817611887       -1.6234023634       -1.2513288991
 H         -4.1305368270       -1.8017683715        2.3193213574
 H          3.7387271123        2.3225946794        1.6461575813
 H          5.2182236009        0.7439280081        0.7269736664
  31
        -59.63668217
 O         -1.6150125067       -0.2884484561        1.2342827214
 O         -1.4661839614        1.8802884399       -1.5253696211
 O         -3.6482968530        1.7247336498        0.0108648331
 O         -4.5631336174       -2.0747220578        0.0702002299
 O          4.9159852075       -1.0438475763       -0.3609436344
 N          0.4004080599       -0.1906642244        0.0687367869
 N          1.8809900477       -1.7768046102       -0.4580067234
 N          1.9281696556        1.6351820480        0.5720950573
 N          4.1673470700        0.9966892169        0.2930640692
 C         -1.7099858899        0.6270831551       -0.9623773754
 C         -0.8602451991        0.4608968152        0.3171860884
 C         -3.1477714492        0.4860223116       -0.4124865705
 C         -2.9550501077       -0.4664104742        0.7745460827
 C         -3.2042351002       -1.9324619776        0.4006946883
 C          1.6331458384        0.3697556701        0.1982774887
 C          0.6227621729       -1.4812534441       -0.3213603496
 C          2.5545017045       -0.6279813423       -0.1402741004
 C          3.9573677507       -0.3287786050       -0.1040646916
 C          3.1946977711        1.8835126641        0.6023203308
 H         -1.4817607162       -0.1895495443       -1.6562918947
 H         -0.6154321810        1.4509300148        0.7284881063
 H         -3.8407922813        0.0472090843       -1.1405977257
 H         -3.6330432060       -0.1852794310        1.5863819331
 H         -2.5681015394       -2.2076537096       -0.4526217483
 H         -2.9274656951       -2.5502852649        1.2621769282
 H         -1.7537657941        1.9007005635       -2.4504355907
 H         -3.0794363523        2.4261236821       -0.3565930654
 H         -0.1731664193       -2.1798734898       -0.4783530396
 H         -4.7764760905       -3.0133856310       -0.0317196116
 H          3.5036393799        2.8750810624        0.8950377606
 H          5.1408292608        1.2809108287        0.3445699582
  31
        -59.63667347
 O         -1.6253490625       -0.9660777435        0.4987024541
 O         -2.3492250585        2.0029314808        1.6791131126
 O         -3.2378961691        1.8938986971       -0.8124005542
 O         -3.3539866657       -2.3416337598       -1.4900470944
 O          4.7899893332       -0.6368690288       -0.1538765002
 N          0.4163983309       -0.1716476915        1.2501648006
 N          2.4496540808       -0.8360871706        1.8947114691
 N          0.9386434319        0.5197269392       -1.0347385308
 N          3.2033549950        0.1910639652       -1.5484869254
 C         -1.4545239680        1.4054110769        0.7875038987
 C         -1.0127992398        0.0154333593        1.3011038657
 C         -2.1251446750        1.0834925411       -0.5706298198
 C         -2.5691482151       -0.3756651111       -0.3853891057
 C         -2.6235018763       -1.1553632685       -1.6947133712
 C          1.2447266597        0.0179735144        0.1845972998
 C          1.2044728415       -0.6953149280        2.2359837242
 C          2.5154932783       -0.3981443450        0.5996872945
 C          3.6189728787       -0.3239790805       -0.3149249438
 C          1.9434378054        0.5769229337       -1.8444147703
 H         -0.5797020996        2.0557724891        0.6720803550
 H         -1.3186764673       -0.1052086928        2.3497353837
 H         -1.3768097026        1.1351712833       -1.3663791835
 H         -3.5661075659       -0.4012086593        0.0772710141
 H         -3.1199987173       -0.5231801579       -2.4422021070
 H         -1.5956180209       -1.3706471801       -2.0102112218
 H         -3.1859315529        2.1644729664        1.2009462788
 H         -2.9648316489        2.7195861640       -1.2389755805
 H          0.8158771544       -0.9528992447        3.2001543761
 H         -3.3416199330       -2.8688207179       -2.3010730162
 H          1.7644848864        0.9656092253       -2.8353055249
 H          3.9329250444        0.2691969383       -2.2506567849
  31
        -59.63666642
 O         -2.0627132371       -0.4113216537        1.1716199413
 O         -1.3032141865        2.6148962580       -0.3323424090
 O         -3.7793956965        1.7598810478        0.0401351203
 O         -2.7102896342       -2.8690178683       -0.1060800394
 O          4.5980228745       -1.2345760587       -0.4288121021
 N          0.2098100583       -0.2662402350        0.6152588683
 N          1.6826025986       -1.9318402747        0.4708598138
 N          1.6208862973        1.5931607587       -0.0704787717
 N          3.8077882293        0.8899991069       -0.5389298896
 C         -1.4418459860        1.2356735292       -0.4422587029
 C         -1.0295923561        0.4587645070        0.8396411952
 C         -2.9302025545        0.8562546522       -0.6051860807
 C         -2.9958919578       -0.5065632839        0.0980623213
 C         -2.6789238853       -1.6728814744       -0.8466820779
 C          1.3811203688        0.2889044760        0.2085262341
 C          0.4566049234       -1.5997176621        0.7562829387
 C          2.3013034414       -0.7621112001        0.1219546237
 C          3.6472750269       -0.4790338649       -0.2858019316
 C          2.8403854509        1.8261236758       -0.4314534995
 H         -0.8711741684        0.8466611153       -1.2965161732
 H         -0.8697772735        1.1533728122        1.6768250040
 H         -3.2021711363        0.7771192135       -1.6663504947
 H         -3.9694083150       -0.6711034454        0.5650482193
 H         -3.4352356041       -1.6784824104       -1.6395133504
 H         -1.6860503962       -1.5281358586       -1.2966828598
 H         -0.3601509895        2.8380644337       -0.2752557251
 H         -3.3921036190        2.6488431292       -0.0334074809
 H         -0.3066569069       -2.2825666005        1.0714232634
 H         -2.6786303400       -3.6248153905       -0.7093505621
 H          3.1082830585        2.8442946852       -0.6682430485
 H          4.7417338692        1.1649438008       -0.8274611843
  31
        -59.63666219
 O         -2.0457270068       -0.3715567669        1.4069383578
 O         -2.3305551218        2.5010726859        0.7969112768
 O         -3.1692671476        1.3020921145       -1.4317504132
 O         -2.9860793326       -2.1082002943       -1.6467358612
 O          4.4334679927       -1.3594483413       -0.5039588607
 N          0.2499534080       -0.1204457570        0.9979772937
 N          1.7407863974       -1.7854709920        0.9930737008
 N          1.5060202782        1.5255436263       -0.3058719568
 N          3.5989547049        0.7002521474       -0.9655773411
 C         -1.4327379709        1.5644353190        0.2737234996
 C         -0.9960824677        0.5521096106        1.3394474412
 C         -2.1382357228        0.6489541660       -0.7601391627
 C         -2.6184550385       -0.5455856274        0.1060867699
 C         -2.2364497855       -1.9104213190       -0.4751090671
 C          1.3232536862        0.3210339952        0.2849152289
 C          0.5722223092       -1.3886314604        1.3972441870
 C          2.2497766505       -0.7301663243        0.2873225829
 C          3.5065832598       -0.5706000415       -0.3874160911
 C          2.6431777641        1.6524098287       -0.9041344296
 H         -0.5998601581        2.1239342764       -0.1501455327
 H         -0.8909414743        1.0068722762        2.3321093454
 H         -1.4254484310        0.2945105302       -1.5124653238
 H         -3.7083687867       -0.5184399900        0.2086826336
 H         -1.1574198483       -1.9365708146       -0.6869233059
 H         -2.4641596311       -2.6755895798        0.2783447818
 H         -2.9758283946        2.0559166411        1.3687731828
 H         -3.4002106613        2.1055693018       -0.9276520492
 H         -0.0997695555       -1.9796204424        1.9851988123
 H         -2.7999608026       -2.9869041881       -2.0060584914
 H          2.8457383081        2.5924625181       -1.3937913109
 H          4.4665481007        0.8882375384       -1.4587930226
  31
        -59.63665251
 O         -1.6595958539       -0.3404911300        0.9952512923
 O         -1.6500505402        2.0692266159       -1.6226953054
 O         -3.6953543732        1.8493872088        0.0279997259
 O         -3.3796481230       -2.6690078531        1.3488475782
 O          4.8370545216       -1.1103426496       -0.4054034981
 N          0.3355828713       -0.1173637230       -0.1601328203
 N          1.7941669094       -1.6627900054       -0.8471861993
 N          1.8865019956        1.5236028575        0.7467534378
 N          4.1148984143        0.8272123001        0.5317433755
 C         -1.8003218742        0.7925494779       -1.0856854597
 C         -0.9200983884        0.5125592918        0.1579422007
 C         -3.2240294620        0.6462289427       -0.5079934009
 C         -3.0435597884       -0.3701863521        0.6243549085
 C         -3.4369509892       -1.8029727999        0.2459778428
 C          1.5756711936        0.3509113021        0.1497530393
 C          0.5408219702       -1.3357863242       -0.7470008811
 C          2.4829386828       -0.6183631426       -0.2914813066
 C          3.8887611696       -0.4008745089       -0.1013191231
 C          3.1550314583        1.7000174365        0.9111678614
 H         -1.6271476210        0.0093989280       -1.8341520600
 H         -0.6798648758        1.4541291973        0.6734775170
 H         -3.9195587409        0.2742781119       -1.2721629410
 H         -3.6273636502       -0.0526594816        1.4954906054
 H         -4.4716925020       -1.8219137234       -0.0995213978
 H         -2.7802538791       -2.1626037534       -0.5589408687
 H         -0.8548439085        2.1335873724       -2.1674771103
 H         -3.4486693027        2.5733552105       -0.5716440768
 H         -0.2627904869       -1.9598533470       -1.0808978138
 H         -2.5138353369       -2.5786245733        1.7726631057
 H          3.4761051894        2.6144553833        1.3855900204
 H          5.0907689877        1.0473801634        0.7061246423
  31
        -59.63654810
 O         -1.7632999420       -0.3896531068        1.0818537770
 O         -1.3657119271        2.0242601264       -1.5281273756
 O         -3.4828124312        1.9508827221        0.0823612675
 O         -3.5394782205       -2.7153286006        1.0242508511
 O          4.8266595931       -1.0343356614       -0.5046815800
 N          0.3217222748       -0.2031649374        0.0549401921
 N          1.7882671463       -1.7551132433       -0.5966891941
 N          1.8619111678        1.5812038324        0.6566287546
 N          4.0941643137        0.9596796324        0.2941370380
 C         -1.7087868693        0.8020001540       -0.9743044054
 C         -0.9330126463        0.4490997598        0.3226599373
 C         -3.1680172880        0.7074609485       -0.4855960231
 C         -3.0913628654       -0.4244068921        0.5511673892
 C         -3.4228156514       -1.8009666793       -0.0380872384
 C          1.5568799663        0.3453301767        0.1999875424
 C          0.5327194654       -1.4632633244       -0.4248211411
 C          2.4701807402       -0.6309085123       -0.2161749177
 C          3.8735081769       -0.3364627723       -0.1851018231
 C          3.1293295873        1.8249566919        0.6803863236
 H         -1.5066450111        0.0376849524       -1.7316865075
 H         -0.6899397885        1.3650510700        0.8808067794
 H         -3.8492179740        0.4638965373       -1.3069555668
 H         -3.7617824222       -0.2516326340        1.3996348744
 H         -4.3716350490       -1.7270148988       -0.5858533327
 H         -2.6296668997       -2.1011190156       -0.7338729401
 H         -1.8171992294        2.7266534527       -1.0272837949
 H         -4.4241723998        1.9981872260        0.2986521251
 H         -0.2680961729       -2.1484097125       -0.6122239959
 H         -3.6933310488       -3.6046731090        0.6758364062
 H          3.4465082671        2.7930625376        1.0358384445
 H          5.0688958560        1.2399278460        0.3432726728
  31
        -59.63651402
 O         -1.5904403343       -0.5277056062        0.8564495709
 O         -1.8241559005        2.3936669591       -0.7742831137
 O         -4.0695003795        1.0162498542       -1.2066223330
 O         -3.9168087116       -2.0418297253        2.0016684747
 O          4.9408516962       -1.0377451752       -0.6264294046
 N          0.4430440337       -0.1212970303       -0.1535344055
 N          1.8904974900       -1.5509735711       -1.0707179679
 N          2.0045964407        1.3991183615        0.9279184431
 N          4.2311162142        0.7564246971        0.5686849760
 C         -1.6163264680        1.0219534840       -0.9685438110
 C         -0.8106655492        0.4636255453        0.2324967871
 C         -2.9580109580        0.2367562523       -0.9058158425
 C         -2.9575312668       -0.3166895032        0.5354319933
 C         -3.7492989121       -1.6171717512        0.6756911069
 C          1.6856343115        0.3131097445        0.1882171737
 C          0.6382508170       -1.2471548231       -0.9037733501
 C          2.5869566533       -0.5847086783       -0.3951216186
 C          3.9955887553       -0.3820661156       -0.2113385021
 C          3.2761238841        1.5634452537        1.0824799105
 H         -1.0791297986        0.8242764839       -1.9002356558
 H         -0.5813066498        1.2895249604        0.9227053178
 H         -2.9520432127       -0.5903096523       -1.6204173484
 H         -3.3707007775        0.4486379558        1.2112593413
 H         -4.7190290302       -1.4726626278        0.1813285801
 H         -3.2055139361       -2.4210662332        0.1756463918
 H         -1.9374256108        2.8416760570       -1.6247140218
 H         -3.9934873314        1.8625834013       -0.7315462130
 H         -0.1766278456       -1.8181648963       -1.2991255965
 H         -4.4183048271       -1.3787935661        2.4976545204
 H          3.6037436055        2.4107313157        1.6647911521
 H          5.2101236969        0.9614269832        0.7442813520
  31
        -59.63641753
 O         -1.6118176903       -0.0925767907        1.2249438714
 O         -1.5739832729        2.1232199502       -1.4165999926
 O         -3.9028141594        1.6030448844       -0.1996019219
 O         -4.2743647758       -2.4636878932        0.4939717538
 O          4.8617674248       -1.1541779938       -0.3863857617
 N          0.3792132982       -0.1152400968       -0.0113055050
 N          1.7992337217       -1.7298915622       -0.6140047119
 N          1.9751991310        1.5952540427        0.6545306338
 N          4.1896080516        0.8720601248        0.3853907702
 C         -1.7199456628        0.8044300310       -0.9864155673
 C         -0.8472967560        0.5937807534        0.2698522431
 C         -3.1540771876        0.4622668645       -0.4961774973
 C         -2.8969156360       -0.4514954695        0.7158149847
 C         -2.9725065596       -1.9542944277        0.3792075134
 C          1.6335452878        0.3739014041        0.1860334648
 C          0.5527086203       -1.3846926650       -0.4873484696
 C          2.5167546646       -0.6402516047       -0.1993026753
 C          3.9302808834       -0.4124035927       -0.1066875077
 C          3.2505464141        1.7813608821        0.7307390331
 H         -1.4099373010        0.0961083868       -1.7688091307
 H         -0.5318300860        1.5668221437        0.6720528328
 H         -3.7229014278       -0.0556757147       -1.2715098489
 H         -3.6178360868       -0.2530541060        1.5170382674
 H         -2.5672459046       -2.1455478329       -0.6232493802
 H         -2.3718668543       -2.4966506590        1.1131500420
 H         -2.2348251268        2.3272125930       -2.0960985106
 H         -3.4282210250        2.1658809745        0.4296806137
 H         -0.2667886140       -2.0334897297       -0.7177744324
 H         -4.8555964700       -2.0500897918       -0.1600172456
 H          3.5965218202        2.7349986029        1.0984757396
 H          5.1732333376        1.1056308975        0.4801978813
  31
        -59.63635284
 O         -2.0943731910       -0.3808890325        1.1590359773
 O         -1.7545191470        2.7290328043        0.4606782639
 O         -3.8660192879        1.6332326433       -0.6139400702
 O         -2.3980341470       -2.8685279225       -0.1958090484
 O          4.5182105070       -1.3652655180       -0.4101443829
 N          0.1852410329       -0.1972404785        0.6663608541
 N          1.6269475571       -1.9019828837        0.6204588574
 N          1.6340284061        1.5662932610       -0.2055878654
 N          3.7874171660        0.7662671190       -0.6781064916
 C         -1.4602529512        1.5005287338       -0.1393325347
 C         -1.0487690240        0.5158759167        0.9774590788
 C         -2.7279027236        0.8423456292       -0.7722831832
 C         -2.8303875154       -0.5214280989       -0.0533152989
 C         -2.3189198438       -1.6711967676       -0.9312932038
 C          1.3573203721        0.2992403696        0.1848601844
 C          0.4200142904       -1.5200020924        0.9169709408
 C          2.2533716627       -0.7778216922        0.1566854726
 C          3.5944687245       -0.5692718841       -0.3078690466
 C          2.8457362944        1.7342758244       -0.6175687968
 H         -0.6536128784        1.5990911802       -0.8701725670
 H         -0.9030324349        1.0634991618        1.9183146014
 H         -2.6093358759        0.7040324245       -1.8489590287
 H         -3.8568079982       -0.7459361579        0.2486414752
 H         -2.9548453395       -1.7141565414       -1.8233175217
 H         -1.2825111711       -1.4733697123       -1.2405431863
 H         -1.8548111787        3.4120065746       -0.2185534064
 H         -3.8862019558        1.9842435269        0.2919772371
 H         -0.3444064880       -2.1619739462        1.3068267550
 H         -2.2271560266       -3.6214659927       -0.7784378906
 H          3.1303319108        2.7231522121       -0.9421657049
 H          4.7194268595        0.9904505391       -1.0129768583
  31
        -59.63628314
 O         -1.9344438222       -0.3176182622        1.1933021363
 O         -1.3161761354        2.3448718975       -1.0535619560
 O         -3.6442869220        1.8823247467        0.1186720338
 O         -2.8354548232       -2.8746768950        0.3974712493
 O          4.6618661482       -1.2039105288       -0.5158535870
 N          0.2436933393       -0.2027042020        0.3602292114
 N          1.6475554445       -1.8857105116       -0.0587728444
 N          1.8190753206        1.6522760588        0.3457621451
 N          4.0007136029        0.9314853185       -0.1252441838
 C         -1.6152383753        1.0277705401       -0.7528311917
 C         -0.9937842575        0.5136481347        0.5814209720
 C         -3.1203537301        0.7554912038       -0.5301366508
 C         -3.0837400420       -0.4914003334        0.3649749342
 C         -3.0405962275       -1.7825929908       -0.4674319334
 C          1.4779757425        0.3493186706        0.2239704311
 C          0.4153330964       -1.5448489915        0.1848742354
 C          2.3511437134       -0.7119204423       -0.0485670767
 C          3.7430685107       -0.4372868615       -0.2560707835
 C          3.0765312801        1.8768017775        0.1640261794
 H         -1.2339839257        0.4205884853       -1.5804682608
 H         -0.7551741244        1.3610402217        1.2382741841
 H         -3.6345182450        0.5659758592       -1.4779354515
 H         -3.9257571767       -0.5485162586        1.0598282878
 H         -3.9988127329       -1.8713369074       -0.9919483956
 H         -2.2323022069       -1.7231090140       -1.2095338328
 H         -1.8942845154        2.9224876636       -0.5244989253
 H         -4.6068192530        1.8191572874        0.1873926110
 H         -0.3923075530       -2.2399832461        0.2910036889
 H         -3.0093646482       -3.7006054479       -0.0752802581
 H          3.4211020882        2.8957211460        0.2484969584
 H          4.9706278132        1.2007080787       -0.2573095769
  31
        -59.63619713
 O         -1.5751444492       -0.2612512684        1.2011065833
 O         -1.6557233484        1.8759879274       -1.6350986989
 O         -3.6502269098        1.7079552065        0.0979132990
 O         -4.5317100137       -2.0983102986        0.1459656716
 O          4.9180095324       -1.0849013365       -0.2912134533
 N          0.4051839733       -0.1527115377       -0.0103096161
 N          1.8755139591       -1.7570666571       -0.5133819318
 N          1.9485515698        1.6364226110        0.5732411172
 N          4.1840529164        0.9577476870        0.3736961852
 C         -1.7536055852        0.6421127473       -0.9958725913
 C         -0.8542585932        0.4966917724        0.2596579148
 C         -3.1645179220        0.4894507225       -0.3901927577
 C         -2.9232087593       -0.4644921777        0.7818120725
 C         -3.1618869172       -1.9335008842        0.4141615653
 C          1.6438888080        0.3809690455        0.1735079943
 C          0.6188776427       -1.4420786739       -0.4117623910
 C          2.5583174516       -0.6268674064       -0.1521538060
 C          3.9644118024       -0.3559512299       -0.0571984038
 C          3.2175882036        1.8594718898        0.6570060733
 H         -1.5530489754       -0.1899861331       -1.6825967169
 H         -0.6132120942        1.4876101921        0.6706406009
 H         -3.8726987277        0.0555626157       -1.1076884205
 H         -3.5814502411       -0.1937107725        1.6131736171
 H         -2.5611911412       -2.1959549430       -0.4681192591
 H         -2.8359955098       -2.5482898616        1.2608093978
 H         -0.8509156116        1.9359805742       -2.1664097316
 H         -3.4667614931        2.3968782878       -0.5620525191
 H         -0.1825044114       -2.1240448405       -0.6081835144
 H         -4.7307939458       -3.0394278036        0.0372491381
 H          3.5333787050        2.8410051818        0.9751863966
 H          5.1601038389        1.2200875451        0.4725006637
  31
        -59.63609140
 O         -1.9488497411       -0.7340476060        0.8114446127
 O         -1.8656627428        2.6359503490        1.1242169146
 O         -3.9686269837        1.5323229134       -0.0633820989
 O         -1.8025718786       -2.4935520538       -1.4470223078
 O          4.6159547304       -0.9969098626        0.0021660684
 N          0.2553288272        0.0211140154        1.1282767671
 N          2.1673286630       -0.8383318205        1.9102590202
 N          0.9719206350        0.5159148797       -1.1617962426
 N          3.2117455042       -0.0760421996       -1.5237833703
 C         -1.5405261926        1.5599039240        0.2899376343
 C         -1.1533148083        0.3615460948        1.1775990719
 C         -2.7512426542        1.0370064077       -0.5366007508
 C         -2.6170255683       -0.4925882606       -0.4250510049
 C         -1.8738399042       -1.0953133210       -1.6218864516
 C          1.1495336310        0.0536954807        0.0999931712
 C          0.9339456898       -0.5357084901        2.1777386920
 C          2.3434745932       -0.4793286586        0.6023724675
 C          3.4973195130       -0.5699096900       -0.2454625188
 C          2.0196502676        0.4228829564       -1.9124258365
 H         -0.7113418737        1.8126767143       -0.3800184528
 H         -1.3651092360        0.5994316181        2.2293203160
 H         -2.6911857531        1.3628969677       -1.5761398939
 H         -3.5896382426       -0.9855545797       -0.3363306406
 H         -2.4403403478       -0.8480657236       -2.5280315170
 H         -0.8724680625       -0.6526548108       -1.6873350021
 H         -2.2923911681        3.3315128386        0.6008767212
 H         -4.0769784909        1.3135306945        0.8742321562
 H          0.4722930174       -0.6967186234        3.1305615115
 H         -1.3638278337       -2.8897375941       -2.2124470658
 H          1.9342378435        0.7725503773       -2.9299680025
 H          3.9846297856       -0.1077307678       -2.1817733828
  31
        -59.63607982
 O         -1.4651154042        0.4985691997        1.1875485391
 O         -2.4991844870        2.3941894740       -0.9873135933
 O         -4.1690314850        0.4174777155       -1.0166393998
 O         -3.6068674066       -2.4048873412        0.7563186062
 O          4.6361459332       -1.4962898734       -0.3519231009
 N          0.3503691814        0.2268187052       -0.2928024902
 N          1.5951995792       -1.4594961495       -1.0686223360
 N          2.0692646555        1.4760676737        0.8923003790
 N          4.1645793937        0.4327612868        0.7482094813
 C         -1.8314094908        1.1659969100       -1.0502527841
 C         -0.7937537743        1.0374948893        0.0821029628
 C         -2.8616102580        0.0520484724       -0.7160428340
 C         -2.6192338795       -0.2345771910        0.7873885967
 C         -2.4280035396       -1.7226128819        1.1019234613
 C          1.6217710272        0.4382105790        0.1503716321
 C          0.4075944480       -0.9356499758       -1.0126759904
 C          2.3939433651       -0.6187244687       -0.3408253861
 C          3.7950835996       -0.6677111521       -0.0337847239
 C          3.3317392365        1.4159675020        1.1569133078
 H         -1.3722118784        1.0074602671       -2.0307975759
 H         -0.3864206081        2.0046233125        0.3969365807
 H         -2.6652939181       -0.8523473800       -1.2985339534
 H         -3.4716284050        0.1349887318        1.3684368059
 H         -1.5663601497       -2.1084019594        0.5382497446
 H         -2.2096965872       -1.8128313688        2.1734210154
 H         -1.9880822657        3.0904219167       -1.4213486203
 H         -4.2746071923        1.3662850063       -0.8271977660
 H         -0.4452191762       -1.3595500500       -1.5014709713
 H         -3.5312159128       -3.3339291555        1.0160860853
 H          3.7578789969        2.2111274952        1.7489745994
 H          5.1457955960        0.4651796458        1.0080217961
  31
        -59.63604686
 O         -2.1001425217       -0.4547204918        1.1401805963
 O         -2.1865606645        2.5945125115        0.8912468038
 O         -3.3722498141        1.5566080075       -1.2619234760
 O         -2.7800463694       -2.8292412570       -0.3621974959
 O          4.4551226015       -1.3311214984       -0.5430972043
 N          0.2028925171       -0.1880242988        0.8383374221
 N          1.6620483450       -1.8765704702        0.7098608372
 N          1.5643054082        1.5745817534       -0.1781182496
 N          3.6852573933        0.7887693638       -0.7963567792
 C         -1.4293998072        1.6125775201        0.2525761338
 C         -1.0515015191        0.4617330398        1.2082169649
 C         -2.2308164087        0.8651594364       -0.8492726014
 C         -2.6622565701       -0.4527204881       -0.1721958750
 C         -2.2499793607       -1.6845173651       -0.9836775792
 C          1.3262845179        0.3130791323        0.2545971765
 C          0.4769090447       -1.5042755474        1.0906341548
 C          2.2337766986       -0.7527989882        0.1799368237
 C          3.5343833461       -0.5410971317       -0.3879442583
 C          2.7406208721        1.7473290574       -0.6815498842
 H         -0.5395637901        2.1132921359       -0.1303679304
 H         -0.9753395694        0.8070424634        2.2466986243
 H         -1.5707588994        0.6494928956       -1.7015232737
 H         -3.7494178616       -0.4797182286       -0.0455833280
 H         -2.6562948151       -1.5647040278       -1.9962729418
 H         -1.1537828861       -1.7436036384       -1.0389337624
 H         -3.0662904425        2.2482260160        1.1084677613
 H         -3.1236024323        2.4236369128       -1.6164392415
 H         -0.2452579012       -2.1473544841        1.5519383695
 H         -2.5748054135       -3.6115561556       -0.8931168584
 H          2.9878146856        2.7340736370       -1.0416794395
 H          4.5873132902        1.0159788180       -1.2036860765
  31
        -59.63600926
 O         -1.6237284542       -0.7276617054        0.7176337374
 O         -1.5184266876        2.2365163445       -1.1783598350
 O         -3.9775148490        1.4103010233       -0.7254604122
 O         -4.0131118522       -1.9020132132        2.0392915054
 O          5.0006515759       -0.8913157263       -0.5914854928
 N          0.4531469675       -0.2378761426       -0.1635312838
 N          1.9897910457       -1.5871660422       -1.0565871958
 N          1.9122186590        1.3778808782        0.9220312785
 N          4.1756666687        0.8693663153        0.5787560820
 C         -1.6098880464        0.8550363081       -1.0570351850
 C         -0.8313537372        0.2982596433        0.1739329086
 C         -3.0664270304        0.3548111179       -0.8126263277
 C         -2.9819421264       -0.3528124844        0.5539258927
 C         -3.8761508026       -1.5812714990        0.6757769681
 C          1.6643074492        0.2724962549        0.1836761639
 C          0.7199873042       -1.3538253315       -0.9048601329
 C          2.6221470662       -0.5762219250       -0.3837481590
 C          4.0142611752       -0.2884122055       -0.1912115438
 C          3.1703478949        1.6203922231        1.0818517076
 H         -1.1894066818        0.4285888110       -1.9725139336
 H         -0.6591464131        1.1093251665        0.8984182282
 H         -3.3553487262       -0.3646278118       -1.5861671468
 H         -3.2685085671        0.3638735144        1.3373404408
 H         -4.8530396486       -1.3369553652        0.2386521839
 H         -3.4130954676       -2.4050129788        0.1200089480
 H         -2.1982371246        2.6495595834       -0.6153695416
 H         -4.2094867317        1.7261283001       -1.6117895014
 H         -0.0567932092       -1.9755368078       -1.3000712316
 H         -4.5072524899       -2.7290212377        2.1275568090
 H          3.4430791936        2.4890690461        1.6608913922
 H          5.1392567759        1.1357357998        0.7567312668
  31
        -59.63600324
 O         -1.5823852100       -1.0034976414        0.4048949458
 O         -2.2883308074        1.8952212619        1.7474089237
 O         -3.2021537920        1.9472835374       -0.8379698360
 O         -3.6321193030       -2.2687850825       -1.4391922040
 O          4.8284737444       -0.6378631278       -0.1698249060
 N          0.4416959552       -0.2289082539        1.2085109538
 N          2.4519474371       -0.9913340165        1.8151795640
 N          1.0108652916        0.6650088624       -0.9926526041
 N          3.2783259353        0.3493509228       -1.5012845669
 C         -1.4294124133        1.3560246911        0.7779074097
 C         -0.9856443074       -0.0436352716        1.2476935213
 C         -2.1647971107        1.0641770438       -0.5560256310
 C         -2.6100454764       -0.3967095904       -0.3673914702
 C         -2.8094047383       -1.1498473740       -1.6767734558
 C          1.2896350169        0.0419060747        0.1758252195
 C          1.2045511863       -0.8605642578        2.1508296511
 C          2.5460893240       -0.4339113847        0.5685075166
 C          3.6654709218       -0.2906695784       -0.3181133504
 C          2.0295169841        0.7842954594       -1.7774483570
 H         -0.5574599802        1.9972570686        0.6212596789
 H         -1.3094647914       -0.1953647428        2.2878887834
 H         -1.4505732109        1.1319085871       -1.3801508419
 H         -3.5521040558       -0.4333208456        0.2011704200
 H         -3.2865936660       -0.4644526432       -2.3895711574
 H         -1.8261627554       -1.4519270426       -2.0544361181
 H         -2.4377165163        2.8336558909        1.5564324629
 H         -3.8624738726        1.9027515826       -0.1272855619
 H          0.7963649753       -1.2012560986        3.0804971928
 H         -3.7117294761       -2.7865460123       -2.2522288525
 H          1.8725433905        1.2722140681       -2.7272511619
 H          4.0204052023        0.4829588684       -2.1816128156
  31
        -59.63590100
 O         -1.5854343296       -0.6161191856        0.8013466034
 O         -1.7497764551        2.3433582660       -0.8192366089
 O         -4.0666479964        1.0280023927       -1.1853073436
 O         -4.0717798616       -1.7649632470        2.0873957507
 O          4.9775599891       -0.9747609061       -0.6264689307
 N          0.4594720841       -0.1603372239       -0.1627948859
 N          1.9413767030       -1.5496272617       -1.0872060688
 N          1.9837736845        1.3821028256        0.9412055481
 N          4.2251202996        0.7934644678        0.5810404340
 C         -1.6064357163        0.9623143545       -0.9914958457
 C         -0.8082672238        0.3980367385        0.2110387542
 C         -2.9712963242        0.2195601852       -0.9022279077
 C         -2.9527451172       -0.3417743753        0.5345016019
 C         -3.7939040678       -1.5987163817        0.7170018173
 C          1.6906852070        0.2978479142        0.1885633284
 C          0.6821942546       -1.2736242068       -0.9237942216
 C          2.6137412745       -0.5750321198       -0.3991937065
 C          4.0169524541       -0.3431440107       -0.2090661262
 C          3.2507925911        1.5735821576        1.1003684132
 H         -1.0858365390        0.7308700938       -1.9273529563
 H         -0.6069634707        1.2186524357        0.9163937225
 H         -3.0022941298       -0.6031755481       -1.6214266654
 H         -3.3145166721        0.4237654639        1.2372588424
 H         -4.7235867149       -1.4659328977        0.1477095077
 H         -3.2340274714       -2.4530148901        0.3195874892
 H         -2.0630666301        2.7467121268       -1.6428371087
 H         -4.0403852719        1.8123148284       -0.6120013562
 H         -0.1189073445       -1.8569442819       -1.3291153047
 H         -4.5469891253       -2.5969570278        2.2202593180
 H          3.5578975274        2.4219512007        1.6922043746
 H          5.1988157502        1.0195383887        0.7601554910
  31
        -59.63576319
 O         -1.4892738099       -0.6098604945        0.9401006749
 O         -1.6152330192        2.1100888785       -1.1646994110
 O         -4.0353655073        1.0618055745       -0.9085371432
 O         -5.0078990855       -1.3620877718        1.0755946046
 O          5.0618199326       -0.9211755641       -0.5156719973
 N          0.5210419036       -0.2054936773       -0.1156367962
 N          2.0446401214       -1.6226946123       -0.9219764662
 N          1.9974226224        1.4620326389        0.8648341679
 N          4.2557130024        0.9139369679        0.5490622390
 C         -1.6043448254        0.7199765661       -1.0305080593
 C         -0.7600934238        0.3486481636        0.2091788476
 C         -3.0166991064        0.1345798117       -0.7124029984
 C         -2.8734644460       -0.3766531354        0.7376073282
 C         -3.6354057516       -1.6639926105        1.0438835006
 C          1.7377240113        0.3156158148        0.1968514683
 C          0.7776072697       -1.3717111177       -0.7809675389
 C          2.6869200075       -0.5749640213       -0.3178748376
 C          4.0824122674       -0.2871479442       -0.1486681298
 C          3.2580754244        1.7022669488        1.0080374647
 H         -1.1787834158        0.2463959446       -1.9254946460
 H         -0.5773954694        1.2590304120        0.8005817982
 H         -3.2417461966       -0.6959348628       -1.3859689875
 H         -3.2265664001        0.4058252974        1.4270056562
 H         -3.4055595751       -2.4114390171        0.2743990800
 H         -3.2835857730       -2.0362371422        2.0142531198
 H         -2.2319648855        2.3552957403       -1.8736721854
 H         -3.9505091227        1.7889813755       -0.2721160114
 H         -0.0042184968       -2.0126682857       -1.1335330948
 H         -5.5105834331       -2.1683088551        1.2572989926
 H          3.5393257318        2.6008107688        1.5351583861
 H          5.2219870995        1.1832718354        0.7075070345
  31
        -59.63575425
 O         -1.5020946899       -0.4221813632        1.0637076176
 O         -1.8807032421        2.2819369696       -0.7985959507
 O         -4.0022464320        0.6630149456       -1.2762579427
 O         -4.9327886464       -1.4896488670        0.9357564105
 O          4.9948076372       -1.0410480540       -0.5614834816
 N          0.5040980032       -0.1166231295       -0.0392258834
 N          1.9388496001       -1.6194170005       -0.8543248519
 N          2.0818858249        1.5121333218        0.8430153514
 N          4.3032976117        0.8568144711        0.4739669868
 C         -1.5808640019        0.9203749099       -0.9138651596
 C         -0.7447106152        0.5014047231        0.3149293624
 C         -2.8532314145        0.0290682517       -0.8145416125
 C         -2.8654976305       -0.3555448074        0.6754597267
 C         -3.5420190061       -1.6844556363        1.0030413521
 C          1.7516666069        0.3589225906        0.2194302423
 C          0.6891117481       -1.3090138506       -0.6811272873
 C          2.6447870124       -0.5855057508       -0.2996693917
 C          4.0561890182       -0.3545997987       -0.1825992796
 C          3.3556459215        1.7009279352        0.9397686278
 H         -1.0243930256        0.7212423741       -1.8386006823
 H         -0.5042666650        1.3943037190        0.9096479722
 H         -2.7278909723       -0.8629481014       -1.4351920992
 H         -3.3757701271        0.4377401073        1.2446064389
 H         -3.2090021289       -2.4506020507        0.2921183707
 H         -3.2254318154       -1.9766035650        2.0122098377
 H         -2.4070642640        2.5574528492       -1.5658745205
 H         -4.2803161158        1.3429413953       -0.6432517423
 H         -0.1308182887       -1.9218279899       -0.9946154313
 H         -5.3860141812       -2.3255143961        1.1133321995
 H          3.6917039353        2.6020429158        1.4290536881
 H          5.2849176290        1.0882385964        0.5936897599
  31
        -59.63566462
 O         -1.7207313340       -0.0464537421        1.2706342254
 O         -2.1891413262        2.5276405834       -0.5300213504
 O         -4.0073437638        0.7345573511       -1.3180939217
 O         -2.6391465119       -2.5570360517        0.4388139307
 O          4.6724759214       -1.3187693291       -0.6425913695
 N          0.3051776358       -0.0246757296        0.1094077689
 N          1.5668585880       -1.6828473922       -0.6904756752
 N          2.0532801776        1.5411906673        0.7489834740
 N          4.1903962568        0.6932667050        0.2900774782
 C         -1.6500443617        1.2562475567       -0.7307492900
 C         -0.8566266259        0.7449962726        0.4994567260
 C         -2.8092574731        0.2353776105       -0.8137550696
 C         -3.0042937791       -0.1531485233        0.6568140701
 C         -3.5580690313       -1.5700340201        0.8419984556
 C          1.6000788896        0.3713200985        0.2426569983
 C          0.3569189732       -1.2678671437       -0.4583419495
 C          2.3838950096       -0.6714750511       -0.2626797247
 C          3.8127603650       -0.5399498803       -0.2555072952
 C          3.3412231988        1.6394393534        0.7482944600
 H         -1.0169667081        1.2244139684       -1.6273082236
 H         -0.4792103945        1.5791339205        1.1051280103
 H         -2.4749482159       -0.6457910559       -1.3829963925
 H         -3.6920591915        0.5728060196        1.1100174761
 H         -3.8488867183       -1.7119587477        1.8868861874
 H         -4.4381496653       -1.6754292309        0.2048234429
 H         -1.4976068210        3.2041764556       -0.5570883058
 H         -3.8649401001        1.1272717028       -2.1911928486
 H         -0.5226429221       -1.8424468120       -0.6699796816
 H         -1.9442286061       -2.6145528490        1.1095804896
 H          3.7748048141        2.5464667817        1.1402877869
 H          5.1918672264        0.8557237405        0.3296300852
  31
        -59.63549901
 O         -1.5806831846        0.3283011601        1.0832346139
 O         -2.3470929982        2.5284483630       -1.0951849259
 O         -4.2328652610        0.6920876382       -0.9648830663
 O         -2.7207510031       -2.2366532377        2.0086806960
 O          4.5990440860       -1.4726790419       -0.4692388205
 N          0.2986924444        0.2067458689       -0.3315698617
 N          1.5687638403       -1.4008356507       -1.2250668501
 N          1.9879834421        1.3653162229        0.9799095975
 N          4.0955125003        0.3568918856        0.7770256283
 C         -1.8385091378        1.2318025633       -1.0957448730
 C         -0.8617201861        0.9786841608        0.0748072873
 C         -2.9447299788        0.1569107271       -0.8789026952
 C         -2.7205794973       -0.3482745953        0.5596263046
 C         -2.5713293565       -1.8700299562        0.6580798796
 C          1.5604753712        0.3908646815        0.1462658296
 C          0.3763553552       -0.8900612668       -1.1445617187
 C          2.3493380696       -0.6165751032       -0.4187722294
 C          3.7462523667       -0.6790097793       -0.0966449277
 C          3.2474049981        1.2955844910        1.2544545882
 H         -1.3271962283        1.1129597031       -2.0539005636
 H         -0.4669821114        1.9118689891        0.4924436397
 H         -2.8164154040       -0.6658746568       -1.5943854901
 H         -3.5731200950       -0.0617614075        1.1867784994
 H         -3.3559070109       -2.3334024177        0.0452980382
 H         -1.5848465045       -2.1686248866        0.2805674836
 H         -2.9970928170        2.6265560605       -0.3804337755
 H         -4.4041822591        1.0093403877       -1.8645906614
 H         -0.4667358110       -1.2792934470       -1.6773955994
 H         -2.5920049422       -3.1908092453        2.1016070393
 H          3.6577034396        2.0433699572        1.9154259227
 H          5.0727609720        0.3762271440        1.0524197526
  31
        -59.63540246
 O         -1.3386597918        1.1540339820        0.7872103204
 O         -2.5355329081        1.0471715670       -2.4423127289
 O         -4.1157754925        1.0479348059       -0.3110001925
 O         -2.4491799421       -2.0928244777        2.0788755143
 O          4.6296853987       -1.1377098264       -0.4240299088
 N          0.3617241492        0.5799055594       -0.7577018216
 N          2.1075906061       -0.1492837957       -1.9468148116
 N          1.2745901227        0.2813190206        1.4921686073
 N          3.4462905831       -0.6035193957        1.4376417413
 C         -2.0382748706        0.3522684009       -1.3463018321
 C         -0.9607200726        1.1549548381       -0.5514944431
 C         -3.1128590758        0.0707274808       -0.2620293476
 C         -2.2858027731        0.1122528410        1.0271112479
 C         -1.6045666344       -1.2254149557        1.3708161682
 C          1.3183216675        0.2209447199        0.1414781325
 C          0.9039494765        0.3382672742       -1.9899429269
 C          2.4057318389       -0.2397995928       -0.6156441587
 C          3.5891406314       -0.7014356525        0.0501750878
 C          2.3469552410       -0.1370146735        2.0730369898
 H         -1.5975529542       -0.5833720844       -1.7078043806
 H         -0.9206757367        2.1958571546       -0.9028790325
 H         -3.6111069756       -0.8844266945       -0.4315284498
 H         -2.8758183627        0.4260797115        1.8928654227
 H         -1.2153198895       -1.7041962126        0.4624983146
 H         -0.7648123475       -1.0051277061        2.0341928573
 H         -3.4091849190        1.4121768246       -2.1991738093
 H         -3.8126854389        1.8540204583        0.1344475451
 H          0.3702330380        0.5452727480       -2.8956380250
 H         -3.1809448784       -2.3867316291        1.5183210719
 H          2.3719373129       -0.1135520006        3.1516162988
 H          4.2487311630       -0.9115622428        1.9779322842
  31
        -59.63497102
 O         -1.3896551579        1.1055181783        0.7529105257
 O         -3.0816524629        1.7057328608       -1.6400750024
 O         -3.7674804196       -0.8184127704       -1.0858248049
 O         -1.6612590708       -0.6444914151        2.9709160050
 O          4.4923417243       -1.2671716550       -0.4676745157
 N          0.3780980242        0.8021691854       -0.7765547277
 N          2.2069410416        0.2417992607       -1.9358668341
 N          1.0360174596       -0.0683450983        1.4134676344
 N          3.1480109279       -1.0841635539        1.3524064734
 C         -1.9945233514        0.8367853539       -1.5028608066
 C         -0.9352050343        1.3955352791       -0.5250072535
 C         -2.4899835578       -0.4071564394       -0.7300426291
 C         -2.3461044676        0.0376143678        0.7399309998
 C         -1.8940308453       -1.0959111662        1.6647128387
 C          1.2154884796        0.1722463088        0.0944307194
 C          1.0426632213        0.8166568267       -1.9727292256
 C          2.3529055944       -0.1817503192       -0.6446757917
 C          3.4326474452       -0.8728697460       -0.0003463840
 C          2.0157807069       -0.6890699095        1.9771872241
 H         -1.5630753420        0.5644811928       -2.4698684490
 H         -0.8320741984        2.4859097824       -0.6059808315
 H         -1.8227147248       -1.2534812506       -0.9263386428
 H         -3.2923114126        0.4506616159        1.1097917840
 H         -2.6842172475       -1.8470532696        1.7204431205
 H         -0.9852521615       -1.5572719760        1.2543491170
 H         -2.9039461413        2.3908035863       -2.2990538982
 H         -4.3272098001       -0.0294939784       -1.1898328486
 H          0.6432300316        1.2744265293       -2.8539985859
 H         -1.0172448813        0.0785868430        2.9125357065
 H          1.9253513372       -0.9137074918        3.0289040981
 H          3.8704079689       -1.5680245702        1.8767261523
  31
        -59.63486273
 O         -1.8469286759       -0.9268229125        0.6834391567
 O         -1.0492718465        2.3920068134       -0.3390361690
 O         -3.5380487400        1.8745889592        0.2578724737
 O         -4.0876639495       -2.6585035596        0.0923171697
 O          4.9109692956       -0.9020917334       -0.2892610124
 N          0.3885727203       -0.4105650537        0.4824058565
 N          2.0432128903       -1.9049963131        0.4346051261
 N          1.6402389177        1.5914079701       -0.1314876597
 N          3.9109650580        1.1268451036       -0.4686532186
 C         -1.3712867706        1.0508073005       -0.5056446980
 C         -0.9356763575        0.1332591855        0.6610967005
 C         -2.9058391767        0.8746857923       -0.4884203063
 C         -3.1184219976       -0.4865063144        0.2023428522
 C         -3.7110558152       -1.5627224461       -0.7060894143
 C          1.5148613906        0.2694335059        0.1392941808
 C          0.7750417361       -1.7100602713        0.6460076463
 C          2.5479649611       -0.6747785028        0.1144857590
 C          3.8796548764       -0.2513001149       -0.2131907816
 C          2.8471717978        1.9540771669       -0.4232265045
 H         -0.9608640615        0.6441288971       -1.4412950851
 H         -0.9662783990        0.7072472175        1.6048216880
 H         -3.3050312585        0.8673218431       -1.5116997130
 H         -3.7881873432       -0.3456331655        1.0603316543
 H         -4.5850931260       -1.1388138641       -1.2163967516
 H         -2.9559567922       -1.8566039406       -1.4458869681
 H         -0.0765108613        2.4816888187       -0.2842142802
 H         -3.0398516633        2.7020980189        0.1380486420
 H          0.0743610540       -2.4713038133        0.9198111508
 H         -4.4173276991       -3.3709928388       -0.4733608485
 H          3.0155830986        2.9957171132       -0.6495566108
 H          4.8261796765        1.4978333071       -0.7058780301
  31
        -59.63473857
 O         -1.3399038902        1.1055391217        0.8334274963
 O         -2.4370732889        0.9577918972       -2.4757657107
 O         -4.0483629109        1.0787592893       -0.4141092705
 O         -2.6021706887       -2.0978105711        2.0905964011
 O          4.6767679027       -1.0069928821       -0.4686163589
 N          0.3817969274        0.6553705666       -0.7232854393
 N          2.1727083966        0.0985673986       -1.9383556565
 N          1.2367752142        0.1016437156        1.5014759699
 N          3.4306454973       -0.7242065785        1.4071217209
 C         -1.9969141773        0.3209429499       -1.3247196115
 C         -0.9675101267        1.1585268008       -0.5024681095
 C         -3.1075615491        0.0458483957       -0.2863726191
 C         -2.3289742264        0.0978728087        1.0371974944
 C         -1.6967922221       -1.2509074471        1.4319060146
 C          1.3192019191        0.2079470870        0.1554205565
 C          0.9602022117        0.5657715542       -1.9590654056
 C          2.4377250922       -0.1387863784       -0.6182994593
 C          3.6133406525       -0.6517094828        0.0228092473
 C          2.3024336960       -0.3615868165        2.0598794011
 H         -1.5234956387       -0.6154037717       -1.6385972627
 H         -0.9803507472        2.2073023856       -0.8322966744
 H         -3.5737935455       -0.9304226139       -0.4575320660
 H         -2.9441265360        0.4476867571        1.8711183814
 H         -1.2594040196       -1.7405980134        0.5527355139
 H         -0.8949347723       -1.0389539881        2.1425422192
 H         -3.1922488031        1.5270130408       -2.2418570262
 H         -4.7893461829        0.9403781659        0.1913804569
 H          0.4399642839        0.8566724225       -2.8494596146
 H         -3.2549462009       -2.4480733903        1.4685327462
 H          2.2964690249       -0.4704874008        3.1334898417
 H          4.2244405131       -1.0801601021        1.9305204903
  31
        -59.63360479
 O         -1.2913946071        0.1256608406        0.8468935841
 O         -2.2029306630        1.5442071818       -2.1714421568
 O         -4.2545143026        0.1909926424       -1.1288271952
 O         -3.0189785354       -0.9140497386        3.0326857815
 O          4.9718090234       -0.4145282558       -0.5932345739
 N          0.4874746246        0.6628623496       -0.5597982529
 N          2.3711023526        0.8361013538       -1.7481441059
 N          1.3558187803       -0.5650872858        1.3687527359
 N          3.6502526263       -1.0067216253        1.1540397669
 C         -1.8178149708        0.4143993335       -1.4456265922
 C         -0.9101071917        0.8630587488       -0.2735660796
 C         -3.0110419275       -0.2863966526       -0.7255810526
 C         -2.7003113082       -0.0643394662        0.7710065264
 C         -3.1066227261       -1.2316586510        1.6691543499
 C          1.4572988266        0.0404097751        0.1644795332
 C          1.1050440438        1.1194593269       -1.6921412981
 C          2.6334206629        0.1539783262       -0.5922296765
 C          3.8556156483       -0.4059189816       -0.0914453211
 C          2.4644873930       -1.0591411365        1.8036668239
 H         -1.2754465690       -0.2979636197       -2.0807152591
 H         -1.0804524155        1.9447032480       -0.1137263641
 H         -3.0140512306       -1.3553260798       -0.9519523725
 H         -3.2078089324        0.8494159699        1.1182280536
 H         -4.1543901096       -1.4728841448        1.4776405787
 H         -2.4802737941       -2.0982540963        1.4258845083
 H         -2.8093299613        1.2803895923       -2.8815279363
 H         -4.3062940736        1.1484427662       -0.9763201388
 H          0.5740164765        1.6655809940       -2.4453702694
 H         -2.1005917204       -0.6889022233        3.2385037949
 H          2.4491020659       -1.5543214732        2.7623951775
 H          4.4755583717       -1.4221841510        1.5751640241
