  31
        -59.64242481
 O         -1.6920756359       -0.1190231044        1.3503660707
 O         -1.6284410616        1.7967244952       -1.6525320446
 O         -3.6601385694        1.8596847383        0.0460032105
 O         -2.7292961110       -2.2145052117       -0.5703125331
 O          4.7421518629       -1.2043992695       -0.3921434855
 N          0.2786136289       -0.1466631795        0.1073201160
 N          1.6748740859       -1.8029741256       -0.4280016009
 N          1.8929786582        1.6164382008        0.5602029860
 N          4.0956004194        0.8759248565        0.2425508578
 C         -1.8498692185        0.6537879639       -0.8979439915
 C         -0.9527231875        0.5528920527        0.3638646069
 C         -3.2649697491        0.5560532006       -0.2949300839
 C         -3.0411950512       -0.3405271953        0.9330829547
 C         -3.3168398073       -1.8232263022        0.6537303611
 C          1.5347332537        0.3609081799        0.2063375775
 C          0.4328222843       -1.4478261516       -0.2750732016
 C          2.4049601709       -0.6820301982       -0.1353779715
 C          3.8185708295       -0.4445058230       -0.1298142677
 C          3.1693299607        1.8092845684        0.5590296574
 H         -1.6586122783       -0.2101005559       -1.5408457348
 H         -0.6685628169        1.5537842810        0.7183194590
 H         -3.9607036777        0.0976634620       -1.0028584253
 H         -3.6710590421       -0.0276202755        1.7724783757
 H         -2.8988433910       -2.4037888144        1.4849984484
 H         -4.4027441130       -1.9643358128        0.6214943892
 H         -2.1166622725        2.5322251725       -1.2413322579
 H         -4.6055939754        1.8860787704        0.2456097976
 H         -0.4066857239       -2.0958940467       -0.4267547220
 H         -3.0375061281       -3.1037718999       -0.7966816206
 H          3.5284580720        2.7896089826        0.8313746925
 H          5.0812043190        1.1182704739        0.2663067592
