31
hypoxanthine_ribose  charge=0 mult=1  seed=1_b3lyp_pcm
O     -1.52662800     0.20211600    -1.17356300
O     -1.80183500    -2.13802400     1.54159800
O     -4.03249000    -1.13496000     0.35673100
O     -1.93773100     2.98478500    -1.16368700
O      4.90023500    -0.11932200    -0.11912500
N      0.39419100    -0.97629000    -0.52666900
N      2.43536100    -1.70318900    -1.11206300
N      1.01734700     0.98302800     0.79788400
N      3.35282000     1.24383000     0.88254400
C     -1.67431300    -0.88309600     0.92347800
C     -1.05471700    -0.94450800    -0.48792100
C     -3.01761000    -0.17690800     0.65371200
C     -2.68733700     0.76380100    -0.50609900
C     -2.36385900     2.18598900    -0.06748500
C      1.29631600    -0.10428100     0.03866600
C      1.14816800    -1.90605600    -1.20724700
C      2.54953600    -0.57319000    -0.33437500
C      3.72086900     0.12938200     0.10117300
C      2.08319400     1.61520500     1.19087500
H     -1.05384000    -0.25704100     1.56049700
H     -1.38013500    -1.85659400    -0.99473300
H     -3.36575100     0.36073500     1.53274000
H     -3.50190000     0.78866100    -1.23233000
H     -3.26542800     2.65163100     0.32880300
H     -1.60213200     2.17243700     0.71645600
H     -2.64699400    -2.51313900     1.25515300
H     -4.03634600    -1.34693300    -0.58308800
H      0.67755100    -2.70978600    -1.74971300
H     -1.14384500     2.57988400    -1.53074500
H      1.98936700     2.49992400     1.80521700
H      4.11752900     1.80378100     1.23558100
