32
DFT refinement start; not an optimized result
O -1.728177 0.487602 -1.337404
O -1.259425 -2.414576 0.605017
O -3.617851 -1.638182 -0.232544
O -3.693430 2.125807 1.318758
O 4.355177 -1.009193 0.621701
N 0.467430 0.123861 -0.599143
N 2.085908 1.626079 -0.394197
N 1.654990 -1.921771 -0.122045
N 4.743526 1.214545 0.397130
C -1.436251 -1.040602 0.478671
C -0.833567 -0.463104 -0.835329
C -2.912503 -0.601847 0.400704
C -2.824566 0.677196 -0.444562
C -2.619079 1.923508 0.438500
C 1.585645 -0.571229 -0.226333
C 0.836958 1.441617 -0.681284
C 2.593654 0.378447 -0.099562
C 3.956267 0.129730 0.326732
H -0.942853 -0.567394 1.334572
H -0.709970 -1.266265 -1.578356
H -3.320445 -0.383298 1.392302
H -3.709273 0.803698 -1.076181
H -1.731829 1.785917 1.062155
H -2.453086 2.791443 -0.208276
H -2.010330 -2.858036 0.169685
H -4.569504 -1.527268 -0.106539
H 0.147142 2.206226 -0.969873
H -4.455929 2.475762 0.835450
H 2.528608 -2.227251 0.288200
H 0.823599 -2.413525 0.176862
H 4.353260 2.106219 0.144613
H 5.701645 1.123013 0.687230
