32
DFT refinement start; not an optimized result
O -1.862086 0.410602 -1.418926
O -1.420449 -2.473814 0.501679
O -3.822906 -1.600260 -0.257452
O -1.672949 1.652657 1.350646
O 4.179462 -0.830485 0.846090
N 0.337230 0.123528 -0.643994
N 1.913262 1.673238 -0.468429
N 1.546399 -1.857953 0.017858
N 4.532638 1.381010 0.484362
C -1.552250 -1.088311 0.413326
C -0.941111 -0.503713 -0.893205
C -3.022032 -0.617404 0.341595
C -2.912263 0.668365 -0.482625
C -2.664114 1.912073 0.380309
C 1.447317 -0.517716 -0.169028
C 0.684793 1.438250 -0.802784
C 2.429332 0.461189 -0.059590
C 3.771448 0.275161 0.451519
H -1.054506 -0.628410 1.273244
H -0.778541 -1.305818 -1.630404
H -3.437195 -0.442759 1.334243
H -3.809702 0.846720 -1.081764
H -2.356322 2.729749 -0.282842
H -3.613668 2.176251 0.860934
H -2.279318 -2.877358 0.272834
H -3.689637 -1.597676 -1.217564
H -0.001565 2.164028 -1.184100
H -1.574251 2.430180 1.918008
H 2.398634 -2.114049 0.500034
H 0.712371 -2.363568 0.280967
H 4.135892 2.243892 0.154176
H 5.473273 1.334415 0.835652
