32
DFT refinement start; not an optimized result
O -1.556722 0.953268 -0.791313
O -1.486975 -2.600807 -0.321167
O -3.745420 -1.345831 -0.899886
O -2.022666 1.009201 2.127481
O 3.619254 1.123775 1.618229
N 0.481278 -0.186303 -0.899340
N 2.609344 -0.570053 -1.421486
N 0.756078 1.111613 1.126267
N 4.902707 0.155194 0.017924
C -1.571327 -1.261605 0.038270
C -0.942533 -0.294969 -0.998318
C -3.009298 -0.715614 0.118479
C -2.816227 0.792479 -0.132626
C -2.850112 1.618292 1.155806
C 1.227495 0.384590 0.097877
C 1.380083 -0.742756 -1.780489
C 2.558061 0.140502 -0.240799
C 3.716986 0.516535 0.536819
H -1.064177 -1.146734 1.000117
H -1.165047 -0.667438 -2.012513
H -3.447104 -0.901940 1.102362
H -3.589602 1.169102 -0.812724
H -2.492574 2.626496 0.920533
H -3.885412 1.667617 1.509456
H -2.215215 -2.794232 -0.937830
H -4.693924 -1.227202 -0.755970
H 1.064207 -1.267094 -2.658667
H -2.100189 1.497346 2.960090
H 1.461817 1.345415 1.810534
H -0.208229 1.022587 1.417268
H 4.909082 -0.343734 -0.854845
H 5.753326 0.370978 0.507837
