32
DFT refinement start; not an optimized result
O -1.967358 1.766022 -0.935585
O 0.083409 -1.829529 0.991759
N -3.253378 0.046585 -0.221235
N -0.923671 -0.025959 0.018853
C -2.044641 0.665103 -0.414761
C -3.345577 -1.180143 0.346395
C -4.466202 0.724990 -0.643389
C -2.260986 -1.858999 0.762728
C -0.950019 -1.287805 0.620910
H -4.345144 -1.576472 0.443166
H -4.978200 0.130812 -1.397886
H -5.119324 0.878134 0.213468
H -4.187675 1.687590 -1.065502
H -2.326773 -2.831835 1.215617
O 1.154774 -0.171509 -1.059736
O 2.918119 2.172886 0.112886
O 0.829584 2.059561 1.722064
O 3.137923 -2.333619 -1.468861
C 2.616897 0.862637 0.521765
C 2.529837 -0.122117 -0.655553
C 1.176928 0.882463 1.070716
C 0.359778 0.619517 -0.214207
C 3.021769 -1.536102 -0.316159
H 3.321731 0.514576 1.282509
H 3.096540 0.252683 -1.517368
H 1.029422 0.061168 1.775299
H 0.130576 1.579206 -0.701896
H 2.331652 -1.987404 0.405931
H 4.024640 -1.486875 0.111336
H 3.864047 2.260218 -0.068974
H 1.276957 2.798253 1.271867
H 2.268304 -2.398588 -1.887210
