35
calc_3ace63afce64566c; angstrom; first printed source-job orientation; unoptimized start
O -0.461607 -1.012093 1.916032
O 3.954576 -1.464773 0.887725
O 0.886277 -1.514398 -2.377013
N 0.098539 -1.465439 -0.235893
N 2.394699 -1.687084 -0.725800
C 1.694951 -1.943761 1.552305
C 0.367005 -1.391601 1.118696
C 2.799620 -1.646302 0.585423
C 1.111869 -1.550210 -1.189132
H 1.595587 -3.033087 1.619108
H 1.939722 -1.562094 2.543901
H 3.112163 -1.569417 -1.437891
P 0.998893 2.043147 -0.144122
O -1.158334 0.440408 -0.830914
O -4.279145 0.159354 0.416002
O -3.392984 -1.932221 -0.849111
O -0.366195 2.680517 0.414985
O 0.933142 1.868532 -1.697102
O 1.963923 3.293721 -0.024479
O 1.451517 0.841178 0.579059
C -2.931964 -0.090066 0.699858
C -2.084252 1.029608 0.072546
C -2.433285 -1.395740 0.009087
C -1.174327 -0.960045 -0.770108
C -1.301584 1.860282 1.090469
H -2.744330 -0.142402 1.774796
H -2.729300 1.690525 -0.519881
H -2.187761 -2.170611 0.737249
H -1.220510 -1.343865 -1.797291
H -0.771352 1.191636 1.773922
H -1.960614 2.533392 1.638716
H -4.847785 -0.367082 0.998120
H -3.996490 -1.218207 -1.127454
H 0.765611 2.675933 -2.199781
H 2.236431 3.543751 0.864366
