  13
        -28.71629744
 O          2.3700453295       -1.2381793855       -0.0701314356
 O         -2.3702032095       -1.2379245187       -0.0700364654
 O          0.0001586666        2.5974177122        0.0012670929
 N          1.1631111481        0.6545288579        0.0061241638
 N         -1.1630371225        0.6546603891        0.0059439144
 C         -0.0000757741       -1.4892159085        0.1206006432
 C          1.2814608749       -0.7130877760        0.0037155346
 C         -1.2815414865       -0.7129537163        0.0037081790
 C          0.0000759319        1.3871958406        0.0088995493
 H         -0.0001126190       -2.3004557876       -0.6133197050
 H         -0.0000896940       -1.9935191582        1.0942876916
 H          2.0255077527        1.1918519803       -0.0376008428
 H         -2.0253879142        1.1920601698       -0.0378478623
