13
barbituric_acid_Nlink  charge=0 mult=1  seed=1_b3lyp_pcm
O      2.37855000    -1.23381400    -0.00001400
O     -2.37854800    -1.23381700    -0.00001300
O     -0.00000100     2.62264400     0.00000100
N      1.17035000     0.67357100     0.00000300
N     -1.17035100     0.67357000    -0.00000000
C      0.00000100    -1.48190500     0.00002000
C      1.29021100    -0.69960800    -0.00000000
C     -1.29021100    -0.69960900    -0.00000100
C     -0.00000100     1.41097300     0.00000200
H      0.00000100    -2.13835900    -0.87106100
H      0.00000000    -2.13830300     0.87114200
H      2.02563900     1.21373000    -0.00000500
H     -2.02564000     1.21372800    -0.00000800
