  32
        -59.00980772
 O         -1.5021678763        0.0041721209        1.3986968785
 O         -2.0292303122        1.7759705639       -1.6606209932
 O         -4.0628672733        0.9193547625       -0.2143388816
 O         -1.5500581018       -2.4807815237       -0.4362571568
 N          0.3069249731        1.0728068142        0.4048992248
 N          2.3611695753        1.9551716101        0.4976148188
 N          0.9210992883       -1.2097213109       -0.2355193138
 N          3.2735740282       -1.4967132246       -0.4622594704
 N          4.8157930386        0.1833615870       -0.1303042463
 C         -1.7971723249        0.6631532683       -0.8621174833
 C         -1.1235621322        1.0053389794        0.4901312792
 C         -3.0743791450       -0.0631318379       -0.3995601061
 C         -2.6340201560       -0.7304436123        0.9141789671
 C         -2.2806046029       -2.2169491276        0.7321221284
 C          1.1738334917        0.0670279556        0.0807565359
 C          1.0904955889        2.1687477654        0.6445783854
 C          2.4568927977        0.6311465056        0.1433275655
 C          3.5469491189       -0.2162125987       -0.1494951283
 C          2.0208800183       -1.9036230839       -0.4860912319
 H         -1.1518589721       -0.0229295054       -1.4185749295
 H         -1.4721881868        1.9909127895        0.8383549444
 H         -3.3827731062       -0.8142542742       -1.1318991157
 H         -3.4141927944       -0.6420583700        1.6788433146
 H         -1.7349321062       -2.5459361810        1.6243167621
 H         -3.2055195908       -2.7919319364        0.6450115616
 H         -2.8875887661        2.1579211774       -1.4010107357
 H         -4.9360898293        0.5098658828       -0.1487759655
 H          0.6684863816        3.1138999917        0.9211809643
 H         -0.6570019941       -2.0721249621       -0.3566789543
 H          1.8659442876       -2.9416079187       -0.7469802026
 H          5.0269836400        1.1386159119        0.0999752027
 H          5.5386015534       -0.4790337494       -0.3543614670
