32
adenine_ribose  charge=0 mult=1  seed=1_b3lyp_pcm
O     -1.55709200     0.20138700    -1.17765200
O     -1.78200700    -2.14167200     1.54188800
O     -4.02974200    -1.19290700     0.33873100
O     -2.02320400     2.97835300    -1.15876800
N      0.38695100    -0.93750500    -0.52355900
N      2.44458300    -1.60447400    -1.14143700
N      1.01574200     0.98178400     0.87080200
N      3.39635400     1.28674200     0.96733400
N      4.90893500    -0.08352100    -0.13220300
C     -1.68230600    -0.88498000     0.92025600
C     -1.05841100    -0.93608400    -0.48922200
C     -3.04026500    -0.21117500     0.64686300
C     -2.72632000     0.74050900    -0.50821500
C     -2.42629600     2.16578000    -0.06348300
C      1.27410100    -0.06398800     0.07767000
C      1.16157100    -1.82446800    -1.24052500
C      2.53649800    -0.49857700    -0.31695500
C      3.63709500     0.23244300     0.16829300
C      2.12957400     1.59366700     1.26643900
H     -1.07604500    -0.24343700     1.55556100
H     -1.36757700    -1.85364400    -0.99667900
H     -3.40773600     0.31425200     1.52544300
H     -3.54218500     0.75537200    -1.23345700
H     -3.33268900     2.61343300     0.34240800
H     -1.65783000     2.16127600     0.71412400
H     -2.61426600    -2.53980600     1.24918200
H     -4.01847100    -1.40319400    -0.60143700
H      0.70497500    -2.61587400    -1.81294600
H     -1.22799500     2.58681200    -1.53725700
H      1.99745300     2.45228300     1.91429800
H      5.11780600    -0.85112700    -0.74479000
H      5.66152200     0.48242900     0.21865800
