34
calc_907a99946fc5539a; angstrom; atom order from source job; valid
O -2.498015 0.379073 2.459668
O -1.516075 -0.371917 -1.959744
O -4.709570 2.646220 -0.796349
N -1.964306 -0.078973 0.267915
N -3.608099 1.492638 0.833608
N -3.102998 1.136688 -1.381151
C -2.673381 0.582132 1.279569
C -2.144221 0.188044 -1.089956
C -3.877263 1.827272 -0.475614
H -4.136952 1.972856 1.547436
H -3.250358 1.337013 -2.360096
P 3.432615 1.466148 -0.007840
O 0.345782 -0.430023 0.406647
O 0.988805 -3.807051 -0.662804
O -1.041174 -3.394379 1.041530
O 3.299015 -0.111028 0.115361
O 2.592418 2.122355 1.167616
O 4.921854 1.718288 0.494314
O 3.055349 2.031804 -1.311563
C 0.441015 -2.510949 -0.677968
C 1.274528 -1.470281 0.092111
C -0.943765 -2.413466 0.010192
C -0.919625 -1.017413 0.675503
C 2.419811 -0.910410 -0.711514
H 0.345366 -2.206440 -1.717701
H 1.658823 -1.923939 1.013114
H -1.757541 -2.524845 -0.697662
H -1.056320 -1.152945 1.744764
H 3.025610 -1.729826 -1.092994
H 2.054075 -0.312709 -1.544328
H 0.720756 -4.218735 0.170827
H -1.674855 -4.069543 0.783241
H 2.736467 1.741157 2.042780
H 5.603840 1.326946 -0.065714
