31
calc_1a56152b6a2152e9; angstrom; atom order from source job; valid
O 1.173161 -0.688400 -1.123009
O 1.308804 2.261602 0.895826
O 3.351630 1.500185 -0.650175
O 2.084170 -2.122152 1.262222
O -1.371390 2.303980 -0.036544
O -4.831985 -0.601352 0.165085
N -0.863700 0.088202 -0.256413
N -3.045156 0.783569 0.184229
C 0.529676 0.434211 -0.573744
C 1.385006 0.872900 0.628817
C 2.796276 0.483320 0.176021
C 2.549643 -0.769490 -0.671694
C -1.267342 -1.279442 0.093293
C 2.796348 -2.090135 0.027602
C -2.681633 -1.542590 -0.404564
C -1.709725 1.117362 -0.044265
C -3.635189 -0.451054 0.009705
H 0.485947 1.249445 -1.299753
H 1.110727 0.286420 1.507350
H 3.456807 0.277457 1.019762
H 3.190538 -0.732529 -1.553555
H -1.212013 -1.417767 1.175565
H -0.563875 -1.961395 -0.367481
H 2.473085 -2.902217 -0.628901
H 3.872981 -2.192799 0.194375
H -3.057402 -2.490997 -0.028540
H -2.698967 -1.589259 -1.496616
H 0.414639 2.557701 0.651989
H 3.012059 2.342121 -0.315220
H -3.649711 1.562485 0.406504
H 2.233702 -2.972445 1.685550
