32
calc_81d6cb24819ff295; angstrom; atom order from source job; valid
O 1.130041 -0.155119 -1.232990
O 1.203963 1.641919 1.886589
O 3.233534 1.776463 0.198537
O 2.336094 -2.492037 0.158392
O -0.370491 -1.851505 0.572791
O -4.773661 -0.876597 0.252681
N -0.910558 0.278808 -0.136746
N -2.548442 -1.305500 0.399264
C 1.368270 0.549627 1.014360
C 0.503779 0.654413 -0.260141
C 2.776268 0.438013 0.403305
C 2.542461 -0.297448 -0.929063
C 2.898496 -1.774511 -0.928584
C -1.926877 1.174615 -0.482244
C -1.215015 -1.011047 0.293146
C -3.228488 0.824358 -0.361767
C -1.564829 2.537283 -0.990938
C -3.625641 -0.473136 0.107073
H 1.131977 -0.355717 1.561611
H 0.515220 1.694006 -0.571777
H 3.460190 -0.103231 1.053406
H 3.111316 0.201105 -1.716619
H 2.589919 -2.204532 -1.887228
H 3.981722 -1.875008 -0.851877
H 1.811635 2.334265 1.589605
H 4.194709 1.795451 0.205240
H -4.004561 1.523115 -0.625406
H -2.475486 3.072406 -1.241003
H -1.024287 3.117559 -0.243308
H -0.946470 2.480883 -1.886976
H -2.757576 -2.242292 0.717578
H 1.378312 -2.329160 0.180255
