36
calc_10299313568422d2; angstrom; atom order from source job; valid
P -3.569465 -1.421288 0.165784
O -0.959499 0.667596 0.710466
O 0.293005 3.467617 0.901550
O -1.019732 3.570574 -1.433722
O -3.656496 0.097956 -0.295311
O -5.074909 -1.918804 0.023318
O -3.390616 -1.438459 1.740587
O 4.821551 -2.700648 -0.848715
O -2.530678 -2.217829 -0.505675
N 1.224170 -0.044772 0.251514
N 1.801485 -2.016374 -0.643375
N 3.428055 0.841586 0.785091
N 5.123404 -0.656592 0.145368
C 0.551440 2.367283 0.042780
C -0.611610 2.311347 -0.961199
C 0.394860 1.039274 0.806444
C -1.688291 1.550910 -0.164358
C -2.615759 0.755535 -1.051736
C 2.592760 -0.104355 0.289394
C 0.805489 -1.230392 -0.310227
C 2.932395 -1.327174 -0.276384
C 4.315362 -1.684899 -0.385341
C 4.681282 0.508572 0.686734
H 1.523129 2.457872 -0.435636
H -0.310583 1.725060 -1.829633
H 0.672231 1.163195 1.852711
H -2.264388 2.251194 0.445130
H -2.065171 0.013792 -1.626758
H -3.126015 1.432425 -1.733991
H 1.116845 3.786420 1.282469
H -0.927412 4.195315 -0.701139
H -0.240631 -1.459603 -0.429753
H 5.448556 1.178734 1.048788
H 6.120286 -0.823263 0.112525
H -5.423011 -1.895466 -0.876797
H -4.030240 -0.913915 2.238505
