  38
        -73.29378095
 N          3.5298893799        0.5258984942       -0.6482422258
 N          2.8601016847       -1.3274945961        0.6526501556
 N          2.4406256342        2.5072522381       -0.5973395607
 N          0.9604280197       -1.3834899814        1.9059128550
 N          4.7835455432       -1.3919864501       -0.5927884443
 C          2.4385984461        1.1980607921       -0.2664286366
 C          1.7511715712       -0.6747446427        1.0049790813
 C          1.4257889026        0.5884010876        0.5128555035
 C          3.6757998541       -0.7212784091       -0.2098198921
 H          3.1575021209        2.7847423603       -1.2457927712
 H          1.6002133117        3.0583297754       -0.5482345918
 H          0.4180331600       -0.8110602428        2.5366815019
 H          1.4910705021       -2.1252118960        2.3450389465
 H          4.8054716343       -2.3803691168       -0.4165031779
 H          5.3074528935       -1.0097249451       -1.3593861642
 P         -1.5781267379       -1.7192697209       -0.6335484339
 O         -0.8647770504        0.3490632760        1.2409502967
 O         -2.7885216473        2.8733117693       -0.1889564144
 O         -0.2687451793        3.3647725100       -0.4538426962
 O         -2.9885182633       -1.0517760333       -0.2066586934
 O         -1.0422794900       -2.4695153990        0.6313797859
 O         -2.1332347634       -2.8576986610       -1.5722926711
 O         -0.6548096084       -0.8490643653       -1.3797182736
 C         -2.0390706357        1.6926541452       -0.3037992308
 C         -2.1425010134        0.8927440762        1.0019901458
 C         -0.5189599638        1.9871322765       -0.4350545844
 C          0.1162692364        1.2808236067        0.7965441255
 C         -3.1459862839       -0.2501975684        0.9472747370
 H         -2.3689591263        1.0732779051       -1.1397143989
 H         -2.4202085740        1.5866553117        1.8118560786
 H         -0.1284997019        1.5426346695       -1.3545372665
 H          0.2470457999        2.0520028341        1.5804811461
 H         -3.0165766893       -0.8699925088        1.8387597412
 H         -4.1632411558        0.1421128680        0.8965933525
 H         -3.1010222913        3.1584342598       -1.0590895232
 H         -1.0536422106        3.8174017918       -0.0860329787
 H         -0.2260586511       -2.0567936256        1.0926701894
 H         -2.6952698601       -3.5101310419       -1.1369158166
