38
tap_C5link_ribose_phosphate  charge=0 mult=1  seed=1_b3lyp_pcm
N      2.96057200    -2.22119700    -0.18691300
N      4.53266300    -0.45545300     0.10423700
N      0.70003200    -1.86691400    -0.21892800
N      3.87718100     1.72648600     0.40601900
N      5.22657200    -2.62605900    -0.22743900
C      1.94826200    -1.34665500    -0.04829500
C      3.51704000     0.41289400     0.23219700
C      2.16834600     0.01922300     0.21947600
C      4.19741500    -1.73449900    -0.08020300
H      0.63499400    -2.87108900    -0.20642200
H     -0.08262600    -1.34466400     0.14099600
H      3.25213900     2.43118200     0.04366900
H      4.85394500     1.91217700     0.24169100
H      6.13184800    -2.33283700     0.09795700
H      5.00424200    -3.60016600    -0.11356900
P     -3.86841500    -1.16696600    -0.06349300
O     -0.08615600     0.46608400     1.03801500
O     -0.98574800     3.60001000    -0.14255700
O      1.36071300     2.89124700    -1.15132800
O     -2.65220800    -0.15377400    -0.02311200
O     -5.07860400    -0.22512200    -0.48526600
O     -3.58032200    -1.97552900    -1.40012600
O     -4.08216700    -1.97696500     1.14770400
C     -0.89415500     2.19743100    -0.38286500
C     -1.12761800     1.43670700     0.93888600
C      0.55130600     1.78633200    -0.79460200
C      1.08971900     1.04141500     0.44902100
C     -2.46453800     0.75264600     1.08871300
H     -1.60980900     1.90354600    -1.14580300
H     -1.03730700     2.16185100     1.75592900
H      0.51829000     1.10702000    -1.64537800
H      1.47476000     1.80493600     1.13665500
H     -2.49897100     0.19044700     2.02057400
H     -3.26053200     1.49715600     1.08712200
H     -1.45289500     4.01977600    -0.87101000
H      0.92759900     3.67906600    -0.78799400
H     -5.94745400    -0.58812900    -0.27289200
H     -3.03985200    -2.76439000    -1.26856800
