29
calc_3c702ab51f529882; angstrom; atom order from source job; valid
O -1.803948 -1.259431 2.129245
O -0.374600 0.722738 -1.754995
O -4.772951 0.809651 -0.615169
N -1.004910 -0.317036 0.186636
N -3.279424 -0.242067 0.750542
N -2.565239 0.767044 -1.186819
C -2.010150 -0.651849 1.102736
C -1.247509 0.415108 -0.974788
C -3.635226 0.473352 -0.371662
H -4.019355 -0.484232 1.393806
H -2.757240 1.292731 -2.027581
O 1.077488 0.509844 0.883163
O 3.581725 -1.089295 -1.076113
O 1.704832 -2.601744 0.027653
O 3.054132 2.593172 1.374269
C 2.345191 -0.421489 -0.866492
C 2.423566 0.441679 0.395202
C 1.194587 -1.408311 -0.547063
C 0.374608 -0.674913 0.535058
C 2.929695 1.849792 0.165714
H 2.078983 0.183610 -1.729220
H 3.058588 -0.061039 1.133002
H 0.598417 -1.641367 -1.427665
H 0.285520 -1.329449 1.396340
H 2.268715 2.362150 -0.539457
H 3.926919 1.799983 -0.269922
H 3.735074 -1.190338 -2.020661
H 2.611925 -2.698988 -0.298062
H 2.177466 2.691660 1.760251
