37
calc_8562808cff7d009e; angstrom; atom order from source job; valid
P 3.396169 1.060096 0.043107
O 0.137237 -1.479962 1.055545
O -1.786520 -3.488341 -1.206807
O 0.508634 -4.482978 0.020903
O 2.349962 -0.056999 0.470742
O -4.153933 3.122162 -0.228121
O 3.461507 1.945146 1.345553
O 2.706641 1.986036 -1.003644
O 0.373601 3.066222 -0.492734
O 4.673621 0.520167 -0.450817
N -2.037569 -0.848622 0.552388
N -0.645659 1.097848 0.002847
N -4.040324 0.135457 0.454681
N -1.888376 3.018737 -0.360794
C -0.807350 -2.583970 -0.776259
C -1.098914 -1.954224 0.589272
C 0.583914 -3.189195 -0.540598
C 1.221331 -2.150454 0.379870
C 2.043919 -1.150713 -0.404069
C -1.822215 0.446675 0.220919
C -3.402406 -0.975170 0.674958
C -3.050289 1.049553 0.167774
C -3.142308 2.441467 -0.141481
C -0.658963 2.423757 -0.293626
H -0.735037 -1.793880 -1.523775
H -1.526332 -2.698755 1.266306
H 1.132161 -3.293393 -1.473810
H 1.839249 -2.624342 1.141478
H 1.488841 -0.772017 -1.265404
H 2.959425 -1.630754 -0.748156
H -1.689546 -4.298111 -0.693566
H 0.249848 -4.434616 0.945471
H -3.844460 -1.923391 0.932736
H 0.248429 0.645786 0.143731
H -1.879977 4.004287 -0.590280
H 3.916185 1.533649 2.089322
H 1.815859 2.362171 -0.760028
