29
calc_4823804aba3def82; angstrom; atom order from source job; valid
O -1.124043 0.400998 -1.069074
O -1.192612 -2.445582 1.113184
O -3.408072 -1.693150 -0.250318
O -2.078248 2.985766 -0.591546
O 0.573294 1.270522 1.224514
O 4.892659 0.365902 0.147168
N 0.947867 -0.423369 -0.289109
N 2.713567 0.775402 0.647877
C -1.281984 -1.082407 0.778515
C -2.705481 -0.628068 0.390417
C -0.475975 -0.710317 -0.483772
C -2.450939 0.581199 -0.508725
C -2.515972 1.912784 0.231640
C 1.350173 0.593007 0.576587
C 1.878799 -1.139487 -1.007389
C 3.205834 -0.940838 -0.913640
C 3.715714 0.080515 -0.032404
H -0.929710 -0.505700 1.627808
H -3.291940 -0.369893 1.269430
H -0.495678 -1.559131 -1.170112
H -3.151042 0.601914 -1.345609
H -3.552359 2.120091 0.496042
H -1.922336 1.866137 1.146546
H -1.868426 -2.910177 0.598842
H -3.259280 -1.676926 -1.202052
H 1.465896 -1.891066 -1.662770
H -1.162264 2.807426 -0.833362
H 3.013907 1.507992 1.277073
H 3.898373 -1.528873 -1.492004
