37
calc_00fe351981635926; angstrom; first printed source-job orientation; unoptimized start
P -3.550845 -3.126251 -0.995757
O 0.450012 -1.276240 -0.598124
O -0.500734 0.842839 2.116381
O -1.697776 -1.445547 1.844062
O -2.986159 -1.838249 -1.749319
O 4.680872 4.084152 -0.752098
O -2.799183 -4.318274 -1.722317
O -5.043448 -3.126326 -1.461987
O 2.142735 4.050927 2.998077
O -3.429751 -3.142207 0.472396
N 1.749689 0.583976 -0.159146
N 1.840987 2.307092 1.580897
N 3.276311 1.425894 -1.548568
N 3.389841 3.975893 1.104325
C -0.534370 0.347281 0.817846
C 0.787456 -0.342591 0.390821
C -1.559676 -0.785556 0.615774
C -0.912305 -1.672445 -0.465771
C -1.600530 -1.555871 -1.825839
C 2.201581 1.731624 0.405111
C 2.442605 0.457157 -1.339821
C 3.156102 2.254282 -0.462795
C 3.828948 3.478730 -0.125055
C 2.435065 3.481093 1.962539
H -0.738145 1.180550 0.137066
H 1.236383 -0.845489 1.265190
H -2.527025 -0.401124 0.274645
H -0.941186 -2.719149 -0.138168
H -1.120038 -2.241550 -2.527567
H -1.524642 -0.532978 -2.201987
H -0.853949 0.156633 2.713364
H -2.390233 -2.123436 1.748873
H 2.284109 -0.372879 -1.994827
H 1.074086 1.931450 2.143588
H 3.827240 4.842501 1.404039
H -2.844996 -5.173734 -1.280627
H -5.204719 -3.055038 -2.411920
