35
DFT refinement start; not an optimized result
N -0.143068 -1.510340 -0.057214
N -1.383812 -1.921784 -1.881763
N -3.545538 -1.485049 -0.872233
N -3.442131 -0.811620 1.410472
C -1.450154 -1.301766 0.305811
C -2.221526 -1.575813 -0.859547
C -2.121260 -0.902176 1.443874
C -0.188578 -1.843383 -1.377883
C -4.069855 -1.102182 0.276435
H -1.636412 -0.636176 2.372825
H 0.690239 -2.054671 -1.954347
H -5.146947 -1.013747 0.299126
P -0.420471 2.313377 -0.031730
O 1.233822 0.177207 0.847373
O 4.328721 -0.774162 -0.541366
O 3.165536 -2.074159 1.416183
O 1.109523 2.561204 -0.479091
O -1.021650 3.765003 -0.225752
O -0.492811 2.156970 1.523826
O -1.080196 1.241339 -0.792353
C 2.941671 -0.760220 -0.554166
C 2.325078 0.543357 0.008696
C 2.304471 -1.860721 0.333928
C 0.986997 -1.204891 0.794597
C 1.812998 1.489272 -1.074384
H 2.638898 -0.885196 -1.597852
H 3.050669 1.070791 0.638542
H 2.122933 -2.782428 -0.224376
H 0.711653 -1.510036 1.811486
H 1.132308 0.949323 -1.741180
H 2.640406 1.925271 -1.634674
H 4.629901 -1.033346 0.348343
H 2.996054 -2.928067 1.837886
H -1.178148 4.042632 -1.134116
H -0.190485 2.922007 2.031605
