35
DFT refinement start; not an optimized result
N -0.861508 -1.023800 0.072248
N -2.629292 -0.859743 -1.293629
N -4.106056 -2.320381 -0.043714
N -3.147733 -3.227206 1.937258
C -1.846243 -1.800500 0.627662
C -2.959393 -1.686783 -0.259348
C -1.994336 -2.606159 1.740321
C -1.401493 -0.496486 -1.061534
C -4.123207 -3.055067 1.052314
H -1.224300 -2.773842 2.481136
H -0.846098 0.171794 -1.688775
H -5.044338 -3.581789 1.256704
P 0.744324 2.561902 -0.991597
O 0.629857 0.539967 0.964140
O 3.845869 -0.738189 0.565349
O 2.046437 -2.479383 -0.183073
O 1.960585 2.880271 0.005646
O 0.756378 3.914877 -1.806784
O -0.620067 2.639520 -0.223310
O 0.919548 1.361680 -1.827274
C 2.706421 -0.119892 0.038858
C 2.024172 0.702721 1.149830
C 1.618070 -1.166895 -0.349576
C 0.445051 -0.813120 0.607465
C 2.341997 2.186380 1.177619
H 2.933872 0.517805 -0.815968
H 2.326016 0.264012 2.114327
H 1.297976 -1.032142 -1.384985
H 0.533579 -1.445828 1.506696
H 3.420426 2.330107 1.277112
H 1.823313 2.632153 2.030989
H 4.489682 -0.916268 -0.135742
H 2.794868 -2.473363 0.446825
H 1.409899 3.970177 -2.511065
H -0.886886 3.531230 0.034196
