35
DFT refinement start; not an optimized result
N -0.147409 -1.487534 -0.172826
N -1.670859 -2.058412 -1.713963
N -3.634650 -1.478786 -0.411582
N -3.154611 -0.682180 1.782401
C -1.372558 -1.235866 0.386153
C -2.325957 -1.593312 -0.610727
C -1.846140 -0.785888 1.602101
C -0.406981 -1.960456 -1.420519
C -3.960518 -1.015299 0.780031
H -1.209526 -0.509977 2.430088
H 0.367013 -2.277289 -2.090791
H -5.018918 -0.904032 0.969912
P -0.397312 2.172083 -0.375712
O 1.108406 0.178674 0.875158
O 3.924389 -0.990044 1.250305
O 2.811878 -2.633356 -0.567290
O 1.109128 2.706907 -0.149057
O -1.131112 3.519934 -0.771731
O -1.028980 1.897487 1.030950
O -0.497226 1.091253 -1.366978
C 3.318416 -0.335878 0.169889
C 2.369852 0.792619 0.604356
C 2.333950 -1.337463 -0.469437
C 1.107180 -1.172050 0.454351
C 2.186399 1.857414 -0.482297
H 4.057347 0.015551 -0.555554
H 2.686432 1.267994 1.538504
H 2.069036 -1.000855 -1.475355
H 1.216318 -1.815629 1.344579
H 1.971067 1.371242 -1.438122
H 3.066019 2.497142 -0.560345
H 4.697148 -0.497854 1.561776
H 3.351462 -2.827019 0.220056
H -1.021576 3.814074 -1.681743
H -1.081529 2.686414 1.587330
