32
calc_ac00febe62a28d25; angstrom; atom order from source job; valid
O -1.343069 0.307282 -1.062455
O -1.457947 -2.070823 1.638884
O -3.734676 -1.433348 0.211262
O -2.276164 3.017775 -1.067879
O 1.246130 -2.482204 -1.241565
O 4.643660 0.226426 0.063656
N 0.691718 -0.496283 -0.209323
N 2.902924 -1.084723 -0.563913
C -1.503539 -0.805572 1.015944
C -2.915511 -0.339491 0.617029
C -0.746387 -0.747304 -0.322399
C -2.636250 0.667855 -0.500135
C -2.598112 2.108028 -0.016710
C 1.136100 0.683199 0.351705
C 1.580797 -1.427699 -0.710536
C 2.436101 1.012280 0.486649
C 3.421718 0.069398 0.004841
C 2.892778 2.296656 1.103949
H -1.078821 -0.089525 1.717418
H -3.430885 0.117698 1.457789
H -0.846492 -1.692739 -0.849831
H -3.374230 0.570739 -1.297066
H -3.589023 2.384015 0.341624
H -1.889027 2.213538 0.808734
H -2.105239 -2.637717 1.195992
H -3.473113 -1.736145 -0.666900
H 0.355382 1.354456 0.675726
H 3.568630 -1.760617 -0.919183
H -1.376686 2.831255 -1.361621
H 3.514879 2.109845 1.980883
H 3.492980 2.878242 0.402334
H 2.039508 2.899027 1.409504
