32
calc_ac00febe62a28d25; angstrom; first printed source-job orientation; unoptimized start
O 1.673480 0.558640 0.017250
O -1.966220 0.664580 0.060790
O -0.597830 -1.435040 0.966130
O 3.314710 -0.809490 -1.805620
O -0.370540 3.447810 1.776660
O -0.076880 6.305720 -1.685000
N 0.547360 2.647200 -0.197130
N -0.007360 4.895210 0.092000
C -0.662100 0.480680 -0.472500
C -0.170100 -0.946200 -0.319000
C 0.439350 1.264380 0.261600
C 1.349650 -0.793490 -0.402670
C 1.897120 -0.969720 -1.820180
C 0.925460 2.919330 -1.497020
C 0.037610 3.639280 0.631910
C 0.754320 4.121410 -2.061420
C 0.194200 5.204250 -1.222780
C 1.024670 4.416990 -3.498710
H -0.691480 0.743570 -1.535880
H -0.589780 -1.621210 -1.068860
H 0.264490 1.239480 1.343810
H 1.869750 -1.472630 0.281630
H 1.670830 -1.965500 -2.213570
H 1.493860 -0.220670 -2.506760
H -2.069980 -0.000010 0.772910
H 0.093470 -1.256300 1.628290
H 1.317380 2.091070 -2.077270
H -0.424770 5.611920 0.664730
H 3.503890 -0.045560 -1.225480
H 0.088710 4.652990 -4.016760
H 1.706600 5.265530 -3.602620
H 1.475730 3.559420 -4.010180
