36
DFT refinement start; not an optimized result
P -0.467570 2.148220 -0.174700
O 1.126643 -0.393312 1.379679
O 2.811798 -2.916950 0.187304
O 4.025338 -0.713651 -0.538523
O 1.066390 1.882546 -0.498684
O -0.109722 -0.390772 -1.521272
O -4.331954 -0.441744 -0.212796
O -1.105043 2.245510 -1.602172
O -0.391886 3.645778 0.382614
O -1.206953 1.267181 0.739400
N -0.515444 -1.691488 0.303367
N -2.255177 -0.856988 -0.980932
C 0.844898 -1.650419 0.798301
C 1.925821 -1.935226 -0.268663
C 2.633892 -0.571618 -0.465126
C 2.272482 0.212460 0.807976
C 2.008486 1.694881 0.547032
C -1.558195 -2.317394 1.108255
C -0.884228 -0.929694 -0.743027
C -2.709086 -1.348253 1.328849
C -3.205330 -0.838891 0.006751
H 0.920122 -2.420855 1.576206
H 1.456576 -2.283961 -1.193802
H 2.212204 -0.063497 -1.334317
H 3.107403 0.134018 1.520369
H 2.930748 2.176434 0.215941
H 1.644903 2.157184 1.466443
H -1.126021 -2.614719 2.061719
H -1.912880 -3.208293 0.579368
H -2.357387 -0.468011 1.874531
H -3.526365 -1.807045 1.881544
H 3.696733 -2.508414 0.264195
H 4.300244 -0.851862 -1.456580
H -2.496436 -0.368501 -1.837890
H -0.611949 2.774180 -2.242679
H -1.116564 3.895469 0.964579
