36
DFT refinement start; not an optimized result
P -0.297514 2.404959 0.143204
O 1.190691 0.163788 0.857026
O 2.656295 -2.723918 1.036278
O 4.007208 -1.156182 -0.541280
O 1.171758 2.498419 -0.506048
O -0.086733 -1.177628 -1.728171
O -4.456178 -1.269345 -0.674585
O -0.771742 3.910204 -0.022897
O -0.194517 2.300200 1.701891
O -1.177483 1.404572 -0.481125
N -0.583258 -1.373696 0.488671
N -2.254524 -1.212513 -1.130943
C 0.787743 -1.188297 0.924359
C 1.829412 -2.027490 0.151433
C 2.624700 -0.988326 -0.688082
C 2.220069 0.372449 -0.095538
C 1.713144 1.359493 -1.145167
C -1.610051 -1.104908 1.491168
C -0.902012 -1.219394 -0.817525
C -2.909668 -1.791729 1.104781
C -3.310083 -1.384465 -0.286307
H 0.814227 -1.484644 1.980126
H 1.325298 -2.756978 -0.486978
H 2.310943 -1.043258 -1.732227
H 3.074348 0.810428 0.437282
H 0.936861 0.872402 -1.742431
H 2.526601 1.715050 -1.777521
H -1.753457 -0.020894 1.570967
H -1.252207 -1.487783 2.446578
H -3.708247 -1.539449 1.800008
H -2.779190 -2.876792 1.102298
H 3.520602 -2.269551 1.065205
H 4.337575 -1.805018 -1.180546
H -2.460410 -0.974241 -2.095348
H -1.017650 4.179529 -0.913025
H 0.287698 3.017995 2.131510
