36
DFT refinement start; not an optimized result
P -0.038434 2.887541 0.090667
O 0.955936 0.227471 0.533809
O 1.984941 -2.847716 -1.028025
O 3.727032 -1.351206 0.330922
O 1.561728 2.899703 -0.107748
O -0.737163 -2.821633 1.863127
O -4.588478 -2.144491 -0.337417
O -0.374613 4.415595 0.124871
O -0.311889 2.465151 1.593500
O -0.762423 2.158025 -0.958137
N -0.625781 -1.444320 0.055972
N -2.582066 -2.582194 0.578806
C 0.759677 -1.158421 0.284993
C 1.700669 -1.496620 -0.894058
C 2.920529 -0.617001 -0.551423
C 2.272751 0.608444 0.124964
C 2.162720 1.823078 -0.796381
C -1.281147 -0.957303 -1.149542
C -1.256383 -2.297036 0.888840
C -2.751570 -0.676051 -0.880842
C -3.415240 -1.851150 -0.221179
H 1.058855 -1.740753 1.170402
H 1.250068 -1.165956 -1.832554
H 3.470958 -0.331330 -1.451629
H 2.831356 0.889407 1.026233
H 1.551412 1.569208 -1.667019
H 3.148749 2.173315 -1.103389
H -1.175133 -1.702291 -1.945885
H -0.800625 -0.023340 -1.441292
H -3.272144 -0.433476 -1.805507
H -2.847976 0.185029 -0.214293
H 2.642396 -3.092886 -0.354197
H 4.617412 -0.976437 0.375568
H -3.000496 -3.321435 1.135182
H 0.064247 4.929731 0.814283
H -0.128314 1.536579 1.771104
