32
calc_f5f4967adadc2db8; angstrom; atom order from source job; valid
O -1.297399 0.716671 -1.179544
O -1.954569 -2.226753 0.702943
O -3.842359 -0.881913 -0.589765
O -1.447462 2.109572 1.379349
O 0.714389 -2.625679 0.042637
O 4.586821 -0.262933 0.338019
N 0.624426 -0.372159 -0.353803
N 2.631131 -1.401270 0.157882
C -1.699390 -0.846079 0.555316
C -3.004281 -0.100595 0.252387
C -0.827474 -0.497748 -0.673326
C -2.530810 1.125174 -0.527337
C -2.318132 2.385655 0.285199
C 1.287832 0.831366 -0.410572
C 1.284147 -1.537645 -0.047029
C 2.613333 0.966706 -0.188953
C 3.381847 -0.223411 0.118798
C 3.319059 2.286965 -0.252068
H -1.240989 -0.425391 1.451274
H -3.533458 0.177042 1.165535
H -0.903642 -1.284576 -1.426019
H -3.248205 1.350449 -1.315982
H -1.894422 3.155723 -0.364558
H -3.293760 2.734375 0.637191
H -1.111012 -2.685799 0.549318
H -3.693580 -1.807463 -0.351699
H 0.657191 1.670157 -0.652573
H 3.128342 -2.251358 0.387626
H -1.292920 2.922832 1.868737
H 3.792660 2.524067 0.701738
H 4.108842 2.272930 -1.004493
H 2.623888 3.086962 -0.498234
