32
calc_f5f4967adadc2db8; angstrom; first printed source-job orientation; unoptimized start
O -1.392094 -0.844704 1.246899
O -2.288098 2.132382 -0.280803
O -4.047087 0.269882 0.317954
O -0.769074 -1.686046 -1.527387
O 0.456253 2.544607 -0.080094
O 4.391687 0.357374 -0.512071
N 0.504571 0.340703 0.487817
N 2.403979 1.405906 -0.278190
C -1.778666 0.839526 -0.392215
C -2.934204 -0.179710 -0.403083
C -0.928374 0.393699 0.829159
C -2.317087 -1.391235 0.304063
C -1.654263 -2.373972 -0.666166
C 1.233601 -0.801434 0.643649
C 1.078780 1.495146 0.035534
C 2.543898 -0.890558 0.335069
C 3.216926 0.284473 -0.181262
C 3.342889 -2.141229 0.507180
H -1.180233 0.718216 -1.304154
H -3.226696 -0.422484 -1.432407
H -1.039427 1.118745 1.648896
H -3.075020 -1.916127 0.890456
H -1.113256 -3.127116 -0.080756
H -2.450652 -2.864672 -1.236009
H -1.538673 2.753229 -0.267830
H -4.097222 1.235677 0.222491
H 0.675392 -1.631357 1.047961
H 2.839490 2.257283 -0.621833
H -0.459800 -2.298894 -2.209194
H 3.752907 -2.449705 -0.452400
H 4.186097 -1.948998 1.167707
H 2.730710 -2.936227 0.918015
