32
calc_ea171598c8f74aae; angstrom; atom order from source job; valid
O -1.304803 0.119857 -1.269295
O -1.259194 -1.826298 1.732618
O -3.211884 -2.047761 -0.032370
O -2.632239 2.229172 0.329762
O 0.110058 1.871685 0.607576
O 4.529514 1.016853 0.328408
N 0.731372 -0.203915 -0.160483
N 2.302319 1.380145 0.441013
C -1.512335 -0.722543 0.915662
C -2.907582 -0.701456 0.286612
C -0.632793 -0.683461 -0.343962
C -2.711550 0.159574 -0.967912
C -3.148820 1.604316 -0.821323
C 1.776869 -1.045676 -0.484334
C 0.976447 1.064690 0.312275
C 3.073589 -0.733027 -0.353473
C 3.403840 0.586222 0.153722
C 4.183528 -1.668782 -0.707927
H -1.362984 0.177913 1.504024
H -3.654942 -0.280375 0.957386
H -0.529858 -1.705777 -0.717937
H -3.252170 -0.289807 -1.803377
H -2.862837 2.144447 -1.730053
H -4.236513 1.632071 -0.744923
H -1.761186 -2.566443 1.374418
H -4.154465 -2.144263 -0.169485
H 1.470994 -2.010901 -0.861345
H 2.489738 2.309433 0.788929
H -1.666180 2.151801 0.321943
H 4.810348 -1.871259 0.160938
H 3.790356 -2.613064 -1.078744
H 4.825091 -1.234603 -1.475123
