31
calc_2307812a37c1a853; angstrom; atom order from source job; valid
O -1.178471 0.206833 -1.246996
O -1.132328 -1.638732 1.850357
O -3.204832 -1.759451 0.173440
O -2.218742 2.416765 0.362688
O 1.689565 -2.161809 -1.140879
O 4.770834 0.763200 0.371949
N 0.875492 -0.224629 -0.202752
N 3.165501 -0.560781 -0.512774
C -0.503121 -0.639061 -0.319185
C -1.328916 -0.550759 0.977652
C -2.755907 -0.427303 0.431587
C -2.561881 0.377388 -0.865855
C 1.186468 1.182632 0.082348
C -2.896228 1.851859 -0.759079
C 2.471051 1.290089 0.888533
C 1.858969 -1.053665 -0.652756
C 3.586928 0.511170 0.242482
H -0.488473 -1.669534 -0.671264
H -1.078306 0.357452 1.520380
H -3.425441 0.070862 1.129865
H -3.189477 -0.051884 -1.649613
H 0.353463 1.618190 0.623703
H 1.280761 1.733076 -0.856075
H -2.596830 2.350104 -1.684888
H -3.980296 1.953176 -0.649944
H 2.330329 0.884434 1.893787
H 2.784200 2.326191 0.991949
H -1.713810 -2.350340 1.549082
H -4.165988 -1.781609 0.172289
H 3.881205 -1.163998 -0.894181
H -2.430674 3.353211 0.414746
