35
calc_2a5469107ea1af99; angstrom; atom order from source job; valid
O -3.820334 1.582419 -1.203353
O -5.271514 -2.691320 0.182685
O -1.002549 -1.392336 0.825956
N -2.378712 0.177256 -0.121752
N -3.149199 -1.983424 0.489721
C -4.779775 -0.424716 -0.402748
C -3.636908 0.533162 -0.628504
C -4.453458 -1.799693 0.101734
C -2.101955 -1.079085 0.426849
H -5.343489 -0.509220 -1.330090
H -5.453152 0.043141 0.320197
H -2.897947 -2.889551 0.863709
P 4.310846 -0.949738 -0.115507
O -0.325819 0.631107 -1.200847
O 0.707113 3.307064 -0.003203
O -1.146764 2.541466 1.739214
O 3.180871 0.129879 -0.372353
O 5.626906 -0.059951 -0.123995
O 4.126256 -1.273050 1.430765
O 4.313659 -2.116052 -1.014638
C 0.846770 1.947213 0.402944
C 1.004863 1.008200 -0.799356
C -0.511901 1.531757 0.993025
C -1.281884 1.139917 -0.284802
C 1.795989 -0.262128 -0.516971
H 1.659459 1.841122 1.119344
H 1.476409 1.542351 -1.625075
H -0.385458 0.672839 1.642143
H -1.757609 2.026818 -0.695075
H 1.696561 -0.947638 -1.356533
H 1.453819 -0.755734 0.390297
H 1.572113 3.725034 -0.044282
H -0.904912 3.387664 1.337353
H 6.026963 0.034327 -0.997375
H 4.496880 -2.123461 1.697343
