35
calc_dd1d3c434cc385e2; angstrom; atom order from source job; valid
P -2.531235 -1.671684 -0.105638
O 0.046471 1.204748 1.388896
O -2.169756 2.790440 -0.878081
O 0.315022 3.685286 -0.681305
O -1.862432 -0.826866 1.065467
O 0.552889 -0.570337 -1.040950
O -3.288331 -2.895635 0.581533
O -1.294069 -2.352729 -0.796356
O -3.470621 -0.909269 -0.948613
N 2.004305 0.663485 0.200477
N 2.601088 -1.470741 -0.646986
N 4.675820 -2.346498 -0.261715
C -1.218911 1.794166 -0.521304
C 0.235814 2.268110 -0.745927
C -1.281392 1.552260 0.991054
C 1.001902 1.702996 0.466567
C -2.255677 0.493867 1.474951
C 3.242700 0.789950 0.758119
C 1.684265 -0.498160 -0.525267
C 4.181206 -0.171473 0.628773
C 3.808788 -1.338681 -0.102113
H -1.398128 0.882281 -1.077568
H 0.644567 1.908588 -1.688243
H -1.580414 2.493529 1.467803
H 1.554244 2.525451 0.919051
H -3.252685 0.731385 1.106436
H -2.275208 0.477701 2.562474
H -2.517345 2.599078 -1.754726
H -0.557365 4.021254 -0.935125
H 3.425601 1.701883 1.305921
H 5.158280 -0.057866 1.069311
H 5.603370 -2.309605 0.121474
H 4.399292 -3.162999 -0.779917
H -2.717249 -3.491566 1.081486
H -0.512456 -1.730894 -0.930065
