35
calc_dd1d3c434cc385e2; angstrom; first printed source-job orientation; unoptimized start
P 0.510280 2.771711 -0.965021
O 0.723655 -0.402659 1.695619
O 3.296241 -0.067252 -0.755358
O 2.650098 -2.492768 0.117977
O 0.363590 2.220374 0.541731
O -0.846866 -0.302650 -0.851766
O 0.185811 4.310445 -0.876907
O -0.740389 2.195128 -1.715350
O 1.847617 2.550851 -1.544565
N -0.774175 -1.923695 0.755151
N -2.776199 -1.336098 -0.350769
N -4.739833 -2.380890 0.121793
C 1.983681 -0.178594 -0.285825
C 1.564882 -1.654818 -0.160616
C 1.803410 0.340747 1.151370
C 0.616917 -1.657450 1.055574
C 1.518561 1.835999 1.262440
C -1.443815 -2.856459 1.478012
C -1.475244 -1.137940 -0.189771
C -2.765107 -3.075069 1.302808
C -3.438743 -2.255463 0.345803
H 1.276406 0.322625 -0.946055
H 1.044436 -1.995243 -1.065315
H 2.720742 0.121530 1.720142
H 0.960061 -2.446053 1.741787
H 2.388725 2.383492 0.892972
H 1.318321 2.086347 2.305780
H 3.376587 0.763482 -1.246202
H 3.434023 -2.121084 -0.322793
H -0.855105 -3.414019 2.190930
H -3.290162 -3.822875 1.868430
H -5.285268 -3.060508 0.624057
H -5.170953 -1.776707 -0.558227
H -0.700767 4.528771 -0.562216
H -0.934684 1.248370 -1.529195
