30
calc_39dd26d104c70154; angstrom; first printed source-job orientation; unoptimized start
O -1.287625 -0.661533 1.314391
O -1.616089 2.219894 -0.653663
O -3.660075 0.945718 0.334004
O -1.113367 -1.931008 -1.407775
O 4.647884 -0.506089 -0.298629
N 0.753666 0.141713 0.428682
N 2.889155 0.920229 -0.200835
N 1.173562 2.393647 -0.068149
C -1.454895 0.842375 -0.525568
C -2.784903 0.085191 -0.347357
C -0.649377 0.438268 0.743736
C -2.362240 -1.126470 0.495932
C -1.978037 -2.334956 -0.367055
C 1.622110 1.133446 0.031400
C 1.258944 -1.115377 0.588435
C 2.552030 -1.389516 0.349645
C 3.445565 -0.319632 -0.069278
H -0.930079 0.473409 -1.411673
H -3.194047 -0.222801 -1.313209
H -0.648129 1.259491 1.476038
H -3.147632 -1.432295 1.192643
H -1.494966 -3.079358 0.277447
H -2.900796 -2.763530 -0.776327
H -2.425656 2.478266 -0.175479
H -4.562922 0.602432 0.311784
H 0.552776 -1.852206 0.934954
H -0.922301 -2.690400 -1.975106
H 2.959904 -2.377854 0.472690
H 1.852924 3.046220 -0.425311
H 0.195673 2.597714 -0.234246
