26
calc_d576f5e9e4317b8f; angstrom; atom order from source job; valid
N 1.569185 -0.204621 -0.248748
N 3.290452 0.970928 0.505964
C 2.708591 -0.867966 -0.653084
C 1.979034 0.896512 0.444227
C 3.756020 -0.133531 -0.176174
H 2.663102 -1.777142 -1.224911
H 1.279255 1.604285 0.855804
H 4.808570 -0.332677 -0.284405
O -0.458313 0.422047 -1.236180
O -2.718883 -1.671528 -0.281751
O -0.529873 -2.169750 1.249094
O -1.286262 2.189454 0.922399
C -2.071225 -0.515130 0.252022
C -1.823331 0.587772 -0.784574
C -0.654484 -0.866348 0.735867
C 0.203898 -0.606877 -0.520965
C -2.035575 2.000518 -0.275923
H -2.698911 -0.174365 1.070530
H -2.482959 0.446732 -1.643952
H -0.361141 -0.168758 1.517220
H 0.269674 -1.517356 -1.121557
H -1.716070 2.703345 -1.049530
H -3.104726 2.146815 -0.096865
H -2.493990 -1.790137 -1.210950
H -1.177991 -2.719892 0.786504
H -1.433187 3.083517 1.244722
