26
calc_d576f5e9e4317b8f; angstrom; first printed source-job orientation; unoptimized start
N 1.403777 0.121531 0.222348
N 3.122757 -1.244893 0.008703
C 2.249978 0.689625 -0.688877
C 1.980487 -1.037463 0.608117
C 3.302601 -0.169439 -0.806964
H 2.032872 1.628961 -1.152349
H 1.540205 -1.689012 1.334297
H 4.175818 -0.086546 -1.421697
O -0.561385 -0.226702 1.457993
O -2.957800 1.344862 0.470316
O -0.852487 2.486110 -0.666040
O -0.593449 -1.706759 -1.202039
C -2.106679 0.433575 -0.170953
C -1.680531 -0.731732 0.727206
C -0.754346 1.103825 -0.517132
C 0.154682 0.689820 0.676552
C -1.365939 -2.009252 -0.060917
H -2.629419 0.100363 -1.067370
H -2.441878 -0.971439 1.474488
H -0.347483 0.674490 -1.438038
H 0.384766 1.568538 1.298940
H -0.826857 -2.696071 0.603152
H -2.320731 -2.463408 -0.351926
H -2.678229 1.465338 1.390768
H -1.733442 2.761250 -0.346333
H -0.458483 -2.515689 -1.714694
