30
calc_7962b097f9b3988b; angstrom; atom order from source job; valid
O 1.659882 -0.879545 -0.975811
O 0.668314 2.341660 0.247144
O 3.075992 1.890887 -0.851332
O 2.438014 -1.427114 1.791043
N -0.607040 -0.567204 -0.554554
N -2.178182 -2.182714 -0.508572
N -1.985922 1.311560 0.149756
N -4.257804 0.686506 0.563380
C 1.136361 1.016093 0.325487
C 0.671192 0.102280 -0.826193
C 2.656190 0.970847 0.150122
C 2.905390 -0.451495 -0.357667
C 3.339879 -1.456578 0.687923
C -1.770851 0.037884 -0.162556
C -0.925193 -1.892683 -0.752704
C -2.743383 -0.979132 -0.133722
C -4.017125 -0.591482 0.250147
C -3.249538 1.563447 0.500944
H 0.874400 0.546838 1.275642
H 0.552145 0.685082 -1.744382
H 3.175921 1.164786 1.089467
H 3.668044 -0.423945 -1.136439
H 3.364404 -2.449275 0.231192
H 4.355182 -1.200503 1.005584
H -0.308575 2.305056 0.257669
H 2.547683 2.692468 -0.743325
H -0.173848 -2.592604 -1.074373
H 2.714061 -2.084568 2.436230
H -4.842992 -1.290091 0.308961
H -3.478944 2.587525 0.764659
