30
calc_7962b097f9b3988b; angstrom; first printed source-job orientation; unoptimized start
O -1.803764 -0.428944 1.354403
O -0.893745 2.472022 -0.359803
O -3.416253 1.852029 0.199123
O -1.542870 -1.637372 -1.329337
N 0.457844 -0.383900 0.754348
N 1.883439 -2.110718 0.757878
N 1.869990 1.262291 -0.343713
N 4.018937 0.397868 -0.892165
C -1.158741 1.104736 -0.360169
C -0.751104 0.391462 0.956308
C -2.675159 0.844475 -0.429503
C -2.821991 -0.466767 0.352380
C -2.706980 -1.713147 -0.530417
C 1.593705 0.063565 0.157446
C 0.700598 -1.685704 1.082851
C 2.496609 -1.034844 0.166294
C 3.743131 -0.799381 -0.393644
C 3.093514 1.345415 -0.845466
H -0.672927 0.595661 -1.201022
H -0.556696 1.132670 1.746856
H -3.002912 0.726172 -1.470198
H -3.776121 -0.487443 0.884722
H -2.665184 -2.591127 0.125253
H -3.604980 -1.768288 -1.155318
H 0.065859 2.605243 -0.432601
H -2.971348 2.700443 0.036012
H -0.043324 -2.280574 1.573559
H -1.532610 -2.390648 -1.936837
H 4.521437 -1.545969 -0.449981
H 3.369343 2.300660 -1.267913
