29
calc_1cd6706f093acea4; angstrom; atom order from source job; valid
O -1.186543 0.259056 -1.301418
O -2.048161 -2.415417 0.025546
O -3.294733 -0.565257 1.514173
O -1.802713 2.663426 0.147640
O 1.787376 -2.357907 -0.473799
O 4.620743 1.031540 0.622328
N 0.916993 -0.242643 -0.353106
N 3.173839 -0.627699 0.055671
C -1.209601 -1.347824 0.445159
C -2.136369 -0.179825 0.812399
C -0.414265 -0.775696 -0.745998
C -2.412528 0.452269 -0.561947
C -2.788621 1.915413 -0.561521
C 1.950516 -1.164368 -0.272652
C 1.124429 1.087598 -0.092804
C 2.332994 1.583967 0.242493
C 3.473685 0.708967 0.334111
H -0.561084 -1.655562 1.262726
H -1.601191 0.530654 1.439472
H -0.224766 -1.550598 -1.484169
H -3.216526 -0.100731 -1.056338
H -2.871860 2.265338 -1.593423
H -3.769892 2.011592 -0.087912
H -1.571515 -3.248553 0.089084
H -3.570966 -1.422492 1.162666
H 0.248933 1.713687 -0.180469
H -2.026768 3.597417 0.102532
H 3.935887 -1.289530 0.116196
H 2.464731 2.634633 0.440475
