29
calc_1cd6706f093acea4; angstrom; first printed source-job orientation; unoptimized start
O -1.224252 0.565832 -1.284346
O -2.364382 -2.095047 -0.113717
O -3.364585 -0.223788 1.489596
O -1.339437 2.826476 0.510786
O 1.340005 -2.469411 -0.801161
O 4.621208 0.290957 0.650720
N 0.793322 -0.294493 -0.418182
N 2.957455 -1.052543 -0.084972
C -1.412150 -1.169463 0.328814
C -2.174086 0.072287 0.836161
C -0.582538 -0.585167 -0.838078
C -2.352980 0.881170 -0.464921
C -2.448984 2.387840 -0.241670
C 1.679816 -1.347445 -0.460055
C 1.175411 0.941193 0.005265
C 2.440194 1.210590 0.382627
C 3.443244 0.177943 0.345884
H -0.759452 -1.602227 1.094531
H -1.554505 0.642966 1.534337
H -0.502941 -1.311218 -1.659292
H -3.262303 0.543314 -0.980288
H -2.470491 2.880496 -1.220520
H -3.385626 2.581291 0.293309
H -1.943291 -2.939604 -0.323337
H -3.783689 -0.974874 1.036169
H 0.394040 1.688118 0.013597
H -1.435261 3.770078 0.698481
H 3.621179 -1.821094 -0.120531
H 2.733448 2.189550 0.715511
