33
calc_fd81a1b48fd5ec81; angstrom; atom order from source job; valid
O -1.613740 -0.073802 -1.356029
O -2.157600 -1.674396 1.827365
O -4.194377 -0.890258 0.247669
O -1.412527 2.506729 0.188213
O 4.706926 -0.893330 0.007819
N 0.145745 -1.269602 -0.373618
N 2.069740 -2.423398 -0.464940
N 1.018342 0.962175 0.101908
N 3.371277 0.942309 0.267319
N 2.178205 2.901405 0.587534
C -1.929231 -0.618602 0.918444
C -1.292836 -1.074784 -0.408213
C -3.187987 0.106453 0.432274
C -2.742180 0.726675 -0.898519
C -2.339469 2.189985 -0.844306
C 1.148719 -0.361320 -0.127804
C 0.771459 -2.484260 -0.570978
C 2.327761 -1.092924 -0.187498
C 3.562073 -0.423707 0.020850
C 2.164703 1.586497 0.303380
H -1.274831 0.092686 1.414114
H -1.712906 -2.039365 -0.700415
H -3.528311 0.860849 1.139723
H -3.541837 0.624375 -1.634256
H -1.941794 2.474313 -1.823351
H -3.234676 2.785382 -0.662116
H -2.923573 -2.174873 1.515429
H -5.025969 -0.452830 0.033516
H 0.196465 -3.369101 -0.787356
H -0.598888 1.971010 0.077413
H 4.213936 1.480885 0.430363
H 1.319317 3.415114 0.473489
H 3.042369 3.417710 0.549946
