33
calc_fd81a1b48fd5ec81; angstrom; first printed source-job orientation; unoptimized start
O -1.590697 -0.094759 -1.355690
O -2.175527 -1.636233 1.842060
O -4.179579 -0.883712 0.265246
O -1.404006 2.482764 0.121756
O 4.715342 -0.854073 -0.013337
N 0.149602 -1.287025 -0.354290
N 2.082334 -2.421581 -0.474259
N 1.002306 0.947859 0.131807
N 3.353449 0.957296 0.274241
N 2.131289 2.900149 0.629890
C -1.921971 -0.601207 0.925562
C -1.286112 -1.083784 -0.395772
C -3.176783 0.122000 0.417502
C -2.729673 0.701850 -0.933609
C -2.325186 2.167952 -0.909344
C 1.148231 -0.373410 -0.113484
C 0.785067 -2.496074 -0.569162
C 2.333253 -1.093938 -0.189460
C 3.571427 -0.414125 0.012622
C 2.139922 1.584935 0.329798
H -1.260131 0.114772 1.406177
H -1.715520 -2.050748 -0.671145
H -3.510615 0.896082 1.105933
H -3.524744 0.567695 -1.669551
H -1.923352 2.430615 -1.893447
H -3.215762 2.774948 -0.741529
H -3.034681 -2.016038 1.610499
H -5.050864 -0.476714 0.264692
H 0.217927 -3.385778 -0.788128
H -0.599416 1.932564 0.022915
H 4.194021 1.495566 0.433068
H 1.261626 3.397925 0.540469
H 2.975338 3.445127 0.600143
