37
calc_26b88aaeca25a46b; angstrom; first printed source-job orientation; unoptimized start
N 2.814052 0.863783 -0.257934
N 1.272330 2.320287 0.800292
N 3.485998 3.054847 0.364516
N 0.699608 0.158842 0.244245
N 4.928850 1.625618 -0.687581
N 1.962409 4.433215 1.365319
C 1.618652 1.144406 0.255060
C 3.712726 1.855190 -0.183328
C 2.253509 3.238822 0.836720
H 0.858568 -0.656842 -0.336441
H 5.119640 0.731883 -1.101611
H 5.621207 2.350364 -0.636361
H 1.068292 4.580932 1.796599
H 2.699793 5.109169 1.449625
P -0.739193 -3.186085 -0.785740
O -1.321912 -0.878093 0.757551
O -3.552399 1.202010 1.222584
O -1.430408 2.648851 0.511504
O -2.277143 -2.786676 -1.050996
O -0.649726 -4.586150 -1.480395
O -0.610615 -3.580848 0.739929
O 0.234748 -2.224304 -1.327070
C -2.889103 0.774682 0.067398
C -2.610668 -0.729708 0.159076
C -1.471566 1.364509 -0.029839
C -0.624249 0.347181 0.769240
C -2.613043 -1.424278 -1.203743
H -3.486133 1.015259 -0.821939
H -3.331605 -1.214328 0.824784
H -1.134001 1.363212 -1.077337
H -0.537250 0.702646 1.810152
H -3.606204 -1.402124 -1.652646
H -1.879064 -0.946270 -1.859288
H -3.308361 2.130849 1.380461
H -0.480862 2.834810 0.700397
H -1.247000 -5.263052 -1.137325
H -0.588264 -2.837644 1.352232
