  13
        -23.98654241
 O          2.3012408705       -0.9759446067        0.0000647552
 N          0.0374811143       -0.9334156965       -0.0000136415
 N         -1.2126978440        1.0495583294       -0.0000007756
 N         -2.2808230997       -0.9714733159       -0.0000221905
 C         -1.1509894425       -0.2652694016       -0.0000385709
 C          1.2727077485       -0.2942502484       -0.0000430728
 C          1.1804578985        1.1301266973       -0.0000885459
 C         -0.0498524135        1.7182292480       -0.0000307163
 H          0.0605619349       -1.9475193462       -0.0000420686
 H          2.0937339686        1.6990408360        0.0001480085
 H         -0.1527092420        2.7944045648        0.0010305378
 H         -3.1499566268       -0.4662687043        0.0002201117
 H         -2.2765244529       -1.9761912449        0.0005182585
