13
isocytosine  charge=0 mult=1  seed=1_b3lyp_pcm
O      2.25082300    -1.16385200     0.00087600
N     -0.01228200    -0.92698200    -0.00144100
N     -1.10928500     1.14655900     0.00177400
N     -2.33175300    -0.80905500    -0.03267600
C     -1.14559900    -0.17096600    -0.00138900
C      1.28762800    -0.39601100     0.00074000
C      1.30603500     1.03379600     0.00188000
C      0.12240700     1.71379000     0.00103100
H     -0.07241300    -1.93637800    -0.01218300
H      2.25658000     1.54289200     0.00315700
H      0.12649700     2.79736700     0.00184800
H     -2.40581200    -1.79776500     0.13089200
H     -3.16102200    -0.25260600     0.08211200
