38
calc_06acefa3904aa477; angstrom; atom order from source job; valid
N 2.825785 -2.067139 -0.349254
N 4.497001 -0.442060 0.117001
N 0.599428 -1.576626 -0.323949
N 3.990983 1.714607 0.657360
N 5.055400 -2.589823 -0.459934
C 1.873344 -1.148882 -0.124377
C 3.537915 0.471004 0.330937
C 2.173039 0.168752 0.254346
C 4.086771 -1.666108 -0.206816
H 0.481442 -2.571153 -0.421147
H -0.151064 -1.080127 0.127608
H 3.402764 2.512947 0.496339
H 4.973371 1.869907 0.504124
H 5.977711 -2.388555 -0.113801
H 4.775890 -3.555562 -0.452229
P -3.670849 -1.130043 0.010009
O 0.036698 0.702718 1.256429
O -1.755693 2.682889 -1.125896
O 0.833251 3.279640 -0.695763
O -2.377810 -0.599130 0.729345
O -3.798207 -0.184417 -1.245233
O -3.174677 -2.488529 -0.611345
O -4.877471 -1.210602 0.850807
C -0.978452 1.633151 -0.597089
C -1.123326 1.440178 0.911648
C 0.522423 1.899145 -0.753434
C 1.136837 1.225919 0.497224
C -2.348604 0.694328 1.363342
H -1.213242 0.695356 -1.102568
H -1.126386 2.419294 1.405824
H 0.910106 1.468166 -1.676201
H 1.574084 2.034033 1.087747
H -2.331395 0.531595 2.438793
H -3.235391 1.274689 1.106796
H -2.632243 2.340256 -1.315464
H 0.418439 3.712268 -1.446890
H -4.695160 -0.110506 -1.590008
H -3.214786 -3.240138 -0.009079
