35
calc_d5e211cca1fc1961; angstrom; atom order from source job; valid
O -1.249942 -0.551036 2.352807
O -4.493778 0.564114 -0.855425
O -2.649024 -3.548412 -0.705401
N -1.905120 -2.011407 0.779132
N -3.543952 -1.471860 -0.789782
C -2.619921 0.326239 0.600773
C -1.874565 -0.759869 1.334685
C -3.645210 -0.166802 -0.390781
C -2.687681 -2.416147 -0.275022
H -3.143342 0.935846 1.337090
H -1.346755 -2.732921 1.217546
H -4.174868 -1.794414 -1.512546
P 3.877089 -0.713378 0.095345
O -0.829796 0.492226 -1.020282
O 0.192232 3.354064 -1.066503
O -1.249284 3.253694 1.233406
O 2.737721 0.223669 -0.466248
O 5.180914 0.081024 -0.285361
O 3.934932 -1.986596 -0.828200
O 3.727886 -1.098591 1.506571
C 0.503056 2.267142 -0.215473
C 0.527565 0.943544 -0.970664
C -0.685418 2.070980 0.726513
C -1.644968 1.260569 -0.151998
C 1.357651 -0.137757 -0.301887
H 1.431516 2.448589 0.325595
H 0.883104 1.090562 -1.990945
H -0.361396 1.484145 1.581835
H -2.258956 1.955012 -0.732260
H 1.123419 -0.221621 0.759880
H 1.167293 -1.092461 -0.791989
H 0.950024 3.533524 -1.627595
H -1.376597 3.864083 0.500129
H 5.385665 0.824085 0.294046
H 3.910127 -1.811530 -1.776197
