  16
        -26.79416395
 N          1.1916375575       -0.6693591614       -0.0301620399
 N         -1.1899515498       -0.6730724323        0.0065922744
 N          2.4017270097        1.2804450487        0.0432768137
 N         -2.4057281548        1.2743366354       -0.0455345545
 N          0.0046397524       -2.6257581361        0.0440448802
 C          1.1871104688        0.6710828315       -0.0092797326
 C         -1.1890589792        0.6674355491        0.0115549387
 C         -0.0021682656        1.3981636436        0.0102373485
 C          0.0018044440       -1.2712965672       -0.0085298676
 H         -0.0037196448        2.4751949340        0.0194436247
 H          3.1973962986        0.6993876511       -0.1561906877
 H          2.4528335801        2.2515790942       -0.2088358319
 H         -2.4598051267        2.2400258995        0.2270203774
 H         -3.1989704641        0.6882759119        0.1503836561
 H         -0.8629597708       -3.0892997023       -0.1586620657
 H          0.8704754609       -3.0856415326       -0.1737723296
