  16
        -26.79416395
 N          1.1916375575       -0.6693591614       -0.0301620399
 N         -1.1899515498       -0.6730724323        0.0065922744
 N          2.4017270097        1.2804450487        0.0432768137
 N         -2.4057281548        1.2743366354       -0.0455345545
 N          0.0046397524       -2.6257581361        0.0440448802
 C          1.1871104688        0.6710828315       -0.0092797326
 C         -1.1890589792        0.6674355491        0.0115549387
 C         -0.0021682656        1.3981636436        0.0102373485
 C          0.0018044440       -1.2712965672       -0.0085298676
 H         -0.0037196448        2.4751949340        0.0194436247
 H          3.1973962986        0.6993876511       -0.1561906877
 H          2.4528335801        2.2515790942       -0.2088358319
 H         -2.4598051267        2.2400258995        0.2270203774
 H         -3.1989704641        0.6882759119        0.1503836561
 H         -0.8629597708       -3.0892997023       -0.1586620657
 H          0.8704754609       -3.0856415326       -0.1737723296
  16
        -26.79395902
 N          1.1922107789       -0.6696407864       -0.0044928356
 N         -1.1899241745       -0.6732457419       -0.0245448721
 N          2.4007395277        1.2806449345        0.0592143973
 N         -2.4051964896        1.2734363866        0.0187456781
 N          0.0033937014       -2.6247156286        0.0593420654
 C          1.1872787603        0.6711356296       -0.0025100877
 C         -1.1890840689        0.6675275684       -0.0224256388
 C         -0.0019731169        1.3983450143       -0.0169809738
 C          0.0019469533       -1.2712386385       -0.0011470546
 H         -0.0036408607        2.4754301753       -0.0167294128
 H          3.2015005064        0.6979427530       -0.1120159772
 H          2.4574463731        2.2514676546       -0.1919617936
 H         -2.4603669234        2.2441954889       -0.2329712916
 H         -3.2013484476        0.6885721385       -0.1660150746
 H          0.8733723275       -3.0894259731       -0.1286010738
 H         -0.8621389659       -3.0916697914       -0.1430338811
  16
        -26.79384666
 N          1.1931753889       -0.6699094708        0.0185717892
 N         -1.1912611304       -0.6734375873       -0.0009670874
 N          2.4016101026        1.2815526419       -0.0275721759
 N         -2.4047152493        1.2742945513       -0.0683124212
 N          0.0039806726       -2.6203716972       -0.0083968619
 C          1.1870838957        0.6700728782        0.0196833875
 C         -1.1892090902        0.6665617245       -0.0002312380
 C         -0.0022124024        1.3974106313        0.0176392096
 C          0.0019120750       -1.2722349914        0.0012651667
 H         -0.0037781675        2.4745194959        0.0195741279
 H          3.1984351059        0.6993913846        0.1639126331
 H          2.4518276229        2.2499684757        0.2345665239
 H         -2.4626363216        2.2423649344        0.1937673299
 H         -3.2027154456        0.6893618514        0.1094179556
 H          0.8808398787       -3.1038958004        0.0198849260
 H         -0.8718377171       -3.1065223738        0.0063068568
