16
tap_C5link  charge=0 mult=1  seed=1_b3lyp_pcm
N      1.19597000    -0.69189200    -0.00006200
N     -1.19719100    -0.68958200     0.00235000
N      2.40807900     1.26320700    -0.06114700
N     -2.40591400     1.26804000     0.05214200
N     -0.00237000    -2.65597900     0.05720000
C      1.18727300     0.65255700    -0.00512700
C     -1.18595600     0.65486500     0.00605600
C      0.00138000     1.38763200     0.00278100
C     -0.00116300    -1.28804600     0.00597100
H      0.00241800     2.46728600     0.00208100
H      3.20890200     0.69754600     0.16568900
H      2.47363000     2.23736300     0.17887000
H     -2.46878400     2.24047100    -0.19554200
H     -3.20651300     0.70197400    -0.17451500
H     -0.85955900    -3.12050500    -0.18902900
H      0.85067900    -3.12274200    -0.19901200
