38
calc_955b807ebfbecf12; angstrom; first printed source-job orientation; unoptimized start
N -2.742312 2.073558 0.054035
N -4.273550 0.276979 0.034897
N -0.470960 1.766821 0.284955
N -3.624538 -1.916626 0.290901
N -5.010599 2.457617 -0.237237
C -1.746984 1.203605 0.267542
C -3.256744 -0.571947 0.226217
C -1.942642 -0.160641 0.383090
C -3.969315 1.569523 -0.054501
H -0.573928 2.777234 0.281284
H 0.064276 1.425489 1.083573
H -3.095512 -2.502508 -0.348583
H -4.623137 -1.969238 0.102774
H -5.866288 2.050505 0.113050
H -4.748063 3.365040 0.120200
P 4.083799 1.257125 0.032500
O 0.218978 -0.641923 1.463357
O 2.171777 -1.827123 -1.344108
O -0.148356 -3.024475 -0.824269
O 2.743968 0.925548 0.839605
O 4.100920 0.180517 -1.154780
O 3.713318 2.590570 -0.755557
O 5.348326 1.329284 0.808754
C 1.242154 -1.052802 -0.594546
C 1.456417 -1.137390 0.910568
C -0.175078 -1.591056 -0.724392
C -0.836606 -1.154139 0.597502
C 2.653135 -0.355869 1.446981
H 1.256631 -0.018659 -0.955856
H 1.566838 -2.180187 1.237456
H -0.676430 -1.224942 -1.626038
H -1.226737 -2.027703 1.133816
H 2.551520 -0.199273 2.525547
H 3.573726 -0.923861 1.271866
H 2.969965 -1.259744 -1.430837
H 0.667646 -3.221104 -1.332576
H 4.883418 0.341419 -1.718378
H 3.740966 3.370376 -0.171555
