20
DFT refinement start; not an optimized result
O -0.367286 0.320132 -1.381401
O 1.734298 -1.704399 -0.066712
O 2.293245 0.814894 0.414342
O -0.909813 1.973323 0.148995
O -2.080769 -0.411346 1.119639
C 0.610405 -0.980197 0.342971
C -0.510358 -0.935159 -0.715530
C 0.936530 0.521325 0.593237
C 0.124310 1.274101 -0.477814
C -1.906050 -1.107208 -0.089737
H 0.252478 -1.466708 1.252235
H -0.368505 -1.703221 -1.480056
H 0.583767 0.839933 1.581016
H 0.775003 1.952482 -1.043419
H -2.654974 -0.798461 -0.830517
H -2.055386 -2.161696 0.149579
H 2.181412 -1.224686 -0.781973
H 2.812701 0.344366 1.084134
H -1.360398 2.546960 -0.489925
H -1.916659 0.537775 0.964236
