20
DFT refinement start; not an optimized result
O -0.535795 0.324722 -1.067384
O 1.755636 -1.702514 -0.033973
O 2.496232 0.811550 -0.059757
O -0.628189 2.124190 0.399808
O -2.962594 -1.042667 -0.101486
C 0.784913 -0.858804 0.514387
C -0.540326 -0.863075 -0.274410
C 1.224720 0.634626 0.496509
C 0.186860 1.330271 -0.402517
C -1.773667 -0.904960 0.637065
H 0.627164 -1.214302 1.534194
H -0.582105 -1.703470 -0.974200
H 1.157753 1.078119 1.496357
H 0.690860 1.923641 -1.177036
H -1.719838 -1.778343 1.288870
H -1.798806 0.006662 1.249260
H 2.056644 -1.337871 -0.881931
H 3.160491 0.417624 0.526486
H -1.204676 2.678809 -0.147110
H -2.976118 -0.362331 -0.790436
