20
DFT refinement start; not an optimized result
O -0.679792 0.735107 -1.095780
O 1.057956 -1.499335 1.112052
O 2.290325 0.224557 -0.570399
O -0.303118 2.549244 0.300121
O -1.905098 -2.411947 0.327470
C 0.381755 -0.344439 0.728771
C -0.575731 -0.538304 -0.465573
C 1.287098 0.794831 0.224329
C 0.275231 1.634454 -0.572797
C -1.953887 -1.060122 -0.051782
H -0.181531 0.007349 1.599797
H -0.129814 -1.245607 -1.180185
H 1.696582 1.387617 1.047380
H 0.736701 2.144261 -1.432146
H -2.352630 -0.436487 0.760276
H -2.632567 -1.001292 -0.905211
H 1.794632 -1.641237 0.494604
H 2.976022 0.875692 -0.772203
H -1.016609 3.029368 -0.148105
H -1.219589 -2.528878 1.002809
