34
calc_d131565cc15c8f44; angstrom; atom order from source job; valid
O -1.668685 0.184240 -1.230409
O -2.418230 -2.019718 1.495414
O -4.359244 -0.700689 0.085590
O -1.022518 2.811089 -0.771395
N 0.062190 -1.203682 -0.450516
N 1.956477 -2.416233 -0.474858
N 1.025658 0.991759 0.082768
N 3.416025 0.884569 0.364422
N 4.637308 -1.058052 0.094989
N 2.263445 2.850512 0.666338
C -2.059821 -0.807239 0.882421
C -1.373765 -0.981991 -0.491748
C -3.258099 0.094827 0.521867
C -2.659743 0.997205 -0.550806
C -2.020632 2.258034 0.059493
C 1.084725 -0.325081 -0.153395
C 0.662753 -2.436455 -0.635301
C 2.241453 -1.097318 -0.171002
C 3.450322 -0.426125 0.099810
C 2.231509 1.522894 0.347329
H -1.387892 -0.284358 1.561091
H -1.787480 -1.863442 -0.988551
H -3.613822 0.655796 1.383546
H -3.394763 1.281046 -1.303710
H -2.802483 3.004816 0.199994
H -1.602233 2.027975 1.044213
H -3.271715 -2.285661 1.124692
H -4.291881 -0.883119 -0.858042
H 0.074271 -3.304113 -0.885416
H -0.261416 2.201794 -0.681335
H 4.688633 -2.048339 -0.062424
H 5.474575 -0.554898 0.330652
H 1.451560 3.404789 0.452444
H 3.154143 3.313730 0.615236
