26
calc_895de7d89606a543; angstrom; atom order from source job; valid
N -1.757562 0.066531 0.208429
N -3.429707 1.206459 -0.698036
C -2.915152 -0.380894 0.810684
C -2.128458 1.023589 -0.690440
C -3.931798 0.327144 0.238030
H -2.900705 -1.143862 1.567820
H -1.415489 1.559448 -1.293212
H -4.986285 0.256978 0.443426
O 0.369654 0.694280 0.945636
O 2.108880 -1.954872 0.554330
O -0.000292 -2.290264 -1.039392
O 3.649623 1.673684 -0.392191
C 1.807976 -0.806491 -0.238444
C 1.756435 0.484787 0.591564
C 0.354092 -0.974053 -0.701771
C -0.419486 -0.396664 0.499477
C 2.249259 1.728934 -0.145197
H 2.504330 -0.726341 -1.070966
H 2.334540 0.349850 1.508698
H 0.172494 -0.349149 -1.575155
H -0.515981 -1.158205 1.276961
H 1.766479 1.808934 -1.119155
H 1.980538 2.614157 0.434964
H 3.059938 -2.095641 0.572418
H 0.528777 -2.877172 -0.480887
H 4.122109 1.829335 0.431851
