37
calc_aeeeac4065bcb109; angstrom; atom order from source job; valid
P -4.253379 -1.089784 0.207032
O -0.173643 0.492937 0.465600
O 1.731608 3.146011 -1.029619
O -0.785930 3.789215 -0.337858
O -2.901081 -0.305217 0.466324
O 3.231077 1.175928 2.067985
O 5.117248 -2.474647 0.136395
O -4.454917 -1.862711 1.579513
O -3.788667 -2.250536 -0.775520
O -5.394004 -0.281087 -0.255275
N 2.135489 0.228115 0.275552
N 4.132377 -0.649698 1.055772
C 0.854362 2.055021 -0.927630
C -0.639110 2.460190 -0.820239
C -1.240863 1.385813 0.116815
C 1.053956 1.196246 0.333534
C -2.369726 0.607677 -0.517407
C 2.101582 -0.785130 -0.662573
C 3.166393 0.319546 1.201949
C 3.048809 -1.734258 -0.785918
C 4.177654 -1.689700 0.128859
C 2.987883 -2.825804 -1.809448
H 0.990295 1.429464 -1.810230
H -1.106890 2.455284 -1.801761
H 1.256660 1.827638 1.198445
H -1.612135 1.867176 1.027688
H -2.010880 0.039877 -1.376212
H -3.152139 1.296426 -0.834993
H 1.263722 3.922736 -0.689402
H -0.790786 3.805711 0.625819
H 1.229656 -0.777413 -1.298100
H 4.898362 -0.596888 1.713620
H 3.857377 -2.793100 -2.467283
H 2.984814 -3.807539 -1.333977
H 2.091400 -2.735858 -2.419368
H -4.962794 -1.369116 2.235277
H -4.510225 -2.643305 -1.282295
