35
calc_c5eebeb27b999d66; angstrom; atom order from source job; valid
P -4.324777 -0.443606 0.246300
O 0.291041 -0.858091 0.340286
O -1.788971 1.895303 -0.550695
O 0.644108 2.604875 -0.137797
O -3.192897 -0.969970 -0.752815
O 3.172061 1.955567 0.687027
O -5.689348 -0.835019 -0.463759
O -4.272133 1.130880 0.117799
O -4.247509 -1.004930 1.604435
N 2.526423 -0.171014 0.193174
N 4.815907 0.434914 0.268686
N 6.436774 -1.108184 -0.195729
C -0.871286 0.841196 -0.814985
C 0.606268 1.279856 -0.617764
C -1.029092 -0.342101 0.163131
C 1.144876 0.259569 0.417740
C -1.917444 -1.478461 -0.318766
C 2.850164 -1.439732 -0.170144
C 3.527173 0.799823 0.397920
C 4.142896 -1.805920 -0.325503
C 5.133638 -0.809601 -0.079559
H -1.037156 0.514249 -1.839067
H 1.160367 1.185454 -1.552985
H -1.399705 0.047139 1.118247
H 1.099329 0.713203 1.412024
H -2.059429 -2.221443 0.462900
H -1.477795 -1.951968 -1.193387
H -1.302844 2.597585 -0.089186
H 1.534721 2.714733 0.247963
H 2.025162 -2.116691 -0.317340
H 4.403193 -2.811981 -0.611797
H 6.744582 -2.025678 -0.463139
H 7.126933 -0.397550 -0.023198
H -5.879123 -0.352189 -1.277717
H -3.374281 1.492524 -0.098998
