35
calc_c5eebeb27b999d66; angstrom; first printed source-job orientation; unoptimized start
P 2.176103 3.518015 0.292150
O -0.948810 0.230162 0.649505
O 2.376157 0.624507 -0.569760
O 1.754507 -1.818279 -0.029723
O 0.810493 3.175507 -0.505200
O -0.202062 -3.716191 0.377445
O 2.179161 5.087308 0.389597
O 3.302412 3.252155 -0.773759
O 2.289950 2.884443 1.612356
N -1.622206 -1.957352 0.153045
N -2.339834 -4.176694 -0.190744
N -4.487490 -4.622716 -0.785303
C 1.007057 0.374381 -0.660825
C 0.641224 -1.121226 -0.501264
C 0.196372 1.044356 0.471597
C -0.523046 -1.100330 0.531947
C -0.232096 2.469024 0.133546
C -2.850383 -1.480613 -0.146099
C -1.352098 -3.349837 0.119566
C -3.853053 -2.326740 -0.477837
C -3.557157 -3.723759 -0.483708
H 0.664144 0.754782 -1.628515
H 0.288102 -1.549769 -1.448977
H 0.812066 1.048707 1.380476
H -0.121098 -1.469964 1.493098
H -0.543526 2.984467 1.044568
H -1.056308 2.443317 -0.583173
H 2.785232 -0.146580 -0.134734
H 1.467371 -2.729360 0.173580
H -2.958632 -0.409087 -0.090307
H -4.835182 -1.963808 -0.718913
H -5.424092 -4.336938 -1.013050
H -4.235613 -5.596797 -0.770735
H 2.162150 5.551127 -0.457417
H 3.412628 2.313055 -0.976655
