44
calc_9e9d5987647e1684; angstrom; atom order from source job; valid
N 3.371421 1.589767 0.256766
N 4.692769 -0.377636 0.061087
N 1.084241 1.563365 0.119273
N 3.755793 -2.441501 -0.303990
N 5.665877 1.667258 0.461550
C 2.250181 0.870419 0.036037
C 3.574617 -1.092563 -0.147360
C 2.297859 -0.511276 -0.229307
C 4.535599 0.933932 0.234143
H 1.147580 2.569348 0.143650
H 0.255881 1.146161 -0.273281
H 3.008088 -3.053176 -0.011448
H 4.681615 -2.768276 -0.077706
H 6.543134 1.238724 0.221310
H 5.608309 2.665005 0.353019
P -3.565027 1.485665 -0.335785
O 0.062546 -0.631333 -1.196380
O -1.360151 -3.612618 -0.123549
O 1.010407 -3.274552 1.009007
O -2.466037 0.328312 -0.308021
O -4.950955 0.838086 0.015772
O -3.199150 2.294603 0.987088
O -3.605400 2.260085 -1.588363
C -1.070911 -2.241180 0.138508
C -1.106722 -1.449853 -1.184599
C 0.392356 -2.054839 0.642288
C 1.105997 -1.371664 -0.548263
C -2.324086 -0.587298 -1.414494
H -1.778865 -1.843080 0.860067
H -1.057417 -2.175972 -2.004381
H 0.408693 -1.397038 1.510207
H 1.427181 -2.171743 -1.227181
H -2.216270 -0.022536 -2.339348
H -3.209598 -1.220175 -1.483582
H -1.920457 -3.960603 0.576537
H 0.483500 -3.982480 0.606969
H -4.995932 0.258238 0.824024
H -2.412375 2.847883 0.908231
O -5.125251 -0.729893 2.151068
H -5.589447 -1.557350 1.982016
H -5.575154 -0.328124 2.902698
O 2.720634 4.313607 0.557560
H 3.080128 3.402531 0.442950
H 2.973621 4.794477 -0.235948
