34
calc_a2a94330789aa392; angstrom; atom order from source job; valid
O 3.037044 3.086086 -0.938877
O 1.494401 1.714179 -1.823142
N 2.017316 -0.137478 0.393404
N 3.239585 1.496217 1.290398
C 2.540346 1.128544 0.232237
C 2.413787 -0.557091 1.634413
C 3.165451 0.458815 2.167516
C 2.290726 1.973494 -0.944066
H 2.152327 -1.518520 2.035250
H 3.649295 0.485623 3.128700
H 2.803652 3.601606 -1.725858
P -2.819432 1.298089 0.256128
O -0.177777 -0.473215 -0.385977
O -0.628465 -3.986996 -0.052637
O 1.212636 -2.939330 -1.720389
O -3.048019 -0.274985 0.102339
O -1.782421 1.710870 -0.873985
O -4.181469 1.913997 -0.266539
O -2.503436 1.739376 1.623809
C -0.117922 -2.717072 0.301661
C -1.039269 -1.614351 -0.220991
C 1.215400 -2.396156 -0.413063
C 1.188768 -0.868165 -0.559144
C -2.173541 -1.249760 0.709780
H 0.003929 -2.634127 1.382651
H -1.440342 -1.910579 -1.193397
H 2.084640 -2.747928 0.141909
H 1.513539 -0.587716 -1.553792
H -2.786655 -2.128361 0.896259
H -1.794572 -0.866016 1.656430
H -0.353025 -4.640196 0.598793
H 0.749917 -3.787953 -1.674278
H -0.999095 1.122614 -0.888042
H -4.372877 1.759638 -1.200025
