25
calc_112bc66d606d6fdc; angstrom; atom order from source job; valid
P -2.916258 -0.074695 0.034506
O 1.906787 -1.038839 1.034621
O 1.318069 2.174789 -0.386491
O 3.656273 1.258715 0.485631
O 2.691570 -1.886602 -1.008299
O -1.379192 0.293082 0.193495
O -3.152377 -0.501800 -1.476775
O -3.603215 1.356806 0.088069
O -3.418540 -1.101884 0.958433
C 1.528258 0.782522 -0.472220
C 0.936859 -0.028541 0.707266
C 3.019270 0.391844 -0.445251
C 2.960212 -1.038027 0.084353
C -0.378629 -0.729100 0.407935
H 1.086684 0.450494 -1.410267
H 0.811336 0.623667 1.573445
H 3.488527 0.448323 -1.425092
H 3.862034 -1.346938 0.612261
H -0.674045 -1.354998 1.247855
H -0.287547 -1.344745 -0.487389
H 2.027949 2.532999 0.164163
H 4.595383 1.314743 0.286660
H 2.671806 -2.798341 -0.697378
H -2.805214 0.108957 -2.139310
H -3.583874 1.779938 0.955489
