25
calc_112bc66d606d6fdc; angstrom; first printed source-job orientation; unoptimized start
P -2.527213 0.599699 0.425355
O 1.329822 -1.777567 0.001855
O 1.974266 0.971992 1.525952
O 3.991362 0.019890 0.149143
O 2.060353 -1.581509 -2.195829
O -1.261180 0.764217 -0.564651
O -3.694898 0.044692 -0.466209
O -2.921567 2.100133 0.679919
O -2.268338 -0.239133 1.603140
C 1.593701 0.564056 0.244806
C 0.578969 -0.598383 0.243811
C 2.793794 -0.000190 -0.573337
C 2.405031 -1.463635 -0.853533
C -0.502130 -0.402235 -0.826102
H 1.157203 1.445037 -0.229064
H 0.090779 -0.708555 1.216080
H 2.898114 0.516246 -1.534508
H 3.228172 -2.137964 -0.584218
H -1.148248 -1.284487 -0.833133
H -0.041456 -0.268142 -1.808173
H 2.455124 0.250345 1.961187
H 4.234330 0.939308 0.340541
H 1.900648 -2.511059 -2.420270
H -3.985342 0.625501 -1.182245
H -2.442029 2.545306 1.386731
