34
DFT refinement start; not an optimized result
O 1.111787 1.399318 2.408386
O -0.297696 1.119881 -1.912197
O 4.091040 1.491795 -0.984052
N 0.302947 1.400428 0.272309
N 2.592943 1.535875 0.721180
N 1.868836 1.511079 -1.454387
C 1.322601 1.421573 1.218923
C 0.565977 1.293408 -1.082818
C 2.945245 1.493549 -0.604700
H 3.345685 1.507250 1.404110
H 2.066246 1.419453 -2.447495
P 0.689221 -2.234853 0.143815
O -1.186450 -0.351833 0.814025
O -4.248273 0.438820 -0.617353
O -3.158749 2.142347 0.986372
O -0.733007 -2.662411 -0.468959
O 0.604972 -2.121968 1.701241
O 1.483763 -3.597391 -0.014541
O 1.322231 -1.078120 -0.516302
C -2.860949 0.467975 -0.707805
C -2.194091 -0.784494 -0.092547
C -2.222614 1.658681 0.063475
C -1.019919 1.036860 0.802714
C -1.539607 -1.700756 -1.124749
H -2.606041 0.536405 -1.767700
H -2.925641 -1.355062 0.491837
H -1.897205 2.433288 -0.631545
H -0.999077 1.371561 1.848039
H -2.289664 -2.257057 -1.686363
H -0.918489 -1.101938 -1.796270
H -4.511642 0.858565 0.222425
H -3.051010 3.091804 1.132843
H 0.306046 -2.919305 2.157109
H 1.747583 -3.837232 -0.908663
