37
calc_d3678a4e978d1dfd; angstrom; first printed source-job orientation; unoptimized start
N -3.135292 2.018981 0.171852
N -3.008008 -0.322097 0.158335
N -4.996686 0.740626 0.808726
N -1.174140 1.005414 -0.478091
N -5.105359 3.047130 0.803931
N -4.856775 -1.563728 0.778244
C -2.485639 0.883897 -0.031756
C -4.388058 1.890019 0.575397
C -4.261380 -0.332018 0.581329
H -0.888784 1.959496 -0.283028
H -4.485106 3.824162 0.983743
H -5.849791 2.881892 1.466769
H -4.447781 -2.256382 0.166934
H -5.863111 -1.464960 0.734853
P 5.318234 0.284533 0.173783
O 1.033449 0.640968 0.099737
O 1.662270 -2.378279 -1.786567
O -0.111098 -2.417547 0.187299
O 3.937427 1.001782 -0.186348
O 4.896280 -1.093417 0.857312
O 5.844221 1.120259 1.426909
O 6.319010 0.150404 -0.918439
C 1.087658 -1.121654 -1.452016
C 1.936866 -0.323726 -0.476403
C -0.210746 -1.268997 -0.679541
C -0.276415 0.050074 0.120590
C 3.106824 0.379013 -1.160247
H 0.913838 -0.549183 -2.370855
H 2.308914 -0.955651 0.338967
H -1.060527 -1.446858 -1.345761
H -0.513154 -0.130724 1.177315
H 3.692145 -0.324721 -1.762024
H 2.743365 1.173403 -1.820390
H 1.382771 -2.987547 -1.070431
H -0.963930 -2.469780 0.660661
H 5.683164 -1.619178 1.085583
H 6.215345 1.974393 1.142072
