37
DFT refinement start; not an optimized result
P -0.799798 -2.608152 -1.106299
O -1.413798 -1.002467 1.117237
O -1.782962 2.341405 0.161844
O -4.006247 0.955898 -0.265352
O -2.405144 -2.683304 -0.987495
O 4.950099 1.388117 0.359373
O -0.583089 -3.681359 -2.246793
O -0.194950 -3.315795 0.157331
O 1.818597 4.596249 -0.274581
O -0.256732 -1.280574 -1.435912
N 0.534060 0.256298 1.003753
N 1.041833 2.560190 0.346979
N 2.612505 -0.541113 1.082212
N 3.319273 2.927922 0.063236
C -1.548704 0.994257 -0.144087
C -0.901360 0.300954 1.074329
C -2.854728 0.180495 -0.364575
C -2.767540 -0.947928 0.687761
C -3.144035 -2.325013 0.163906
C 1.356330 1.274658 0.653831
C 1.357514 -0.814239 1.248686
C 2.654342 0.776856 0.703812
C 3.757340 1.639326 0.382150
C 2.043422 3.437136 0.024734
H -0.888280 0.882694 -1.010771
H -1.195764 0.854757 1.986470
H -2.861394 -0.247819 -1.368737
H -3.412949 -0.702665 1.544501
H -4.191705 -2.337753 -0.142304
H -2.966436 -3.055299 0.957445
H -2.377969 2.721202 -0.505748
H -4.042565 1.399899 0.597517
H 0.969535 -1.765526 1.542169
H 0.071767 2.882008 0.326889
H 4.052379 3.588595 -0.177943
H -0.644820 -3.347664 -3.146708
H -0.201452 -4.280938 0.107969
