37
DFT refinement start; not an optimized result
P -2.402679 -3.775446 -0.272568
O -0.074252 -0.118878 0.588341
O -2.719700 2.111772 -0.348851
O -3.304288 -0.217767 0.738539
O -1.480871 -2.946525 -1.278509
O 4.435245 4.238444 -0.603205
O -1.337654 -4.518597 0.637490
O -3.046910 -4.824208 -1.236907
O 4.511651 0.183003 1.414274
O -3.415320 -3.014961 0.479097
N 0.420382 2.100762 0.110421
N 2.463953 0.982106 0.860041
N 1.337830 3.951470 -0.729830
N 4.380772 2.213050 0.406046
C -1.774778 1.110777 -0.499760
C -0.610986 1.180443 0.520883
C -2.311452 -0.312645 -0.245697
C -1.068187 -1.081188 0.241036
C -0.505134 -2.030815 -0.815980
C 1.758489 1.990011 0.288218
C 0.231653 3.315533 -0.510155
C 2.331144 3.143162 -0.240342
C 3.758263 3.310236 -0.197875
C 3.830481 1.065964 0.925165
H -1.359544 1.190436 -1.509865
H -1.002611 1.489375 1.505007
H -2.715025 -0.762616 -1.158861
H -1.325403 -1.655358 1.139678
H 0.342222 -2.577411 -0.394965
H -0.181472 -1.470040 -1.696050
H -3.384696 1.812773 0.296969
H -3.703073 -1.097794 0.853619
H -0.744037 3.676004 -0.764141
H 1.991417 0.151737 1.200970
H 5.393581 2.267886 0.464876
H -1.683597 -4.937157 1.433445
H -2.445306 -5.321228 -1.806825
