37
DFT refinement start; not an optimized result
P 0.274885 -2.314608 -0.356086
O -1.513859 -0.292404 0.791619
O -3.716650 1.525206 1.623397
O -4.585295 0.636449 -0.725965
O -1.239490 -2.503874 -0.870513
O 3.961933 1.988432 -1.470730
O 0.887800 -3.732529 -0.683544
O 0.278763 -2.319451 1.211435
O 3.248530 -0.864138 1.964526
O 0.949051 -1.156595 -0.964091
N -0.307569 1.636338 0.222137
N 1.475060 0.407961 1.353124
N 0.919084 2.629058 -1.357884
N 3.542808 0.665220 0.317085
C -2.786555 1.676558 0.588914
C -1.417759 1.096736 0.989167
C -3.212457 0.724006 -0.555108
C -2.542145 -0.608966 -0.144723
C -1.935641 -1.359488 -1.325179
C 0.978015 1.238699 0.403305
C -0.271777 2.465326 -0.879049
C 1.742086 1.863791 -0.572321
C 3.144040 1.568905 -0.670428
C 2.781632 -0.001862 1.243732
H -2.716411 2.714668 0.259339
H -1.200976 1.253242 2.053270
H -2.794593 1.064216 -1.507280
H -3.260637 -1.258331 0.369315
H -1.233318 -0.706859 -1.854092
H -2.718121 -1.710297 -1.998738
H -3.686862 2.274249 2.234867
H -5.009904 0.654387 0.150372
H -1.137433 2.943174 -1.285965
H 0.859622 -0.190176 1.893841
H 4.512291 0.365599 0.262941
H 1.109034 -3.898817 -1.605405
H 0.002109 -3.150638 1.618683
