32
calc_c42d0d054e263bba; angstrom; first printed source-job orientation; unoptimized start
O -1.508645 0.938499 -0.666248
O -1.902307 -2.396297 -1.397474
O -3.783819 -1.575376 0.206789
O -2.092180 1.394212 2.079653
O 3.513959 0.726452 1.882596
N 0.549615 -0.050433 -1.037586
N 2.704198 -0.001163 -1.572747
N 0.663397 0.271923 1.358787
N 4.894965 0.498502 0.097904
C -1.438583 -1.452324 -0.479654
C -0.865992 -0.197020 -1.197610
C -2.579867 -0.889793 0.412881
C -2.737915 0.564638 -0.066508
C -3.056159 1.543553 1.060381
C 1.226850 0.190704 0.129347
C 1.501223 -0.150839 -2.022667
C 2.573693 0.219042 -0.217730
C 3.682496 0.495147 0.673530
H -0.649200 -1.918455 0.118757
H -1.067250 -0.287316 -2.276879
H -2.275797 -0.895000 1.462250
H -3.544281 0.598367 -0.813876
H -3.031367 2.556556 0.645322
H -4.061303 1.320049 1.435912
H -2.879619 -2.364458 -1.389925
H -3.845950 -2.330633 0.809568
H 1.244923 -0.341102 -3.044414
H -2.255401 2.047023 2.774534
H 1.329214 0.586347 2.054826
H -0.264979 0.671058 1.428859
H 4.956687 0.310784 -0.888025
H 5.712896 0.692103 0.649166
