38
calc_c961edaf6d598eb2; angstrom; atom order from source job; valid
N -2.401181 2.129970 0.729865
N -3.707015 0.751096 -0.696351
N -0.522108 1.391984 1.807849
N -3.257716 -1.446530 -1.065533
N -4.263229 2.955791 -0.342779
C -1.574839 1.101183 0.937663
C -2.880136 -0.284336 -0.468814
C -1.710452 -0.151494 0.317823
C -3.416491 1.910302 -0.111313
H -0.749719 2.166650 2.416790
H -0.144175 0.605150 2.315290
H -2.913717 -2.333372 -0.727983
H -4.178177 -1.439942 -1.472218
H -4.886436 2.881107 -1.128089
H -3.936360 3.876689 -0.106691
P 2.782869 1.559820 -0.420406
O 0.627504 -0.608667 0.423033
O 0.991631 -3.927908 0.798761
O -1.462913 -3.466730 -0.191096
O 3.276638 0.117467 0.055642
O 1.962978 2.187065 0.771441
O 4.116948 2.427981 -0.379801
O 2.167927 1.583233 -1.758710
C 0.933714 -2.887549 -0.174248
C 1.625310 -1.629483 0.375504
C -0.533244 -2.424341 -0.395715
C -0.666070 -1.219897 0.561463
C 2.760093 -1.114426 -0.484976
H 1.375815 -3.229509 -1.108502
H 1.985376 -1.842528 1.386296
H -0.652178 -2.083972 -1.422123
H -0.761089 -1.618806 1.584000
H 3.587442 -1.820740 -0.484357
H 2.424510 -0.947595 -1.507456
H 1.097796 -4.774474 0.354440
H -1.174918 -3.971890 0.581744
H 1.071674 1.807127 0.996949
H 4.496835 2.553333 0.498151
