38
calc_6f3fadf98efb8443; angstrom; atom order from source job; valid
P 3.628805 1.623177 -0.019030
O 0.826881 -0.630054 0.761741
O -0.088805 -3.803165 0.912476
O 1.168081 -3.495350 -1.399432
O 3.546532 0.055836 -0.258531
O 5.191608 1.849660 0.177995
O 3.081412 1.926702 1.439201
O -4.955422 2.342844 0.488608
O 2.948132 2.452251 -1.024734
N -1.442713 -0.513325 1.306231
N -2.990706 0.766699 2.307146
N -1.981642 -0.098577 -1.026806
N -3.806062 1.380451 -1.236776
N -2.792804 0.456539 -3.115899
C -0.442312 -2.595949 0.246337
C 0.625442 -2.327024 -0.834447
C -0.295532 -1.386868 1.208160
C 1.640922 -1.451431 -0.080015
C 2.474919 -0.586961 -0.989875
C -2.169338 0.072579 0.295576
C -1.988647 -0.045181 2.488657
C -3.122022 0.856622 0.933921
C -4.045889 1.597089 0.138246
C -2.833163 0.575565 -1.768817
H -1.441582 -2.665774 -0.172769
H 0.173894 -1.742841 -1.634513
H -0.114633 -1.771250 2.212771
H 2.296464 -2.086666 0.526386
H 1.860846 0.164889 -1.482258
H 2.951766 -1.212420 -1.741920
H -0.882849 -4.291833 1.146371
H 1.130225 -4.182132 -0.718537
H -1.590589 -0.355228 3.441116
H -4.437872 1.868096 -1.856945
H -1.986588 -0.002035 -3.505085
H -3.256313 1.127362 -3.704352
H 5.724771 1.663802 -0.604952
H 3.424242 1.355431 2.137809
