38
calc_6f3fadf98efb8443; angstrom; first printed source-job orientation; unoptimized start
P 0.804056 2.498914 0.449635
O 1.834204 -0.129174 0.769278
O 2.616995 -3.151349 0.593331
O 3.035763 -2.211041 -1.813514
O 1.919311 2.154436 -0.660803
O 0.786741 4.083426 0.360252
O 1.396564 2.290563 1.883785
O -4.650552 0.153185 0.363198
O -0.486618 1.838431 0.203014
N -0.281222 -1.063694 1.214484
N -2.186045 -0.405832 2.190061
N -1.014629 -1.121737 -1.100454
N -3.263642 -0.448770 -1.319939
N -1.994253 -1.045967 -3.162720
C 1.532450 -2.396972 0.124973
C 1.997413 -1.601160 -1.119956
C 1.139881 -1.296791 1.133666
C 2.364964 -0.212719 -0.548162
C 1.789109 0.936702 -1.371385
C -1.195431 -0.904366 0.213839
C -0.944130 -0.718265 2.368345
C -2.385450 -0.507741 0.834319
C -3.529938 -0.228336 0.033884
C -2.071650 -0.869040 -1.841104
H 0.669638 -3.021499 -0.114787
H 1.154455 -1.495016 -1.806108
H 1.466881 -1.558915 2.148508
H 3.453458 -0.101639 -0.466416
H 0.726709 0.744529 -1.549369
H 2.330928 1.057328 -2.309086
H 2.315507 -3.931034 1.078335
H 3.597227 -2.684493 -1.173944
H -0.457662 -0.727865 3.322528
H -4.037310 -0.245073 -1.944105
H -1.121157 -1.355541 -3.552339
H -2.775733 -0.854366 -3.763743
H 0.339463 4.457007 -0.405515
H 2.183116 2.817312 2.076079
