37
DFT refinement start; not an optimized result
N 1.862282 1.801096 -1.072767
N 1.399070 0.807077 1.025321
N 3.612138 0.786208 0.164070
N -0.249892 1.857503 -0.227942
N 4.011716 1.769552 -1.863733
N 3.135813 -0.115828 2.209675
C 1.045027 1.448947 -0.088098
C 3.139248 1.430437 -0.907908
C 2.708754 0.495102 1.095581
H -0.495015 2.039327 -1.190634
H 3.651682 2.143704 -2.723328
H 4.942951 1.397173 -1.808422
H 2.450958 -0.498399 2.837984
H 4.076114 -0.470437 2.210861
P 0.273069 -2.116401 -0.166513
O -1.385577 -0.042995 0.651357
O -4.549920 0.733037 -0.813546
O -3.551124 1.982108 1.312490
O -1.282051 -2.494080 -0.370095
O 0.930077 -3.545851 -0.253356
O 0.527663 -1.736118 1.345009
O 0.791038 -1.189638 -1.185080
C -3.168408 0.777477 -0.692811
C -2.544804 -0.477057 -0.042990
C -2.657155 1.903620 0.237368
C -1.274805 1.374544 0.652787
C -2.114509 -1.558558 -1.029804
H -2.763623 0.905569 -1.701457
H -3.236630 -0.907038 0.693706
H -2.574004 2.860756 -0.286225
H -0.993346 1.654148 1.674388
H -2.972047 -2.111067 -1.413634
H -1.546782 -1.105492 -1.849099
H -4.940017 0.952220 0.051329
H -3.367421 2.763278 1.852246
H 0.635806 -4.174230 0.418403
H 0.602458 -0.757923 1.434262
