37
DFT refinement start; not an optimized result
N 2.953726 1.434445 -0.540985
N 2.022818 2.651948 1.262640
N 4.344334 2.821229 0.791878
N 0.712154 1.325540 -0.104474
N 5.193407 1.640085 -0.974438
N 3.395556 3.986280 2.517596
C 1.941776 1.809551 0.237508
C 4.140211 1.975793 -0.222297
C 3.255930 3.127997 1.501507
H 0.744753 0.590011 -0.796449
H 5.063874 0.992310 -1.729515
H 6.093557 2.021151 -0.747463
H 2.601753 4.178984 3.100414
H 4.315966 4.311146 2.751563
P -2.014744 -3.163813 -1.402680
O -0.423582 0.086343 1.577598
O -3.397951 -0.341628 -0.297455
O -2.747714 1.872025 0.962121
O -1.581399 -3.076695 0.151696
O -3.554601 -2.830350 -1.432698
O -1.996988 -4.699496 -1.703276
O -1.135120 -2.385008 -2.288878
C -2.033289 -0.074401 -0.181374
C -1.354172 -0.815275 0.994390
C -1.725064 1.404445 0.125247
C -0.368353 1.297521 0.839349
C -0.646044 -2.101914 0.559907
H -1.566387 -0.369611 -1.125246
H -2.104493 -1.069463 1.754965
H -1.643438 2.004039 -0.786506
H -0.177802 2.100343 1.556586
H 0.047436 -1.888959 -0.259211
H -0.097200 -2.519783 1.406359
H -3.870314 0.240153 0.326733
H -2.629767 2.813757 1.146234
H -3.775147 -1.921770 -1.157979
H -2.612043 -5.228593 -1.178628
