37
DFT refinement start; not an optimized result
N 1.628839 2.032682 0.718501
N 2.624981 0.567122 -0.846865
N 3.981169 1.704197 0.735753
N 0.362496 0.921709 -0.873373
N 2.973325 3.138668 2.205165
N 4.896571 0.281391 -0.804699
C 1.575810 1.165958 -0.289815
C 2.861656 2.267586 1.195628
C 3.808403 0.866036 -0.290899
H 0.350944 0.078913 -1.439611
H 2.140441 3.544534 2.589883
H 3.879835 3.304915 2.602197
H 4.782986 -0.368849 -1.560143
H 5.791445 0.473780 -0.393262
P -0.637241 -2.371722 -0.258488
O -1.088109 0.007446 0.739602
O -4.384014 0.534607 -0.538512
O -2.718334 2.501793 -0.865006
O -1.987288 -2.544961 0.590395
O -0.378341 -3.918154 -0.516544
O 0.578875 -2.022607 0.673725
O -0.726204 -1.608321 -1.516726
C -3.044740 0.157399 -0.553999
C -2.483896 -0.168164 0.846361
C -2.080869 1.265017 -1.040942
C -0.836124 1.116417 -0.131251
C -2.733641 -1.589616 1.319787
H -2.947326 -0.725176 -1.191592
H -2.906781 0.540790 1.573859
H -1.795792 1.101178 -2.083350
H -0.706862 2.014673 0.488382
H -2.455644 -1.675790 2.373859
H -3.787819 -1.843194 1.183218
H -4.421316 1.506289 -0.473625
H -2.255371 3.192013 -1.358276
H -0.890422 -4.302139 -1.234422
H 0.821242 -2.735312 1.278612
