37
DFT refinement start; not an optimized result
N 3.422714 -1.882417 -0.078340
N 3.360409 0.490691 0.147448
N 5.455092 -0.642704 0.087340
N 1.426448 -0.757268 -0.016097
N 5.466153 -2.920024 -0.194479
N 5.348949 1.636185 0.320314
C 2.777040 -0.715190 0.025176
C 4.759074 -1.782116 -0.056802
C 4.707059 0.458816 0.188579
H 0.996582 -1.667910 -0.046075
H 4.989154 -3.802954 -0.222040
H 6.465181 -2.900315 -0.097576
H 4.832612 2.471670 0.528621
H 6.345142 1.637438 0.447838
P -4.874977 -0.748508 0.031618
O -0.743290 -0.161195 0.420243
O -0.810020 3.035197 0.666939
O 1.491247 2.466229 -0.565501
O -3.374084 -0.816757 -0.465242
O -4.717894 -0.328587 1.558478
O -5.261956 -2.285511 0.150263
O -5.784816 0.089669 -0.768062
C -0.896273 2.087901 -0.387941
C -1.700911 0.867986 0.088360
C 0.483844 1.489019 -0.694117
C 0.570976 0.355606 0.340532
C -2.664571 0.343216 -0.958858
H -1.340969 2.551380 -1.271600
H -2.250126 1.134501 0.992103
H 0.480423 1.048347 -1.695580
H 0.889049 0.770366 1.304467
H -3.374771 1.120299 -1.238352
H -2.134185 0.009614 -1.848169
H 0.057664 3.456560 0.584521
H 2.305653 1.981556 -0.304309
H -5.533780 -0.002146 1.958420
H -5.572262 -2.675811 -0.676369
