29
calc_e968dd39aaf627eb; angstrom; first printed source-job orientation; unoptimized start
O -1.505547 -1.344434 2.125039
O -0.322046 1.010663 -1.602845
O -4.665858 0.714888 -0.375804
N -0.836246 -0.187807 0.272451
N -3.083664 -0.332194 0.874301
N -2.483094 0.877657 -0.983199
C -1.785396 -0.669399 1.163290
C -1.147744 0.596422 -0.824088
C -3.507541 0.442834 -0.178160
H -3.794467 -0.685535 1.510570
H -2.730497 1.454343 -1.783709
O 1.279987 0.691752 0.758053
O 3.285758 -1.729112 0.595449
O 1.066996 -2.646915 -0.517010
O 2.860878 2.957005 -0.297637
C 2.739070 -0.843290 -0.347791
C 2.597017 0.589143 0.193180
C 1.276233 -1.276139 -0.571248
C 0.562792 -0.493623 0.555393
C 2.790045 1.675899 -0.873523
H 3.303690 -0.863185 -1.284152
H 3.303504 0.767710 1.012869
H 0.923816 -0.927067 -1.544179
H 0.549850 -1.098384 1.474231
H 1.969445 1.617454 -1.597723
H 3.743714 1.528220 -1.383009
H 4.246809 -1.629862 0.635628
H 1.675083 -3.022646 0.144623
H 2.040073 3.123102 0.186185
