  37
        -79.15914998
 P          0.2748853100       -2.3146083768       -0.3560861745
 O         -1.5138594415       -0.2924037742        0.7916186495
 O         -3.7166500657        1.5252064228        1.6233970748
 O         -4.5852945554        0.6364493593       -0.7259645569
 O         -1.2394895679       -2.5038740435       -0.8705134559
 O          3.9619327521        1.9884315998       -1.4707304149
 O          0.8877998314       -3.7325289001       -0.6835442463
 O          0.2787626727       -2.3194510956        1.2114354175
 O          3.2485296569       -0.8641376795        1.9645263795
 O          0.9490509835       -1.1565951064       -0.9640907257
 N         -0.3075688669        1.6363381535        0.2221368656
 N          1.4750595545        0.4079606261        1.3531241190
 N          0.9190844694        2.6290582175       -1.3578840450
 N          3.5428084677        0.6652204515        0.3170852278
 C         -2.7865550922        1.6765581131        0.5889136090
 C         -1.4177586127        1.0967355503        0.9891665308
 C         -3.2124567391        0.7240056100       -0.5551079331
 C         -2.5421447444       -0.6089658633       -0.1447232777
 C         -1.9356408409       -1.3594876624       -1.3251785493
 C          0.9780150436        1.2386994777        0.4033049563
 C         -0.2717765924        2.4653264867       -0.8790494441
 C          1.7420861812        1.8637913346       -0.5723210836
 C          3.1440402122        1.5689047484       -0.6704281697
 C          2.7816318797       -0.0018621353        1.2437318449
 H         -2.7164106159        2.7146679996        0.2593392033
 H         -1.2009758488        1.2532419166        2.0532695788
 H         -2.7945930079        1.0642157590       -1.5072798493
 H         -3.2606367597       -1.2583306332        0.3693149616
 H         -1.2333178192       -0.7068589202       -1.8540915215
 H         -2.7181205668       -1.7102969326       -1.9987375328
 H         -3.6868620918        2.2742492832        2.2348673501
 H         -5.0099043077        0.6543868214        0.1503724750
 H         -1.1374329667        2.9431740759       -1.2859652960
 H          0.8596221505       -0.1901759289        1.8938410273
 H          4.5122912351        0.3655990994        0.2629410640
 H          1.1090342611       -3.8988172484       -1.6054045894
 H          0.0021092558       -3.1506379302        1.6186832277
