37
xanthine_ribose_phosphate  charge=0 mult=1  seed=1_b3lyp_pcm
P     -3.43993500    -1.04067000    -0.04185600
O     -0.09284700     1.41925800     0.99375000
O      1.81839900     3.70808700    -1.00839700
O     -0.52397800     4.52223400     0.14021300
O     -2.29319800     0.01789900     0.34671800
O      4.13474600    -3.20943000    -0.31058800
O     -3.67618000    -1.76842800     1.35350600
O     -2.76394400    -2.15711300    -0.90687200
O     -0.41962500    -3.12761800    -0.22367800
O     -4.61756100    -0.43499600    -0.68309400
N      2.09288000     0.83039900     0.46468400
N      0.65160300    -1.14590200     0.14592700
N      4.08356900    -0.17882400     0.25293300
N      1.85560300    -3.08857100    -0.26523700
C      0.87743500     2.71237500    -0.71751100
C      1.15175800     1.94277000     0.59228800
C     -0.55454800     3.24396400    -0.48025600
C     -1.18931700     2.13877300     0.37062800
C     -2.02817400     1.18079700    -0.46164200
C      1.84699900    -0.48811200     0.22952100
C      3.47494900     0.95149300     0.47225600
C      3.07341900    -1.10344900     0.09689900
C      3.14359100    -2.51347600    -0.16635300
C      0.63125800    -2.48747300    -0.11996000
H      0.87454500     2.00518200    -1.54708200
H      1.56869600     2.61276300     1.34865100
H     -1.07828900     3.38567200    -1.42267900
H     -1.80024700     2.55442100     1.17166400
H     -1.50395400     0.87326600    -1.36736700
H     -2.96355900     1.66166800    -0.74203700
H      1.53311000     4.51937300    -0.56390000
H     -0.44263000     4.44656500     1.09752700
H      3.94536600     1.90463500     0.64463500
H     -0.22005900    -0.67862900     0.36725600
H      1.82808000    -4.07902100    -0.46723000
H     -4.13780000    -1.23104400     2.00926000
H     -1.88052600    -2.50961800    -0.59668900
