37
calc_09eaa4c6091a5f08; angstrom; atom order from source job; valid
P 2.382876 -2.007242 0.220893
O 0.791942 1.070382 -1.250254
O -0.109935 2.861815 1.720230
O 2.162704 3.611886 0.294279
O 2.813435 -0.488167 0.314374
O 3.520840 -2.781578 -0.558365
O 1.160205 -2.086229 -0.736658
O 2.223567 -2.542512 1.583617
N -1.443448 1.226040 -0.557099
N -3.683104 1.295863 -0.483813
N -1.138867 -1.147375 0.001632
N -3.213770 -2.267506 0.379452
N -5.259561 -1.216358 0.194383
C 0.499994 1.924480 0.873479
C 1.957695 2.224917 0.493185
C -0.134701 1.824665 -0.512185
C 2.105477 1.505387 -0.857737
C 3.049700 0.332024 -0.838225
C -1.858160 -0.037917 -0.221032
C -2.589416 1.968405 -0.689869
C -3.238225 0.024069 -0.186102
C -3.930076 -1.156457 0.130500
C -1.891764 -2.201685 0.294939
H 0.444265 0.953752 1.364616
H 2.655095 1.845221 1.236634
H -0.252625 2.829372 -0.930694
H 2.475105 2.218899 -1.597275
H 4.071741 0.699171 -0.765961
H 2.947610 -0.242787 -1.758792
H 0.013381 3.740034 1.345295
H 2.300966 4.026158 1.149871
H -2.535847 3.015371 -0.942786
H -1.353526 -3.122867 0.480717
H -5.820127 -0.404151 0.007003
H -5.712072 -2.085170 0.420485
H 3.558956 -2.606715 -1.505440
H 0.309979 -1.604406 -0.418459
