31
calc_2037d7c3b7321ddf; angstrom; atom order from source job; valid
N -2.383050 0.992736 0.212322
N -3.028184 2.580256 -1.194006
C -3.338805 1.738850 0.869370
C -2.238589 1.542275 -1.027009
C -3.723759 2.708698 -0.011515
H -3.641095 1.513591 1.876201
H -1.537863 1.162089 -1.749771
H -4.449442 3.489656 0.139016
P 3.203470 0.687283 0.022251
O -0.333277 -0.087958 0.495187
O -0.897914 -3.357553 -0.925011
O -2.374265 -2.525186 1.118026
O 2.544599 -0.757581 0.038313
O 4.707944 0.376005 0.437688
O 2.684016 1.475782 1.297434
O 2.990035 1.463959 -1.207778
C -0.989506 -1.968650 -0.732254
C 0.180451 -1.348984 0.051266
C -2.198846 -1.532468 0.115946
C -1.730077 -0.190956 0.740355
C 1.416063 -1.135088 -0.784848
H -1.049460 -1.505769 -1.717900
H 0.422586 -1.982628 0.910726
H -3.106023 -1.407990 -0.470910
H -1.932053 -0.210497 1.811412
H 1.245368 -0.375765 -1.545843
H 1.690877 -2.072447 -1.264362
H -1.265386 -3.778881 -0.135308
H -3.295423 -2.555248 1.392485
H 5.192950 -0.166678 -0.196501
H 2.720868 0.988565 2.130035
