30
calc_89719a80c1568a7a; angstrom; atom order from source job; valid
O 1.068002 -0.486757 1.326923
O 1.934919 -2.341594 -1.165512
O 3.257333 -0.072824 -1.443694
O 3.483770 2.228623 0.889313
N -1.002524 -1.070684 0.399811
N -3.186869 -1.402222 0.860891
N -1.182517 1.119303 -0.662356
N -3.441679 1.914743 -0.759002
C 1.131728 -1.193458 -0.952563
C 0.424087 -1.352994 0.405331
C 2.015611 0.064199 -0.765894
C 2.229898 0.125434 0.750141
C 2.337410 1.524136 1.349701
C -1.667803 0.043383 -0.060566
C -1.976392 -1.882946 0.941511
C -3.026227 -0.180559 0.231011
C -3.906536 0.819436 -0.150889
C -2.123720 2.009189 -0.982309
H 0.416097 -1.075239 -1.766742
H 0.521854 -2.387621 0.732534
H 1.476494 0.944280 -1.109069
H 3.121912 -0.458628 1.003714
H 1.470996 2.111316 1.047805
H 2.333035 1.447324 2.439779
H 2.754586 -2.029112 -1.577295
H 3.215546 0.393191 -2.284385
H -1.712759 -2.831608 1.382111
H 4.274205 1.823127 1.259923
H -4.973350 0.750868 0.025280
H -1.784024 2.909620 -1.478146
