33
calc_7cf045fba1ceadc6; angstrom; atom order from source job; valid
O 1.505233 -0.839915 1.214107
O 2.445630 -1.972614 -1.685437
O 3.594201 0.386071 -1.392392
O 3.765168 2.029423 1.433194
O -4.883848 0.016059 0.346506
N -0.518293 -1.428611 0.194139
N -2.618079 -2.088856 0.634774
N -0.912118 0.895297 -0.397328
N -3.202714 1.439771 -0.263045
N -1.638501 3.010668 -0.966410
C 1.569889 -0.982999 -1.170327
C 0.926207 -1.535031 0.115874
C 2.366860 0.253940 -0.687326
C 2.619323 -0.043861 0.794147
C 2.670466 1.167783 1.719297
C -1.317895 -0.328216 -0.007365
C -1.366876 -2.448685 0.584275
C -2.611064 -0.756317 0.267459
C -3.683275 0.176447 0.147041
C -1.895874 1.758940 -0.524680
H 0.817765 -0.719248 -1.913617
H 1.152889 -2.598762 0.187108
H 1.754781 1.146325 -0.795458
H 3.548018 -0.619909 0.884252
H 1.766643 1.760851 1.584485
H 2.699438 0.824485 2.756485
H 3.224931 -1.501520 -2.016665
H 3.494608 1.045504 -2.085748
H -0.982564 -3.430086 0.809700
H 4.586114 1.588485 1.674208
H -3.915648 2.148128 -0.370740
H -0.673972 3.291886 -1.007498
H -2.322711 3.741768 -0.879612
