37
calc_8d8e4f819cf4d5b8; angstrom; first printed source-job orientation; unoptimized start
P -3.787602 -1.148791 0.151701
O -0.183509 0.970015 0.831190
O 1.812568 3.000596 -1.384012
O -0.395754 4.088130 -0.115373
O -2.861302 0.061974 0.574242
O 3.495802 1.119001 1.731489
O 4.367183 -2.986402 0.010113
O -4.373732 -1.637301 1.540015
O -2.741350 -2.285628 -0.203703
O -4.782922 -0.854792 -0.902020
N 1.965597 0.236169 0.249191
N 3.877931 -0.931460 0.833336
C 0.791736 2.117453 -0.974787
C -0.560781 2.791862 -0.681088
C -1.236892 1.794093 0.271658
C 1.084949 1.395600 0.348929
C -2.256412 0.922653 -0.425644
C 1.600663 -0.833366 -0.542851
C 3.131968 0.210601 0.991676
C 2.337206 -1.952855 -0.685187
C 3.584378 -2.034286 0.044104
C 1.923125 -3.098973 -1.553696
H 0.657220 1.390598 -1.774101
H -1.132474 2.940935 -1.593026
H 1.559798 2.078674 1.049925
H -1.718937 2.329525 1.090710
H -1.787569 0.313386 -1.198086
H -3.032963 1.544522 -0.867403
H 1.735833 3.806286 -0.853773
H -0.089272 4.019473 0.797844
H 0.653538 -0.721027 -1.047261
H 4.741872 -0.962765 1.361811
H 2.662859 -3.284944 -2.334196
H 1.831582 -4.018057 -0.972665
H 0.965732 -2.894770 -2.028915
H -5.133968 -1.125967 1.853705
H -3.099422 -2.998417 -0.751981
