32
calc_b64d0bf85e13c1e7; angstrom; atom order from source job; valid
O -1.557092 0.201387 -1.177652
O -1.782007 -2.141672 1.541888
O -4.029742 -1.192907 0.338731
O -2.023204 2.978353 -1.158768
N 0.386951 -0.937505 -0.523559
N 2.444583 -1.604474 -1.141437
N 1.015742 0.981784 0.870802
N 3.396354 1.286742 0.967334
N 4.908935 -0.083521 -0.132203
C -1.682306 -0.884980 0.920256
C -1.058411 -0.936084 -0.489222
C -3.040265 -0.211175 0.646863
C -2.726320 0.740509 -0.508215
C -2.426296 2.165780 -0.063483
C 1.274101 -0.063988 0.077670
C 1.161571 -1.824468 -1.240525
C 2.536498 -0.498577 -0.316955
C 3.637095 0.232443 0.168293
C 2.129574 1.593667 1.266439
H -1.076045 -0.243437 1.555561
H -1.367577 -1.853644 -0.996679
H -3.407736 0.314252 1.525443
H -3.542185 0.755372 -1.233457
H -3.332689 2.613433 0.342408
H -1.657830 2.161276 0.714124
H -2.614266 -2.539806 1.249182
H -4.018471 -1.403194 -0.601437
H 0.704975 -2.615874 -1.812946
H -1.227995 2.586812 -1.537257
H 1.997453 2.452283 1.914298
H 5.117806 -0.851127 -0.744790
H 5.661522 0.482429 0.218658
