32
calc_76b5542ff380a349; angstrom; atom order from source job; valid
O -1.429325 1.724894 0.806810
O -0.665152 -1.929789 -1.864654
N -3.062285 0.182622 0.571192
N -0.940796 -0.195379 -0.382490
C -1.773700 0.639592 0.359807
C -3.527779 -0.962504 -0.007952
C -3.942715 1.028787 1.384627
C -2.768653 -1.716428 -0.821630
C -1.408855 -1.340712 -1.094913
H -4.552675 -1.213688 0.219189
H -3.491202 1.208702 2.356036
H -4.112568 1.982748 0.891184
H -4.887191 0.511253 1.512754
H -3.157826 -2.604689 -1.289978
O 1.243233 -0.920074 0.059904
O 3.084991 1.292851 -1.453873
O 0.792674 2.569030 -0.679950
O 3.106468 -2.277692 1.680343
C 2.595543 1.039641 -0.142276
C 2.620634 -0.474451 0.114567
C 1.105265 1.373759 -0.008073
C 0.482655 0.095559 -0.586097
C 3.188291 -0.873674 1.464362
H 3.186342 1.592616 0.591387
H 3.180323 -0.966530 -0.684116
H 0.867886 1.440508 1.051230
H 0.651132 0.061854 -1.663552
H 2.671988 -0.330614 2.262342
H 4.245465 -0.613376 1.501641
H 2.840948 2.196116 -1.689169
H -0.086816 2.825110 -0.371235
H 2.178525 -2.531886 1.628200
