  37
        -74.30900124
 O         -1.2907000621       -0.7548907165        1.9042729398
 O          1.0094565802       -1.5472641558       -1.9029063597
 N         -2.3495397216       -1.8821797139        0.2550844123
 N         -0.0505286432       -1.4335189855        0.1215636316
 C         -1.2464590591       -1.3050444576        0.8116674400
 C         -2.3219943940       -2.3650360201       -1.0093773077
 C         -3.6119554937       -1.7839905431        0.9633873058
 C         -1.2054561897       -2.3286929164       -1.7588246185
 C         -0.0013148822       -1.7451790021       -1.2380723941
 H         -3.2538876770       -2.7617798277       -1.3824135482
 H         -4.1687662938       -0.9163143005        0.6094332826
 H         -3.4030445643       -1.6598299603        2.0234715857
 H         -4.1855354937       -2.6914806254        0.7960522679
 H         -1.1839370235       -2.6690259857       -2.7784421633
 P         -1.2098374871        2.0112778876       -0.1152302150
 O          1.0023529313        0.5420128988        0.8923658201
 O          4.2296738723        0.4492528509       -0.0464187922
 O          3.3293184723       -1.4953561762        1.4432051472
 O          0.1767814609        2.6213140711       -0.6576519379
 O         -2.1899270349        3.1913319536       -0.4588056905
 O         -1.2048749050        2.0459361400        1.4641112314
 O         -1.6032716929        0.7484106270       -0.7609181328
 C          2.9439865355        0.0451038840       -0.4210565154
 C          1.9399749794        1.1317488511        0.0045388350
 C          2.4906058150       -1.2227967049        0.3589935988
 C          1.0804233651       -0.8593430565        0.8594075401
 C          1.1768948091        1.7590960867       -1.1607324953
 H          2.8649168013       -0.1370788890       -1.4954348362
 H          2.4535146762        1.9198084520        0.5673787762
 H          2.4725546922       -2.1102819980       -0.2758855891
 H          0.9595730317       -1.2092664809        1.8931815515
 H          0.7114093462        0.9709035235       -1.7612488911
 H          1.8338606592        2.3724176668       -1.7778934010
 H          4.8941805552       -0.0519987362       -0.5414666996
 H          3.8830160324       -0.7091868841        1.6116701842
 H         -2.0104966239        4.0239216390       -0.0045179006
 H         -1.0721336857        1.1838797350        1.8882961905
