37
1_methyluracil_ribose_phosphate  charge=0 mult=1  seed=1_b3lyp_pcm
O     -1.07298900    -1.44069600     0.63062000
O     -3.95726300     1.69190400    -1.11330500
N     -3.23481900    -2.02344100     0.27679000
N     -2.48884200     0.16511800    -0.20314400
C     -2.18755300    -1.11652200     0.25771400
C     -4.48431700    -1.68477400    -0.15081900
C     -2.93937500    -3.37203900     0.77016100
C     -4.78096400    -0.45814000    -0.61763100
C     -3.76960200     0.56016000    -0.68511900
H     -5.22340000    -2.46949700    -0.09253700
H     -2.17886400    -3.84026300     0.15047500
H     -3.85202600    -3.95673000     0.73037600
H     -2.58015600    -3.32556200     1.79500400
H     -5.77378700    -0.21352000    -0.95551800
P      4.22944500    -0.79416000    -0.18834100
O     -0.43522100     0.76234000    -1.21436800
O      0.51451700     3.34440900     0.22742900
O     -1.33458800     2.38265200     1.87625600
O      3.07073200     0.26704800    -0.37588800
O      3.88103500    -1.41357700     1.24119600
O      5.50625400     0.12911600    -0.00525300
O      4.42833900    -1.77992700    -1.26081600
C      0.68465800     1.95731100     0.51539000
C      0.87886100     1.13131000    -0.76186600
C     -0.66791700     1.45733500     1.04967500
C     -1.41802800     1.15978000    -0.26439300
C      1.69559200    -0.14086800    -0.57548800
H      1.49336700     1.81028000     1.22928000
H      1.35112500     1.74476500    -1.53049400
H     -0.52580800     0.54832100     1.62249300
H     -1.91007500     2.06832600    -0.60124500
H      1.62493500    -0.75273100    -1.47311700
H      1.35350500    -0.71782100     0.28042900
H      1.37021500     3.78302500     0.22447900
H     -1.11912400     3.26602900     1.54636000
H      4.25800000    -2.29040300     1.38569600
H      5.46139500     0.75897200     0.72518800
