37
DFT refinement start; not an optimized result
P -1.459236 -3.962346 -0.797503
O -0.438776 -0.293870 1.404967
O -1.944836 1.883055 -0.925150
O -3.020623 -0.438800 -0.397234
O -0.163570 -3.054421 -1.017698
O -1.116267 -4.733200 0.545605
O -1.327362 -4.969162 -1.987647
O -2.763813 -3.280127 -0.788427
O 2.631612 5.320059 -0.031209
N 0.793066 1.623197 0.890560
N 2.978587 1.907437 1.133766
N 0.096848 3.834853 0.225264
N 4.495613 4.209476 0.630298
C -1.042885 0.877610 -0.594217
C -1.644573 -0.540453 -0.638243
C -0.508303 0.995901 0.861379
C -0.896754 -1.275463 0.484973
C 0.266806 -2.113770 -0.050337
C 1.047239 2.922991 0.545097
C 1.999359 1.066496 1.232139
C 2.419113 3.091051 0.701062
C 3.174465 4.293363 0.409166
H -0.196320 0.951014 -1.286869
H -1.460324 -1.022275 -1.604431
H -1.195727 1.609873 1.464448
H -1.582508 -1.930857 1.031832
H 0.745041 -2.634570 0.783074
H 0.998484 -1.478164 -0.555846
H -2.844639 1.557751 -0.740056
H -3.416572 -1.314613 -0.536903
H 2.080911 0.050589 1.556180
H 0.494666 4.697314 -0.124853
H -0.737528 3.503107 -0.238921
H -1.853657 -5.190530 0.964750
H -0.476386 -5.415555 -2.089162
H 4.866009 3.347355 0.991786
H 5.086879 5.002494 0.451276
