37
DFT refinement start; not an optimized result
P 0.379477 -2.791799 0.471973
O -1.085604 -0.500379 0.529492
O -3.005157 2.290238 -0.261589
O -4.269017 0.080888 -0.867241
O -1.194132 -3.146011 0.447846
O 1.000102 -4.212485 0.797312
O 0.715743 -2.011519 1.786120
O 0.855236 -2.169701 -0.773671
O 3.611733 1.926539 -1.719152
N 0.046864 1.539741 0.541925
N 1.663558 2.927333 1.165163
N 0.936962 0.673373 -1.537844
N 4.127710 3.388659 -0.063825
C -2.128232 1.272050 -0.650691
C -2.887010 -0.055924 -0.960503
C -1.228645 0.901623 0.554596
C -2.313925 -1.047812 0.083113
C -2.013024 -2.437356 -0.461954
C 1.034632 1.426702 -0.402988
C 0.498170 2.452776 1.462543
C 2.033964 2.304561 -0.006763
C 3.308621 2.517623 -0.670733
H -1.495794 1.564615 -1.491636
H -2.660222 -0.405458 -1.971191
H -1.746505 1.217923 1.475757
H -3.009073 -1.118188 0.933198
H -1.482872 -2.341526 -1.413769
H -2.927749 -3.016714 -0.583810
H -3.274369 2.817221 -1.027896
H -4.464027 0.834171 -0.277735
H -0.078837 2.733405 2.319215
H 1.823318 0.691773 -2.035544
H 0.619402 -0.278374 -1.376165
H 1.041512 -4.836521 0.065498
H 0.541702 -2.499634 2.600885
H 3.814922 3.825560 0.786647
H 5.034233 3.582249 -0.453383
