37
DFT refinement start; not an optimized result
P -1.661321 -3.913447 -0.804601
O -0.409505 -0.208197 1.461188
O -1.537277 1.681358 -1.329664
O -2.890426 -0.399324 -0.531090
O -0.424211 -3.618788 0.181578
O -1.713951 -5.477705 -0.723179
O -1.163613 -3.624298 -2.266740
O -2.906447 -3.201585 -0.470565
O 2.747039 5.307602 -0.117545
N 0.845928 1.659926 0.879287
N 2.981962 2.008950 1.360888
N 0.214700 3.789823 -0.061573
N 4.526053 4.287946 0.853370
C -0.784960 0.685480 -0.716371
C -1.517987 -0.664541 -0.606268
C -0.434281 1.005942 0.761518
C -0.957609 -1.274219 0.689732
C 0.115078 -2.338222 0.443743
C 1.127970 2.930425 0.455337
C 2.007046 1.158873 1.410661
C 2.467541 3.139993 0.763332
C 3.241333 4.329698 0.467235
H 0.146833 0.573614 -1.282724
H -1.300544 -1.305474 -1.468337
H -1.201185 1.674380 1.186802
H -1.767023 -1.725338 1.275020
H 0.708153 -2.452358 1.354688
H 0.767803 -2.030882 -0.379398
H -2.479785 1.459095 -1.216332
H -3.359418 -1.251196 -0.550623
H 2.058737 0.175027 1.826033
H 0.648436 4.627630 -0.429185
H -0.530495 3.392711 -0.618511
H -2.130485 -5.845432 0.063548
H -0.570860 -4.288150 -2.642784
H 4.855854 3.463602 1.325667
H 5.128395 5.074755 0.684266
