41
calc_c03413cefe275eaf; angstrom; atom order from source job; valid
P 3.242863 -1.571995 -0.564716
O 0.200269 1.540837 -1.189704
O 1.990899 2.958640 1.538853
O -0.391254 3.967776 0.928082
O 2.213374 -0.362937 -0.434192
O -0.915001 -0.260360 0.998694
O 2.417429 -2.781308 -0.020885
O 4.421184 -1.263004 0.478180
O 3.834501 -1.774233 -1.898307
N -1.992023 1.115876 -0.458038
N -2.919470 -0.967229 0.192403
N -4.943513 -1.659442 -0.619405
C 1.101368 2.037115 0.921867
C -0.357749 2.547074 0.910346
C 1.430091 1.918663 -0.568824
C -0.893353 2.082293 -0.461273
C 2.524755 0.947617 -0.942363
C -3.075820 1.348731 -1.253384
C -1.909371 -0.078281 0.284047
C -4.094480 0.468570 -1.344517
C -3.981820 -0.730931 -0.580716
H 1.146801 1.064542 1.399711
H -0.941703 2.144084 1.734817
H 1.748028 2.903709 -0.931960
H -1.279632 2.962123 -0.975153
H 3.463692 1.301496 -0.514036
H 2.628034 0.895846 -2.025458
H 2.147716 2.689920 2.449314
H 0.413766 4.256953 1.382148
H -3.069395 2.278615 -1.801597
H -4.948403 0.667221 -1.971232
H -5.766376 -1.530512 -1.180586
H -4.850035 -2.497707 -0.061501
H 1.650919 -2.615199 0.621949
H 4.135337 -1.174656 1.395621
O 0.408655 -2.517955 1.566195
H -0.135269 -1.710216 1.392595
H 0.624839 -2.507784 2.503834
O -3.474154 -3.516243 1.298426
H -3.089348 -2.638329 1.088946
H -3.645823 -3.509430 2.244790
