41
calc_c03413cefe275eaf; angstrom; first printed source-job orientation; unoptimized start
P -2.220003 1.958360 -0.132817
O -0.294176 -0.943758 -1.201970
O -2.031739 -3.230572 0.892813
O 0.476112 -3.815361 0.275446
O -2.602823 0.431803 0.114951
O 0.576135 0.394003 1.257460
O -1.176189 2.269335 0.999919
O -3.495224 2.805527 0.317628
O -1.863587 2.285955 -1.524773
N 1.858438 -0.627549 -0.319850
N 2.608060 1.313082 0.816532
N 4.661690 2.210700 0.369089
C -1.222691 -2.091715 0.628712
C 0.283923 -2.441601 0.576879
C -1.511385 -1.563359 -0.780537
C 0.811655 -1.607946 -0.612320
C -2.659993 -0.583843 -0.902154
C 3.025805 -0.672416 -1.023502
C 1.651409 0.391661 0.625561
C 4.003048 0.238276 -0.830680
C 3.748196 1.261504 0.129992
H -1.391644 -1.313092 1.365022
H 0.792502 -2.185876 1.504522
H -1.743305 -2.413938 -1.433041
H 1.251999 -2.303995 -1.326339
H -3.598204 -1.116689 -0.758993
H -2.657746 -0.124265 -1.888370
H -2.272345 -3.243678 1.824319
H -0.331112 -4.273908 0.552481
H 3.119278 -1.475925 -1.738136
H 4.924440 0.192442 -1.387792
H 5.538806 2.232143 -0.119794
H 4.466381 2.930593 1.043858
H -1.336087 1.786841 1.870647
H -3.726286 2.716245 1.250226
O -1.613624 0.949373 3.381978
H -0.957378 0.609766 3.994847
H -2.456289 0.726461 3.784254
O 2.292812 3.664983 2.302862
H 2.400897 2.858617 1.793263
H 3.157794 3.823816 2.687802
