15
DFT refinement start; not an optimized result
N -1.278202 -1.324006 -0.004147
N -2.102055 0.754719 0.004201
N 0.027598 1.927960 0.003298
N 1.945619 0.486341 -0.001211
N 1.842669 -1.825545 -0.037325
C -0.188867 -0.477489 -0.001580
C -0.726703 0.814233 0.002728
C 1.205578 -0.631049 -0.002166
C -2.380680 -0.530520 -0.000364
C 1.328712 1.677197 -0.000271
H -1.286084 -2.330811 -0.011863
H -3.372720 -0.951214 -0.001540
H 1.987442 2.538056 -0.000085
H 1.355119 -2.680735 0.162532
H 2.838602 -1.825808 0.107168
