32
calc_d92135c27f0fd512; angstrom; atom order from source job; valid
O -1.012045 0.017803 1.143974
O -1.663130 2.294181 -1.174827
O -3.651379 0.533034 -1.195905
O -2.593480 -2.417480 0.949609
O 0.312281 -1.420196 -1.216817
O 4.761686 -1.155046 -0.394202
N 1.034751 0.364466 0.040322
N 2.527319 -1.237168 -0.792244
C -1.224975 0.945946 -1.057275
C -0.336282 0.849203 0.206570
C -2.413973 0.014255 -0.724523
C -2.403310 -0.014438 0.806431
C -3.086067 -1.187090 1.471697
C 2.103052 0.999387 0.674632
C 1.225661 -0.810383 -0.690482
C 3.363345 0.521436 0.549346
C 1.839244 2.222127 1.499909
C 3.654931 -0.655460 -0.221219
H -0.702295 0.642957 -1.960311
H -0.263364 1.857155 0.598330
H -2.227753 -0.979111 -1.119417
H -2.896250 0.894942 1.172467
H -2.917103 -1.127932 2.550410
H -4.160593 -1.089767 1.291587
H -2.588627 2.257859 -1.457851
H -3.875602 0.112694 -2.031823
H 4.184195 1.018726 1.038337
H 1.109688 2.026390 2.285584
H 2.765959 2.542302 1.965638
H 1.464738 3.045169 0.890674
H 2.663222 -2.080506 -1.332973
H -3.051929 -3.140234 1.387647
