32
calc_d92135c27f0fd512; angstrom; first printed source-job orientation; unoptimized start
O 1.149466 -0.903160 1.159618
O 2.285714 -2.255515 -1.216843
O 3.730744 -0.060471 -0.927526
O 0.695178 1.956141 0.911174
O -0.168219 0.870730 -1.842578
O -4.167643 1.692957 0.035380
N -0.789727 -0.528580 -0.125587
N -2.154078 1.206869 -0.876042
C 1.520810 -1.080872 -1.140581
C 0.483662 -1.263492 -0.023022
C 2.371514 0.104886 -0.627135
C 2.175991 0.047122 0.900239
C 1.846268 1.405379 1.522647
C -1.758246 -0.843063 0.812543
C -0.968103 0.535415 -0.984419
C -2.909285 -0.133704 0.893313
C -1.530310 -1.992678 1.732325
C -3.172817 0.978400 0.031970
H 1.065796 -0.886711 -2.113796
H 0.241186 -2.328511 0.041263
H 1.965858 1.039176 -1.022669
H 3.094341 -0.330112 1.365799
H 1.670384 1.254305 2.594244
H 2.714070 2.059818 1.381029
H 3.219488 -2.010366 -1.072454
H 3.915335 0.268175 -1.819012
H -3.663114 -0.382799 1.619142
H -0.577038 -1.892892 2.244628
H -2.331339 -2.032010 2.462499
H -1.523480 -2.928600 1.176364
H -2.267294 1.984487 -1.519276
H 0.550000 2.837287 1.282445
