37
calc_7474c1645ee48f37; angstrom; atom order from source job; valid
P -3.421656 -0.962425 -0.014032
O -0.074821 1.454556 1.029761
O 1.890691 3.537021 -1.110847
O -0.246769 4.428304 0.221514
O -2.243075 0.052763 0.360027
O 4.016687 -3.269135 -0.300016
O -3.580507 -1.756308 1.343539
O -2.814038 -2.025766 -0.976885
O -0.512038 -3.070146 -0.300352
O -4.617694 -0.304393 -0.545523
N 2.076905 0.792241 0.508985
N 0.590189 -1.127208 0.121926
N 4.037380 -0.257596 0.316017
N 1.751762 -3.088242 -0.301063
C 0.907266 2.623381 -0.747673
C 1.168434 1.922302 0.596084
C -0.474336 3.233310 -0.490480
C -1.141214 2.158340 0.369168
C -1.960446 1.188228 -0.460905
C 1.801784 -0.508574 0.244747
C 3.452155 0.879073 0.541567
C 3.007607 -1.148759 0.126371
C 3.045126 -2.555037 -0.163690
C 0.545064 -2.457705 -0.166820
H 0.841325 1.870959 -1.534328
H 1.607687 2.625553 1.308415
H -1.018955 3.419677 -1.416176
H -1.765488 2.605849 1.140914
H -1.414403 0.858152 -1.347605
H -2.886334 1.666857 -0.777588
H 1.709029 4.359090 -0.642109
H -1.018543 4.993661 0.172670
H 3.939826 1.819803 0.737897
H -0.274589 -0.652200 0.354524
H 1.698791 -4.072197 -0.521671
H -3.998691 -1.256194 2.049892
H -1.944607 -2.419533 -0.695370
