37
DFT refinement start; not an optimized result
O -0.023940 -0.364769 1.566942
O 4.330183 -1.057056 0.694591
N 0.462100 -1.425640 -0.398392
N 2.120503 -0.852285 1.136655
C 1.445871 -1.764151 -1.308547
C 2.753467 -1.689494 -0.966506
C 0.802452 -0.826600 0.794912
C 3.176578 -1.192149 0.307242
C 1.053350 -2.219116 -2.672281
H 3.525380 -1.955297 -1.667094
H 0.427661 -1.467607 -3.148747
H 1.947539 -2.365434 -3.268623
H 0.508959 -3.160608 -2.630057
H 2.347222 -0.390460 2.011886
P 0.510137 2.213766 0.340892
O -1.244265 -0.126880 -1.371058
O -4.089832 -0.518351 0.578860
O -2.875009 -2.681274 -0.234563
O -1.035514 2.024377 0.665629
O 0.526489 3.732646 -0.155646
O 1.148821 2.211025 1.771876
O 1.195448 1.323380 -0.606387
C -2.698987 -0.364759 0.516499
C -2.340708 0.487518 -0.714214
C -1.986184 -1.717350 0.255304
C -0.935931 -1.390074 -0.827566
C -2.004316 1.938631 -0.369727
H -2.284166 0.098553 1.412743
H -3.198157 0.491203 -1.402835
H -1.510349 -2.108747 1.158314
H -1.046070 -2.146281 -1.610735
H -2.896756 2.440004 0.010102
H -1.638208 2.439310 -1.267939
H -4.369995 -0.686096 1.490570
H -3.759322 -2.268515 -0.298692
H 1.254806 3.950714 -0.745824
H 0.697609 2.759000 2.427337
