37
DFT refinement start; not an optimized result
O -0.164999 -1.173763 1.840818
O 4.242725 -1.573779 1.035592
N 0.462655 -1.322642 -0.353196
N 2.009752 -1.482369 1.383080
C 1.507459 -1.262636 -1.256722
C 2.787822 -1.378496 -0.833153
C 0.716561 -1.289661 1.002235
C 3.119703 -1.484773 0.555023
C 1.211510 -1.067935 -2.703936
H 3.607419 -1.341019 -1.528842
H 0.624954 -0.161108 -2.837633
H 2.145852 -0.966326 -3.245311
H 0.665066 -1.914790 -3.114390
H 2.179066 -1.457209 2.383809
P 0.488014 2.351045 -0.083187
O -1.224016 0.272017 -0.815491
O -4.154406 -0.786146 0.475080
O -2.844631 -2.532043 -0.925329
O -0.972469 2.599099 0.548274
O 0.378648 2.249410 -1.641695
O 1.114428 3.799024 0.080380
O 1.247243 1.266102 0.558872
C -2.777688 -0.721994 0.721487
C -2.229803 0.589697 0.132577
C -2.012561 -1.844424 -0.038728
C -0.905311 -1.098838 -0.819171
C -1.636011 1.525043 1.185135
H -2.546671 -0.775311 1.786910
H -3.027528 1.111314 -0.411193
H -1.581525 -2.575633 0.647589
H -0.946696 -1.449474 -1.853809
H -0.922985 0.966123 1.797718
H -2.417241 1.966175 1.804148
H -4.580098 -1.392817 1.098296
H -3.664216 -2.012098 -1.039957
H 0.032604 3.041459 -2.072840
H 1.418065 4.030425 0.963258
