30
calc_1d541afe25ca995a; angstrom; atom order from source job; valid
O -1.310329 0.212671 -1.260076
O -1.174727 -1.827877 1.697614
O -3.031163 -2.138880 -0.193393
O -2.665080 2.116016 0.466390
N 0.643999 0.254820 0.018153
N 1.942938 1.985732 0.648348
N 2.399162 -1.324479 -0.586380
N 4.598688 -0.428255 -0.257132
C -1.502312 -0.708829 0.913295
C -0.559890 -0.494623 -0.291925
C -2.873765 -0.785960 0.233449
C -2.725775 0.175879 -0.953984
C -3.247646 1.580225 -0.721545
C 1.943394 -0.160711 -0.146913
C 0.721289 1.548903 0.491131
C 2.742172 0.926120 0.256262
C 4.112514 0.736966 0.182919
C 3.731811 -1.385098 -0.616474
H -1.472198 0.168080 1.555190
H -0.220593 -1.456086 -0.680745
H -3.681755 -0.496546 0.902978
H -3.243590 -0.234691 -1.821882
H -2.995545 2.196678 -1.588033
H -4.337398 1.535997 -0.636123
H -1.579414 -2.598913 1.276437
H -3.964399 -2.333354 -0.319990
H -0.176904 2.114863 0.682285
H -3.004194 3.004932 0.607048
H 4.820299 1.505133 0.470842
H 4.161831 -2.313502 -0.970493
