  13
        -23.98586167
 O          2.1914093743       -1.0762956525       -0.0000103153
 N         -0.0596004142       -0.9208729869        0.0000101630
 N         -2.3770213883       -0.8828879958       -0.0000138840
 N          1.2831583465        1.0136288843       -0.0000013093
 C         -1.2174336692       -0.2275091528        0.0000154378
 C         -1.1134057799        1.1676096424       -0.0000019267
 C          1.2199141660       -0.3234801779        0.0000057970
 C          0.1580819788        1.7066198019        0.0000017045
 H         -0.0636460311       -1.9347534311       -0.0000027013
 H         -1.9894636104        1.7889544721       -0.0000837792
 H          0.2968493811        2.7797424309        0.0000223448
 H         -3.2389811121       -0.3652547566        0.0000198844
 H         -2.4066583408       -1.8882969889        0.0000275033
