13
cytosine  charge=0 mult=1  seed=1_b3lyp_pcm
O      2.23612200    -1.14145900     0.00000100
N     -0.01660500    -0.91781200    -0.00000300
N     -2.33483300    -0.84300000     0.00000800
N      1.38147400     0.99050000     0.00000100
C     -1.16352800    -0.19468000    -0.00000000
C     -1.03186300     1.19320900    -0.00000100
C      1.28059900    -0.36418000    -0.00000000
C      0.25737100     1.70136700     0.00000000
H     -0.05266800    -1.92798000    -0.00000300
H     -1.89899600     1.83266700    -0.00000400
H      0.38545400     2.77898400    -0.00000000
H     -3.19700400    -0.32762700    -0.00001600
H     -2.39149200    -1.84648500    -0.00001500
