20
unoptimized sampling seed; angstrom
O -0.396486 1.008702 -0.583427
O 0.521563 -2.280613 0.579880
O 2.165449 -0.737798 -0.984151
O 1.040512 2.241768 0.787390
O -3.165269 0.159306 -0.464086
C 0.350365 -0.882492 0.635664
C -0.781486 -0.343129 -0.255582
C 1.567188 -0.084592 0.133527
C 0.957986 1.277488 -0.229477
C -2.146334 -0.330362 0.401896
H 0.152898 -0.630962 1.679576
H -0.836576 -0.925540 -1.180706
H 2.349923 0.012667 0.880054
H 1.462128 1.726683 -1.084277
H -2.426068 -1.350702 0.663220
H -2.103938 0.261612 1.321592
H 1.087960 -2.469502 -0.181022
H 1.655711 -0.576292 -1.786276
H 0.593514 1.931252 1.583629
H -2.948033 1.068401 -0.696807
