15
calc_9649b970f6180fd9; angstrom; atom order from source job; valid
N -1.278555 -1.314410 -0.000855
N -2.095291 0.767112 0.001567
N 0.041493 1.931423 0.001266
N 1.953157 0.475733 0.000836
N 1.809811 -1.841376 -0.037757
C -0.189540 -0.469249 -0.000411
C -0.719902 0.819937 0.000860
C 1.201132 -0.637197 -0.002223
C -2.376007 -0.521596 0.000386
C 1.341090 1.669508 0.001336
H -1.275744 -2.323498 -0.002580
H -3.368877 -0.938688 0.000238
H 2.003971 2.525455 0.003179
H 1.280882 -2.681191 0.129644
H 2.804822 -1.879866 0.114436
