  30
        -59.79472331
 O          0.1618032894        0.3359776507       -2.5384993126
 O          2.3801374103        2.4266274467        0.9911098322
 O          2.7258436751       -2.0285950643        0.3331802492
 N          1.4811990294       -0.8279944534       -1.1312153091
 N          2.5687979968        0.2079470999        0.6455936433
 C          0.8070987653        1.4148843821       -0.5036316599
 C          0.7899958199        0.2868343066       -1.5022370071
 C          1.9977440551        1.4275361691        0.4234364587
 C          2.2644095724       -0.9662131855       -0.0084635836
 H          0.7127542036        2.3778842089       -1.0090472628
 H          1.3245896605       -1.6761832733       -1.6695219317
 H          3.2592712241        0.1392204326        1.3891688169
 O         -0.2972140267        0.0091365056        1.1321818248
 O         -3.5955866009       -0.4404390534       -0.1916739831
 O         -2.7442915097        1.9860162628        0.3630125494
 O         -0.5560846809       -2.6130647465       -0.1431849777
 C         -2.2163588018       -0.2640871071       -0.2236591532
 C         -1.4993393243       -0.7445376305        1.0531464440
 C         -1.7816162790        1.2168982916       -0.3107210643
 C         -0.4286516115        1.2332273749        0.4339710900
 C         -1.1930059341       -2.2395017747        1.0588062281
 H         -1.8340174581       -0.8208169995       -1.0843121576
 H         -2.1271504929       -0.5130850804        1.9266088523
 H         -1.6711491452        1.5279587405       -1.3517629689
 H         -0.4186499026        2.0579027578        1.1609009717
 H         -0.5441036405       -2.4550578968        1.9168621287
 H         -2.1475849577       -2.7646753441        1.1738848646
 H         -3.9836825543        0.3124359968        0.2888681861
 H         -2.7602837165        2.8921615801        0.0270833986
 H         -0.5167375305       -3.5789463455       -0.1776892219
