30
barbituric_acid_Clink_ribose  charge=0 mult=1  seed=1_b3lyp_pcm
O      1.05300500    -1.78739800     1.60759800
O      1.33355800     2.18493900    -0.79759900
O      4.92455100    -0.50501000    -0.33543500
N      2.93954000    -1.24363900     0.49964800
N      3.07223700     0.77675900    -0.65250000
C      0.85098900    -0.10234100    -0.12139300
C      1.58841100    -1.10776500     0.76581600
C      1.73663400     1.07204900    -0.52107000
C      3.73348000    -0.34859900    -0.18562800
H      0.70114700    -0.63962100    -1.06855300
H      3.42929200    -1.98733300     0.97960400
H      3.66332900     1.50046200    -1.04064500
O     -1.33592000    -0.95829100     0.21910300
O     -3.18310100     1.37945200     1.37455200
O     -1.15784800     2.63382100     0.19293000
O     -3.09124100    -2.70761900    -1.08386700
C     -2.81382900     0.90404400     0.08530600
C     -2.73844800    -0.61948800     0.12015000
C     -1.37708000     1.31984400    -0.26661900
C     -0.54991600     0.21707000     0.42540500
C     -3.30024600    -1.30042500    -1.11754700
H     -3.52169800     1.26612800    -0.66420400
H     -3.24876500    -0.99346200     1.00996000
H     -1.24297100     1.25454200    -1.34945000
H     -0.47907100     0.44789800     1.49260600
H     -4.37767300    -1.14483800    -1.16043200
H     -2.85419300    -0.86785900    -2.01929300
H     -2.86537600     2.28860700     1.44642700
H     -0.26598000     2.87746900    -0.09561400
H     -2.14448500    -2.85931400    -0.98520400
