15
calc_e889e882f0b960f8; angstrom; atom order from source job; valid
O -1.368883 1.894909 0.000000
O 2.867587 0.224379 -0.000000
N 0.725853 1.024865 -0.000000
N 1.110719 -1.237951 0.000000
C -1.151536 -0.475765 0.000000
C -0.658400 0.886030 0.000000
C -0.239975 -1.471307 0.000000
C -2.628299 -0.716591 -0.000000
C 1.655931 0.014775 -0.000000
H -0.520387 -2.514050 0.000000
H 1.092872 1.969080 -0.000000
H 1.756126 -2.015269 0.000000
H -3.099338 -0.270780 0.877724
H -3.099338 -0.270778 -0.877723
H -2.841900 -1.783764 -0.000001
