37
calc_e4c1a7e3bbfa378a; angstrom; atom order from source job; valid
P -2.897714 -1.816563 -0.260815
O -0.706766 1.013319 1.422878
O 0.524787 2.727185 -1.483988
O -1.353667 3.823346 0.029089
O -2.713456 -0.243066 -0.298830
O -2.293444 -2.126606 -1.697405
O -4.462958 -2.111025 -0.330164
O -2.310410 -2.526696 0.884845
O 5.357625 -0.335330 -0.502499
N 1.312022 0.327709 0.501750
N 2.189247 -1.708997 0.634762
N 3.196099 1.655276 -0.213652
N 4.841587 -2.493595 -0.004003
C -0.278116 1.848008 -0.730673
C -1.610896 2.453054 -0.267198
C 0.361753 1.424618 0.606816
C -1.937954 1.642431 1.002581
C -3.008536 0.584030 0.849954
C 2.622108 0.454842 0.114935
C 1.103932 -1.007614 0.795697
C 3.162370 -0.817855 0.204498
C 4.528911 -1.182498 -0.125596
H -0.464519 0.957625 -1.328337
H -2.386710 2.364658 -1.024850
H 0.897315 2.273688 1.045163
H -2.263260 2.327479 1.787781
H -3.978162 1.053772 0.691388
H -3.046814 -0.025263 1.751483
H 0.295482 3.626150 -1.205114
H -2.159289 4.337739 -0.076577
H 0.143934 -1.372427 1.115203
H 4.134036 1.530023 -0.571259
H 2.623264 2.278288 -0.769152
H -2.098032 -3.060452 -1.843946
H -4.922865 -1.706361 -1.076839
H 4.150370 -3.156177 0.302747
H 5.773134 -2.806165 -0.214944
