37
calc_e4c1a7e3bbfa378a; angstrom; first printed source-job orientation; unoptimized start
P -0.114629 -2.743951 -0.660430
O -0.993463 -0.716599 1.160609
O -2.310463 2.037015 -0.612098
O -3.997035 0.066176 -0.421092
O -1.632071 -3.152732 -0.305928
O 0.285343 -4.013194 -1.514861
O 0.740486 -2.919204 0.644534
O 0.045860 -1.471493 -1.379795
O 2.894093 4.384092 -0.220710
N 0.508844 1.006527 0.687778
N 2.721621 0.876297 0.673647
N 0.175951 3.366691 0.279052
N 4.575469 2.902583 0.130998
C -1.669976 0.801975 -0.527629
C -2.672799 -0.385488 -0.482669
C -0.870725 0.635186 0.797195
C -2.318100 -1.102111 0.833756
C -2.378038 -2.618462 0.770341
C 0.961549 2.265905 0.396480
C 1.619981 0.218227 0.840272
C 2.347789 2.174334 0.390832
C 3.277328 3.241122 0.080832
H -0.982333 0.700585 -1.371304
H -2.498697 -1.054583 -1.326567
H -1.343430 1.274346 1.568378
H -3.011760 -0.745641 1.610993
H -3.405775 -2.948091 0.607486
H -1.995744 -3.012029 1.715562
H -3.228939 1.921980 -0.295359
H -4.392089 0.087667 -1.304639
H 1.544864 -0.821401 1.070735
H 0.697018 4.163468 -0.066466
H -0.750890 3.238466 -0.105491
H 0.093104 -3.951314 -2.455401
H 0.926459 -3.839705 0.873809
H 4.809143 1.953748 0.368131
H 5.282479 3.581755 -0.091051
