30
calc_b3206e392651470f; angstrom; atom order from source job; valid
O -1.016894 -0.704138 0.962688
O -0.889307 2.322308 -0.959019
O -2.998158 1.752281 0.502109
O -4.172212 -1.941402 -0.326268
O 4.925209 -1.107709 -0.161689
N 1.076928 -0.010765 0.170724
N 3.373433 0.545366 0.049377
N 1.804274 2.207228 0.318824
C -1.116275 0.954299 -0.699824
C -2.559540 0.640373 -0.275468
C -0.303305 0.409912 0.494815
C -2.406531 -0.636832 0.560693
C -2.756689 -1.922812 -0.173541
C 2.117085 0.894099 0.164907
C 1.378377 -1.332689 -0.070508
C 2.650049 -1.738590 -0.227516
C 3.731811 -0.776480 -0.108802
H -0.854073 0.391712 -1.594889
H -3.216746 0.487983 -1.129060
H -0.217445 1.173694 1.271589
H -3.019125 -0.559570 1.459549
H -2.256352 -1.960077 -1.145661
H -2.410989 -2.771143 0.422197
H -1.558941 2.813869 -0.458217
H -3.956749 1.819825 0.463038
H 0.534779 -2.000471 -0.099057
H -4.419619 -2.709432 -0.849477
H 2.874943 -2.777517 -0.411159
H 2.591167 2.828337 0.221484
H 0.927702 2.551594 -0.053907
