35
calc_d27725ceb33b570d; angstrom; first printed source-job orientation; unoptimized start
N -1.481545 -1.299736 0.804089
N -3.680674 -0.991417 0.513943
N -4.172594 -3.200564 -0.359890
N -2.278231 -4.635910 -0.521339
C -1.966962 -2.476737 0.297920
C -3.367007 -2.259200 0.120386
C -1.453693 -3.713590 -0.049707
C -2.552336 -0.471689 0.907987
C -3.567555 -4.336335 -0.647940
H -0.407466 -3.974949 0.032204
H -2.455088 0.523093 1.294474
H -4.197312 -5.123181 -1.038315
P 2.171067 3.397661 -0.672385
O 0.031887 0.290274 1.597622
O 2.924665 -0.225632 0.515350
O 1.590494 -2.403195 0.025270
O 0.821806 2.661789 -1.112204
O 1.661034 4.411877 0.434915
O 2.507093 4.209659 -1.966126
O 3.289259 2.542405 -0.242245
C 1.692544 0.050470 -0.088529
C 0.850885 1.050916 0.719051
C 0.841599 -1.238983 -0.064604
C -0.100817 -1.027875 1.157619
C 0.014401 1.962043 -0.183416
H 1.839306 0.407708 -1.113227
H 1.494798 1.670656 1.350064
H 0.232193 -1.307626 -0.973096
H 0.182874 -1.711705 1.971520
H -0.536006 2.675082 0.435881
H -0.687325 1.375829 -0.782837
H 3.502621 0.544693 0.389466
H 2.455925 -2.179106 0.414703
H 2.346321 4.824714 0.972056
H 1.797573 4.749029 -2.339887
