32
calc_64bda940952af5ef; angstrom; atom order from source job; valid
O -1.355729 0.292760 -1.104915
O -1.527876 -2.007923 1.632500
O -3.756979 -1.341349 0.131003
O -1.915268 3.024879 -0.958965
O 1.180946 -2.563933 -1.101024
O 4.589900 0.148531 0.100334
N 0.648503 -0.515181 -0.216960
N 2.847222 -1.162747 -0.485607
C -1.546836 -0.759987 0.990740
C -2.939160 -0.272761 0.567524
C -0.784420 -0.744023 -0.339847
C -2.599992 0.734158 -0.525072
C -2.443422 2.144996 0.015778
C 1.100738 0.682867 0.287993
C 1.524364 -1.487648 -0.635065
C 2.397161 0.994899 0.431251
C 3.373477 0.007882 0.023923
C 2.868954 2.298922 0.985050
H -1.111754 -0.036874 1.680098
H -3.465441 0.192932 1.397274
H -0.899124 -1.701087 -0.845284
H -3.347880 0.721442 -1.317899
H -3.425611 2.523519 0.295764
H -1.812774 2.140625 0.910496
H -2.136651 -2.588187 1.162405
H -3.470540 -1.647647 -0.733807
H 0.326856 1.384608 0.561840
H 3.504531 -1.871357 -0.784367
H -1.041799 2.703199 -1.199126
H 3.470609 2.144645 1.881893
H 3.491981 2.827031 0.261968
H 2.022382 2.933096 1.241603
