37
calc_898ca1c71f1e1d6d; angstrom; atom order from source job; valid
P -3.415689 -1.101769 -0.006262
O -0.133990 1.449700 1.027926
O 1.728062 3.639153 -1.145201
O -0.579591 4.508540 0.141755
O -2.394868 0.040066 0.443406
O 4.228136 -3.106095 -0.237172
O -3.574831 -1.932042 1.336821
O -2.664229 -2.092999 -0.958642
O -0.327598 -3.137321 -0.342895
O -4.661329 -0.588721 -0.616002
N 2.057470 0.870182 0.477750
N 0.681777 -1.129599 0.048675
N 4.079546 -0.092309 0.345828
N 1.947269 -3.046911 -0.290597
C 0.777184 2.673502 -0.760949
C 1.096888 1.968501 0.568576
C -0.632113 3.232402 -0.484008
C -1.249247 2.139739 0.393010
C -2.082036 1.162711 -0.414813
C 1.852211 -0.445036 0.199318
C 3.431299 1.019914 0.554018
C 3.095225 -1.034499 0.121712
C 3.202992 -2.434906 -0.138493
C 0.706762 -2.470508 -0.202329
H 0.722382 1.932331 -1.557042
H 1.520210 2.681995 1.279549
H -1.186534 3.376455 -1.407801
H -1.854761 2.571245 1.188703
H -1.537645 0.799948 -1.286888
H -3.000005 1.651704 -0.736318
H 1.568329 4.436589 -0.620315
H -0.300608 4.424127 1.062584
H 3.869115 1.979382 0.770104
H -0.216273 -0.687456 0.202229
H 1.952063 -4.041338 -0.485099
H -4.035653 -1.466823 2.049716
H -1.780805 -2.454328 -0.653292
