15
calc_aa4f8869f52bb371; angstrom; atom order from source job; valid
O -0.988820 2.460447 -0.000000
O -1.837224 -2.016991 -0.000000
N 0.773959 1.009376 0.000000
N -1.388312 0.209662 0.000000
C 1.283260 -0.268527 -0.000000
C 0.439268 -1.326631 -0.000000
C -0.569594 1.314262 0.000000
C -0.988767 -1.131168 0.000000
C 2.771978 -0.378589 0.000000
H 1.398942 1.801370 -0.000000
H 0.814539 -2.336314 -0.000000
H 3.190353 0.112565 0.880069
H 3.080119 -1.419443 0.000000
H 3.190353 0.112564 -0.880069
H -2.382360 0.392257 0.000000
