15
calc_aa4f8869f52bb371; angstrom; first printed source-job orientation; unoptimized start
O 0.990370 -0.072170 -0.096460
O 4.823540 2.377910 -0.084550
N 2.990630 -1.144310 -0.094860
N 2.893320 1.168260 -0.092620
C 4.362750 -1.134310 -0.092810
C 5.019350 0.032900 -0.089180
C 2.215250 -0.016190 -0.094730
C 4.252260 1.293840 -0.088480
C 5.076170 -2.450770 -0.095230
H 2.478290 -2.019160 -0.096760
H 6.098450 0.112970 -0.087060
H 5.708120 -2.542450 -0.984940
H 5.707050 -2.546840 0.794740
H 4.377270 -3.293880 -0.097860
H 2.346260 2.014050 -0.092620
