30
calc_37bcfc83bab04f8a; angstrom; atom order from source job; valid
O 1.162960 -0.915756 -0.357590
O 1.039686 2.570709 -0.016250
O 3.440831 1.706566 0.484534
O 3.472972 -2.682772 -0.666251
O -1.565670 2.043757 -0.745231
N -1.025134 -0.095777 -0.183504
N -3.279035 0.634754 -0.226640
N -4.971412 -0.794740 0.336814
C 0.996077 1.269261 0.528715
C 2.444551 0.738509 0.734383
C 0.375624 0.244380 -0.454484
C 2.524151 -0.470624 -0.219730
C 3.364507 -1.624007 0.279137
C -1.409819 -1.328403 0.236538
C -1.974999 0.921595 -0.401930
C -2.716571 -1.615838 0.437958
C -3.656316 -0.575386 0.177868
H 0.444469 1.261133 1.470517
H 2.566564 0.400785 1.763629
H 0.419227 0.661905 -1.464915
H 2.893196 -0.132040 -1.193840
H 4.377504 -1.266126 0.459469
H 2.956388 -1.987629 1.227310
H 0.147398 2.727104 -0.377903
H 3.028977 2.412808 -0.033209
H -0.619283 -2.044032 0.389779
H 2.596638 -3.054430 -0.810721
H -3.023968 -2.594105 0.769904
H -5.323389 -1.680562 0.652213
H -5.624119 -0.051437 0.156649
