34
calc_ab502b59d8237787; angstrom; first printed source-job orientation; unoptimized start
P -0.740312 2.240099 0.122603
O 1.172693 0.352232 0.871342
O 4.152142 -0.483761 -0.491988
O 3.069396 -2.278444 1.039681
O 0.679506 2.596898 -0.547855
O 0.128465 -1.263542 -1.711644
O -1.498234 3.619491 -0.070327
O -0.599604 2.190734 1.679981
O -1.409687 1.071034 -0.470263
O -4.195555 -1.873607 -0.608193
N -0.351119 -1.416014 0.518964
N -1.997022 -1.685298 -1.098974
C 2.766742 -0.558149 -0.676824
C 2.143163 -1.711253 0.163979
C 2.124041 0.722145 -0.115775
C 0.992882 -1.037148 0.947571
C 1.420575 1.568529 -1.175833
C -0.688897 -1.414405 -0.818636
C -1.332820 -1.483159 1.467659
C -2.631305 -1.662448 1.174327
C -3.050431 -1.744496 -0.202398
H 2.495906 -0.679978 -1.727469
H 1.754013 -2.508395 -0.473064
H 2.888940 1.327061 0.387285
H 1.067225 -1.326880 2.003100
H 0.744397 0.930933 -1.752303
H 2.141834 2.060323 -1.828518
H 4.606212 -1.086911 -1.098708
H 3.831182 -1.671109 1.114421
H -0.993486 -1.388883 2.487633
H -2.240199 -1.668989 -2.085092
H -3.385402 -1.713357 1.938798
H -1.814621 3.807655 -0.959333
H -0.292990 3.009605 2.090076
