  34
        -75.53405274
 O         -0.2850826587        1.0919848173       -1.9098089591
 O          1.1002668738        1.3687575379        2.4172371192
 O          4.0910329422        1.5544229218       -0.9619184023
 N          0.3014599199        1.3835987551        0.2774247174
 N          1.8716068017        1.5209978233       -1.4416644753
 N          2.5855684922        1.5497179096        0.7374534219
 C          0.5709082247        1.2842315580       -1.0754661613
 C          1.3140100283        1.4119600480        1.2290296371
 C          2.9439280194        1.5272216574       -0.5867168765
 H          2.0755272288        1.4389137527       -2.4343711753
 H          3.3354795388        1.5319617435        1.4237416027
 P          0.6921964185       -2.2408029815        0.1449173345
 O         -1.2028690803       -0.3543993884        0.8132541238
 O         -4.2412721841        0.3862971551       -0.4607678135
 O         -3.1007783328        2.2860880311        0.9015322725
 O         -0.7256494676       -2.6563235582       -0.4877235954
 O          0.5867331294       -2.1348546519        1.7010634307
 O          1.4792327418       -3.6075636967       -0.0113062050
 O          1.3367685121       -1.0844850257       -0.5041178501
 C         -2.8677836426        0.4595210743       -0.7157240403
 C         -2.1914834323       -0.7841836594       -0.1143851112
 C         -2.2111613181        1.6619907010        0.0280827285
 C         -1.0281079862        1.0339850527        0.7963539004
 C         -1.5197979696       -1.6883400125       -1.1480799790
 H         -2.6521727081        0.5221755612       -1.7846232412
 H         -2.9300063742       -1.3634598128        0.4535836978
 H         -1.8534741518        2.4225032712       -0.6685549636
 H         -1.0215564996        1.3885178137        1.8350036786
 H         -2.2597097290       -2.2424259908       -1.7257013962
 H         -0.8880827444       -1.0824298991       -1.8028736387
 H         -4.7234277499        0.9921731880       -1.0432932158
 H         -3.8183317840        1.6597811070        1.1154362014
 H          0.2864616289       -2.9356199033        2.1499793633
 H          1.7699899849       -3.8342973138       -0.9005422152
  34
        -75.53366096
 O         -0.2934562188        1.1539832540       -1.9507514928
 O          1.1266331898        1.1907264313        2.3570754956
 O          4.0890402896        1.6323510931       -1.0190073342
 N          0.3080341444        1.4009802282        0.2384111706
 N          1.8680485823        1.5597074102       -1.4849363888
 N          2.5964763402        1.5497821717        0.6906486204
 C          0.5674684429        1.3318607432       -1.1183187959
 C          1.3336359168        1.3504393948        1.1773608916
 C          2.9463337952        1.5711282790       -0.6363921472
 H          2.0674764414        1.5003788374       -2.4802019808
 H          3.3521734247        1.4980650429        1.3692510372
 P          0.6802535371       -2.2700562236        0.2163962421
 O         -1.2071808123       -0.3182998218        0.8391209885
 O         -4.2274968019        0.3775353090       -0.4634171868
 O         -3.1005602341        2.2968114074        0.8733881789
 O         -0.7049688387       -2.6545122036       -0.5019964841
 O          0.4424409717       -2.3484329655        1.7778629286
 O          1.5385513166       -3.5580419016       -0.0236491212
 O          1.3445326340       -1.0674931737       -0.3161635515
 C         -2.8562401319        0.4579339056       -0.7266768901
 C         -2.1638850648       -0.7723368236       -0.1144241938
 C         -2.2091995581        1.6769535414       -0.0014552922
 C         -1.0199270116        1.0710758984        0.7722355590
 C         -1.4657019262       -1.6538596427       -1.1507938663
 H         -2.6448333903        0.5092073618       -1.7967231075
 H         -2.8967746908       -1.3716154299        0.4387158674
 H         -1.8632789235        2.4325863299       -0.7092177959
 H         -1.0106560038        1.4573743968        1.7992747049
 H         -2.1964386101       -2.1780919919       -1.7669421538
 H         -0.8088597244       -1.0401519422       -1.7722712382
 H         -4.7222020811        0.9395385076       -1.0780328335
 H         -3.8380174537        1.6812586419        1.0520174047
 H         -0.0799004800       -1.6375460526        2.1629022086
 H          1.1717256261       -4.3793419342        0.3265347795
  34
        -75.53321492
 O         -0.2861153694        1.0844024877       -1.9184275683
 O          1.0848923123        1.3775971416        2.4117462094
 O          4.0885660277        1.5304018676       -0.9574828560
 N          0.2939251182        1.3881345018        0.2689992130
 N          1.8705268940        1.5129150545       -1.4455128318
 N          2.5771574819        1.5449822361        0.7363859072
 C          0.5683406643        1.2782542587       -1.0831935595
 C          1.3038238905        1.4144686466        1.2244503241
 C          2.9399915436        1.5133134409       -0.5866400912
 H          2.0777430383        1.4224168813       -2.4367822874
 H          3.3249889020        1.5234093777        1.4248867873
 P          0.6998157014       -2.2384941141        0.1403836873
 O         -1.2036426375       -0.3513108372        0.8171384576
 O         -4.2721197343        0.4313894122       -0.5108496332
 O         -3.0659308012        2.2499397129        0.9469886160
 O         -0.7155029542       -2.6582919937       -0.4932555620
 O          0.5924733156       -2.1327827054        1.6966243309
 O          1.4925989307       -3.6015530219       -0.0156198424
 O          1.3403193883       -1.0778991279       -0.5051233102
 C         -2.8928624633        0.4445090633       -0.6977897980
 C         -2.1937109307       -0.7982249427       -0.1028951925
 C         -2.2091840130        1.6536789609        0.0120606194
 C         -1.0354224932        1.0366943437        0.7850275348
 C         -1.5187426925       -1.6900735312       -1.1441295519
 H         -2.7216985645        0.4944447459       -1.7740384442
 H         -2.9058323923       -1.4009770596        0.4736789700
 H         -1.8502924977        2.3850646139       -0.7151814615
 H         -1.0414020308        1.4007842649        1.8207692588
 H         -2.2584966045       -2.2434788520       -1.7225077807
 H         -0.8946911802       -1.0768853325       -1.7989757502
 H         -4.4653666722        0.6031022402        0.4278608511
 H         -3.7116037097        2.8076896338        0.4854691625
 H          0.2929071911       -2.9340845235        2.1449051388
 H          1.7798657069       -3.8301115962       -0.9056309805
  34
        -75.53295786
 O          1.1117872308        1.3993181062        2.4083860650
 O         -0.2976959484        1.1198813955       -1.9121967324
 O          4.0910396364        1.4917946373       -0.9840524100
 N          0.3029471959        1.4004280303        0.2723091086
 N          2.5929434280        1.5358747643        0.7211796174
 N          1.8688360595        1.5110787948       -1.4543868868
 C          1.3226007778        1.4215732492        1.2189227802
 C          0.5659773594        1.2934078985       -1.0828178159
 C          2.9452450311        1.4935485936       -0.6047003699
 H          3.3456845707        1.5072501580        1.4041104708
 H          2.0662461520        1.4194531591       -2.4474949146
 P          0.6892208832       -2.2348527106        0.1438145831
 O         -1.1864495255       -0.3518328765        0.8140247174
 O         -4.2482734223        0.4388195024       -0.6173534485
 O         -3.1587493645        2.1423466776        0.9863724697
 O         -0.7330065019       -2.6624114834       -0.4689586263
 O          0.6049720547       -2.1219682544        1.7012405037
 O          1.4837632736       -3.5973913658       -0.0145411166
 O          1.3222309152       -1.0781199812       -0.5163016777
 C         -2.8609491727        0.4679751040       -0.7078049205
 C         -2.1940908072       -0.7844939775       -0.0925467365
 C         -2.2226138786        1.6586805817        0.0634748977
 C         -1.0199187900        1.0368602116        0.8027136849
 C         -1.5396067805       -1.7007557013       -1.1247492359
 H         -2.6060408038        0.5364050757       -1.7676997585
 H         -2.9256409891       -1.3550616557        0.4918372034
 H         -1.8972048612        2.4332875117       -0.6315452720
 H         -0.9990767956        1.3715609586        1.8480388759
 H         -2.2896644387       -2.2570565011       -1.6863630501
 H         -0.9184891601       -1.1019383061       -1.7962701229
 H         -4.5116424338        0.8585647857        0.2224252233
 H         -3.0510095739        3.0918036909        1.1328427783
 H          0.3060457274       -2.9193053045        2.1571093406
 H          1.7475827946       -3.8372316902       -0.9086627839
  34
        -75.53278684
 O         -0.2931452761        1.1405766107       -1.9587775034
 O          1.1111743472        1.2087782440        2.3539891576
 O          4.0876502945        1.6113601092       -1.0145039956
 N          0.3011366962        1.4046564958        0.2306001157
 N          1.8679322949        1.5474061171       -1.4886463536
 N          2.5883130207        1.5501662226        0.6899641681
 C          0.5660048213        1.3220270815       -1.1255681061
 C          1.3237212841        1.3575005470        1.1739414381
 C          2.9432595844        1.5585406656       -0.6361310550
 H          2.0708895337        1.4778397071       -2.4825583522
 H          3.3418022304        1.4987973144        1.3710521015
 P          0.6864828933       -2.2689179254        0.2102775507
 O         -1.2067608994       -0.3172289894        0.8414143264
 O         -4.2601191920        0.4175951734       -0.5069500210
 O         -3.0628603215        2.2679028255        0.9156570221
 O         -0.6941250050       -2.6558245343       -0.5139831311
 O          0.4428726727       -2.3517972947        1.7710942318
 O          1.5500056456       -3.5529442212       -0.0304533649
 O          1.3487989657       -1.0610996093       -0.3129204919
 C         -2.8831918544        0.4426047572       -0.7059149319
 C         -2.1660189558       -0.7871480065       -0.1040759647
 C         -2.2060494852        1.6676249135       -0.0168485111
 C         -1.0264274527        1.0714318383        0.7614714912
 C         -1.4663385658       -1.6544797242       -1.1501648386
 H         -2.7211919147        0.4814396178       -1.7840340892
 H         -2.8718586611       -1.4105106571        0.4569035522
 H         -1.8579151580        2.3918909876       -0.7556488090
 H         -1.0287300491        1.4651828453        1.7861591241
 H         -2.1985205743       -2.1776320874       -1.7655024592
 H         -0.8191837123       -1.0325275037       -1.7729648687
 H         -4.4483893052        0.6050551193        0.4298708828
 H         -3.7117848577        2.8199704724        0.4523763882
 H         -0.0744188578       -1.6371779796        2.1562155396
 H          1.1822378760       -4.3773424696        0.3113856294
  34
        -75.53226878
 O          1.0891809482        1.3700625477        2.4175449891
 O         -0.2771890829        1.0818568208       -1.9131719229
 O          4.0952677387        1.5495497183       -0.9479707486
 N          0.3002187434        1.3853439895        0.2743250813
 N          2.5824089620        1.5494700232        0.7445013020
 N          1.8778084314        1.5145489788       -1.4378914768
 C          1.3087232325        1.4125603128        1.2304887127
 C          0.5756054477        1.2790527620       -1.0765936285
 C          2.9465171009        1.5219082554       -0.5780007445
 H          3.3295240301        1.5290402635        1.4337599986
 H          2.0871815168        1.4230106556       -2.4285006013
 P          0.6996089291       -2.2531068884        0.1411380091
 O         -1.2155380202       -0.3377415664        0.8281228027
 O         -4.2406840354        0.3931019847       -0.4803286418
 O         -3.1053072675        2.3023832349        0.8715762158
 O         -0.7405620562       -2.6637838190       -0.4412353023
 O          0.6260086276       -2.1105816702        1.7059278242
 O          1.5097988588       -3.5906382791       -0.1036341734
 O          1.3456834945       -1.0965364080       -0.4939740318
 C         -2.8650732797        0.4594568643       -0.7253619065
 C         -2.1968149946       -0.7779203041       -0.1022075078
 C         -2.2113282333        1.6695707445        0.0086312319
 C         -1.0341225984        1.0484939652        0.7910311839
 C         -1.5221357735       -1.6973822607       -1.1201627670
 H         -2.6403577995        0.5083853455       -1.7931103649
 H         -2.9414317919       -1.3471862936        0.4681094670
 H         -1.8487238018        2.4220364267       -0.6942785776
 H         -1.0310581662        1.4182100204        1.8243391403
 H         -2.2612344952       -2.2521660727       -1.6982829358
 H         -0.8798163866       -1.1054602528       -1.7770378193
 H         -4.7172899663        0.9881131300       -1.0781783065
 H         -3.8332613170        1.6835356725        1.0731331275
 H          0.1459018709       -2.7879299834        2.1977500664
 H          1.0010637297       -4.4042818990       -0.2101271840
  34
        -75.53142184
 O          1.0716212861        1.3808232232        2.4114104847
 O         -0.2775461473        1.0734948422       -1.9231732905
 O          4.0926538698        1.5271565902       -0.9423982161
 N          0.2919495222        1.3894798198        0.2648032035
 N          2.5728490993        1.5453105545        0.7436157083
 N          1.8769586390        1.5061681986       -1.4418995550
 C          1.2971547981        1.4155942397        1.2253989424
 C          0.5731242858        1.2724990907       -1.0851674709
 C          2.9422669411        1.5085772022       -0.5774556505
 H          3.3174087559        1.5222325946        1.4355763507
 H          2.0901285138        1.4066369631       -2.4310102131
 P          0.7080198430       -2.2507742854        0.1404461092
 O         -1.2177590013       -0.3344503953        0.8312447896
 O         -4.2701070940        0.4356065273       -0.5378928528
 O         -3.0736759716        2.2659724425        0.9122416443
 O         -0.7284017223       -2.6663621288       -0.4455732516
 O          0.6318993150       -2.1024425931        1.7045006318
 O          1.5207354592       -3.5887534576       -0.0934780109
 O          1.3502924947       -1.0914502058       -0.4942089334
 C         -2.8890930203        0.4440586910       -0.7117508453
 C         -2.1985909423       -0.7921456090       -0.0931675589
 C         -2.2097335657        1.6605291064       -0.0103104695
 C         -1.0424800383        1.0510486962        0.7783283774
 C         -1.5182186194       -1.6998474722       -1.1167498940
 H         -2.7061715340        0.4799955937       -1.7866102728
 H         -2.9187996667       -1.3842128182        0.4845657216
 H         -1.8450981099        2.3838671896       -0.7424608075
 H         -1.0521416878        1.4308935296        1.8083320146
 H         -2.2558013917       -2.2544201011       -1.6969187847
 H         -0.8822969146       -1.1008234472       -1.7728816034
 H         -4.4714997730        0.6302797644        0.3948155306
 H         -3.7080758105        2.8289938758        0.4418747070
 H          0.1839696960       -2.7992373178        2.1995255908
 H          1.0121339896       -4.3938341949       -0.2524374834
  34
        -75.53124460
 O         -0.2897024768        1.1153184886       -1.9154135221
 O          1.1004557661        1.3957859953        2.4099354272
 O          4.0956855492        1.4865306712       -0.9681056778
 N          0.3017221762        1.4024219166        0.2703065448
 N          1.8754974369        1.5065474338       -1.4490487762
 N          2.5899195179        1.5332697021        0.7299932432
 C          0.5707473104        1.2912276296       -1.0830314418
 C          1.3172671196        1.4195986787        1.2217030488
 C          2.9481553840        1.4879440551       -0.5942143349
 H          2.0781580900        1.4069282824       -2.4403001912
 H          3.3396646238        1.5002296174        1.4160039348
 P          0.6965063753       -2.2474926571        0.1385268515
 O         -1.1990026122       -0.3355089874        0.8284624474
 O         -4.2458816812        0.4431696918       -0.6390314981
 O         -3.1653917854        2.1589169357        0.9579360551
 O         -0.7473632529       -2.6689798460       -0.4246667290
 O          0.6434383346       -2.0986917297        1.7040065785
 O          1.5111106935       -3.5825109509       -0.1079115383
 O          1.3311241777       -1.0898443009       -0.5069158375
 C         -2.8577962843        0.4689279427       -0.7177500544
 C         -2.1991642967       -0.7775033534       -0.0816232464
 C         -2.2234144954        1.6669267991        0.0452904159
 C         -1.0261935933        1.0512912322        0.7982524460
 C         -1.5413273257       -1.7081420150       -1.0983967087
 H         -2.5925790176        0.5245629170       -1.7758304082
 H         -2.9372717835       -1.3383152807        0.5041380815
 H         -1.8937593353        2.4349318663       -0.6549730616
 H         -1.0085485193        1.4001823616        1.8389554748
 H         -2.2904790884       -2.2643748526       -1.6614172700
 H         -0.9092545757       -1.1227646831       -1.7711364104
 H         -4.5159215216        0.8773100147        0.1913494457
 H         -3.0535558094        3.1081933979        1.1024543166
 H          0.1766153349       -2.7789339450        2.2045733127
 H          1.0040637549       -4.3953559359       -0.2273955416
  34
        -75.53109700
 O         -0.3277167253        1.3375988323       -1.9940504101
 O          1.1377710586        0.6461679535        2.1977292138
 O          4.0633334882        1.7446088084       -1.0510475156
 N          0.2999142829        1.3736116446        0.2065605421
 N          1.8404825521        1.6819818271       -1.5061680308
 N          2.5923817119        1.3920619702        0.6446056554
 C          0.5386678677        1.4358217313       -1.1550790081
 C          1.3372641119        1.0812997311        1.0851163541
 C          2.9268339156        1.6111268657       -0.6701857610
 H          2.0305316777        1.7507051259       -2.5030636131
 H          3.3569435488        1.2126206062        1.2911297514
 P          0.6928595240       -2.2036997058        0.3077704386
 O         -1.2355361915       -0.3091975634        0.8460983395
 O         -4.2266376221        0.3700521549       -0.5279173022
 O         -3.1267619794        2.2662162876        0.8820237000
 O         -0.6630681811       -2.6207418045       -0.4387215615
 O          0.4606043269       -2.1545046427        1.8572290588
 O          1.4823349131       -3.5656938924        0.2470638478
 O          1.3876491900       -1.0585051425       -0.3257725741
 C         -2.8498079935        0.4608039424       -0.7534190073
 C         -2.1667388159       -0.7678051323       -0.1254248684
 C         -2.2260452092        1.6784601950       -0.0057151793
 C         -1.0310310743        1.0725650060        0.7582024198
 C         -1.4221355175       -1.6456464823       -1.1301550178
 H         -2.6100105903        0.5180691822       -1.8177883363
 H         -2.9049089259       -1.3760581777        0.4098717650
 H         -1.8968175102        2.4568566049       -0.6955900903
 H         -1.0056365423        1.4681966370        1.7814216166
 H         -2.1177667095       -2.1937206762       -1.7654710622
 H         -0.7526991957       -1.0255063876       -1.7335842652
 H         -4.7057846516        0.9671233823       -1.1220682232
 H         -3.8306090203        1.6227437216        1.0881559281
 H          0.5240468397       -1.2764238474        2.2588713024
 H          1.7941145292       -3.8374140937       -0.6228252945
  34
        -75.53071573
 O          1.1339738595        1.1439564332        2.3962670557
 O         -0.2962747820        1.1856093648       -1.9111275390
 O          4.0894213990        1.6289011462       -0.9816147910
 N          0.3118077314        1.3811659271        0.2815454164
 N          2.6014369675        1.5132423347        0.7299729871
 N          1.8668284768        1.5802606600       -1.4424784239
 C          1.3385501554        1.3165661132        1.2177943001
 C          0.5673798067        1.3421354528       -1.0776851480
 C          2.9472425344        1.5660494215       -0.5973458716
 H          3.3585613275        1.4481052940        1.4057393771
 H          2.0626265786        1.5478357352       -2.4397010393
 P          0.6713543459       -2.2592150445        0.1419415523
 O         -1.2082002463       -0.3487586118        0.8300043099
 O         -4.2331511427        0.4085701184       -0.4360650590
 O         -3.0877881528        2.2766825302        0.9538006786
 O         -0.7197953772       -2.6364899197       -0.5606591151
 O          0.4987440107       -2.3374054606        1.7010411391
 O          1.4858910474       -3.5922235757       -0.0319017255
 O          1.3321187776       -1.0642333367       -0.4295543826
 C         -2.8621096835        0.4857831686       -0.7017140016
 C         -2.1775475904       -0.7668682405       -0.1275716531
 C         -2.2037135944        1.6781572702        0.0570611514
 C         -1.0155727804        1.0422681364        0.8081775604
 C         -1.4887590575       -1.6269187269       -1.1875227258
 H         -2.6541433845        0.5666393855       -1.7704897930
 H         -2.9125451367       -1.3741439910        0.4139229998
 H         -1.8552743630        2.4522505038       -0.6294041830
 H         -1.0025994232        1.3954808222        1.8470462232
 H         -2.2226283218       -2.1421830257       -1.8070507801
 H         -0.8372193583       -0.9986884451       -1.8002919574
 H         -4.7265242217        0.9847261458       -1.0385622043
 H         -3.8335740434        1.6641689211        1.1073992756
 H         -0.1037586404       -1.6959420103        2.0916025678
 H          1.9483966075       -3.6843944831       -0.8718092398
  34
        -75.53016680
 O         -0.3193227515        1.2982963279       -2.0040674981
 O          1.1204991525        0.6617123435        2.2004657299
 O          4.0641031009        1.7351880906       -1.0393201552
 N          0.2937909095        1.3774948597        0.1999924799
 N          1.8439574327        1.6666676696       -1.5075872015
 N          2.5833209072        1.4005618140        0.6512027162
 C          0.5417056177        1.4150728526       -1.1622526014
 C          1.3264728628        1.0904659781        1.0869319166
 C          2.9254001037        1.6049678707       -0.6642457022
 H          2.0407873155        1.7167384693       -2.5043236117
 H          3.3447087087        1.2258940157        1.3028925408
 P          0.6986665029       -2.2009987980        0.2960970771
 O         -1.2341400503       -0.3080396314        0.8476116332
 O         -4.2641576847        0.4139247394       -0.5528332185
 O         -3.0801769227        2.2533052374        0.9108298715
 O         -0.6548730772       -2.6228200682       -0.4502317124
 O          0.4670846410       -2.1594973316        1.8463292803
 O          1.4956718892       -3.5580219773        0.2296627009
 O          1.3879494869       -1.0485855609       -0.3303354783
 C         -2.8840270619        0.4410363363       -0.7272691707
 C         -2.1726163880       -0.7846500058       -0.1098783790
 C         -2.2201567898        1.6689009055       -0.0289764250
 C         -1.0380291463        1.0732022871        0.7446549776
 C         -1.4306173617       -1.6493415787       -1.1270489298
 H         -2.7053664017        0.4803221102       -1.8029237893
 H         -2.8802300384       -1.4153056048        0.4402131207
 H         -1.8831330414        2.4050110456       -0.7609286062
 H         -1.0281935694        1.4786745607        1.7646816668
 H         -2.1298748896       -2.1986999958       -1.7572286440
 H         -0.7752046273       -1.0206734365       -1.7363611780
 H         -4.4694626180        0.5520419532        0.3884207209
 H         -3.7518151099        2.7795759245        0.4494705487
 H          0.5169548574       -1.2826409017        2.2519012057
 H          1.8013043598       -3.8281568329       -0.6429002441
  34
        -75.52984865
 O         -0.2934367503        1.1256722450       -1.9461920686
 O          1.1069857583        1.2415851474        2.3713207747
 O          4.0854420101        1.6046351494       -1.0017113736
 N          0.2993070879        1.3932296390        0.2430387150
 N          1.8660009315        1.5413437284       -1.4765804341
 N          2.5851228425        1.5514178351        0.7022324404
 C          0.5650788427        1.3096718285       -1.1132591103
 C          1.3199834679        1.3680531331        1.1886234225
 C          2.9405821538        1.5554318258       -0.6238466444
 H          2.0686772041        1.4737561282       -2.4707377987
 H          3.3378705741        1.5128698300        1.3849588329
 P          0.6832199348       -2.2573054088        0.1912346108
 O         -1.2070588331       -0.3352351827        0.8339991791
 O         -4.2647850271        0.4194891084       -0.5005759692
 O         -3.0597738995        2.2570391813        0.9345362497
 O         -0.6950246864       -2.6533157453       -0.5247581069
 O          0.4889824616       -2.3179144340        1.7490113947
 O          1.5077076866       -3.5872639983        0.0457665412
 O          1.3450048645       -1.0642487832       -0.3831277884
 C         -2.8880122722        0.4423284033       -0.7006761781
 C         -2.1734366378       -0.7940344868       -0.1102483949
 C         -2.2063888872        1.6599536352       -0.0028596905
 C         -1.0274366076        1.0553793785        0.7700439559
 C         -1.4755644735       -1.6571635005       -1.1605748754
 H         -2.7283928626        0.4898777227       -1.7787569867
 H         -2.8794878972       -1.4191385696        0.4485653641
 H         -1.8567125592        2.3886682125       -0.7369028778
 H         -1.0306976447        1.4387025491        1.7986879479
 H         -2.2067142068       -2.1850489629       -1.7726582160
 H         -0.8333521836       -1.0303731103       -1.7837436409
 H         -4.4526719041        0.5844173387        0.4402705303
 H         -3.7175176728        2.8008947962        0.4738393392
 H         -0.1086142165       -1.6640746154        2.1263691833
 H          1.9766973092       -3.6903446995       -0.7891134898
  34
        -75.52944307
 O         -0.3033549315        1.1538324402       -1.9369144742
 O          1.1206746367        1.2717429585        2.3770419246
 O          4.0876694184        1.5498744200       -1.0135847873
 N          0.3036874030        1.4002853257        0.2502479166
 N          1.8646792036        1.5335756943       -1.4773023682
 N          2.5945737724        1.5364793944        0.6972944260
 C          0.5623997396        1.3179136155       -1.1077649428
 C          1.3296000147        1.3753866970        1.1912483207
 C          2.9438045904        1.5255359663       -0.6305033434
 H          2.0607924919        1.4620548078       -2.4724294893
 H          3.3499156537        1.4905928399        1.3766862852
 P          0.6808130946       -2.2501177760        0.1877726262
 O         -1.1993417503       -0.3363208136        0.8336677973
 O         -4.2478144957        0.4246928465       -0.5893608027
 O         -3.1391248887        2.1735249366        0.9621388562
 O         -0.7087303160       -2.6568015798       -0.4994277033
 O          0.5154589828       -2.2924220661        1.7495419878
 O          1.5108335987       -3.5773585008        0.0417296587
 O          1.3316186953       -1.0628138822       -0.4109669406
 C         -2.8636798987        0.4602213923       -0.7141453711
 C         -2.1762755337       -0.7839372975       -0.1044719612
 C         -2.2195487572        1.6651390224        0.0341739720
 C         -1.0199913296        1.0548379990        0.7852106969
 C         -1.4899455379       -1.6674752815       -1.1448769623
 H         -2.6345106446        0.5209451530       -1.7800855631
 H         -2.9014684433       -1.3833020787        0.4574405456
 H         -1.8907586302        2.4226083184       -0.6755165671
 H         -1.0054095841        1.4167415240        1.8213402182
 H         -2.2267221692       -2.1992743147       -1.7463297075
 H         -0.8473079962       -1.0520953458       -1.7795256837
 H         -4.4909524439        0.8348202876        0.2619203660
 H         -3.1848537945        3.1382807519        0.9230044409
 H         -0.1442137305       -1.6967860030        2.1201254575
 H          1.9796043095       -3.6786264052       -0.7935402046
  34
        -75.52935610
 O         -0.0801264056        0.3127962862       -1.6483143028
 O          0.8987400676        2.3489177098        2.3056093286
 O          4.1939042909        1.1857324797       -0.5548111119
 N          0.3024788029        1.4640495010        0.2858060494
 N          2.0274870881        0.9404821660       -1.1942047591
 N          2.5369791862        1.8515560689        0.8467483143
 C          0.6950990418        0.8379705627       -0.8818665251
 C          1.2220854036        1.9040653741        1.2297864304
 C          3.0167668767        1.3006791183       -0.3144443783
 H          2.3164173283        0.4520176105       -2.0375251513
 H          3.2192083343        2.1334880524        1.5463628469
 P          0.7030663037       -2.1460041038       -0.2450619028
 O         -1.2380962471        0.0236221954        1.3155626328
 O         -4.1701583987        0.1648854445       -0.5406006630
 O         -3.1280842893        2.4476749091        0.2091162704
 O         -0.8402989492       -2.1009108194       -0.6194593691
 O          0.8295268439       -3.6069523269        0.3769663263
 O          1.3649683938       -2.1861493345       -1.6647886334
 O          1.3142508483       -1.1200797500        0.6167339534
 C         -2.7717303183        0.1388886952       -0.5196898688
 C         -2.3115747995       -0.6763751480        0.7015631693
 C         -2.1727127793        1.5508665435       -0.2750049352
 C         -1.0726170555        1.3086698675        0.7787912132
 C         -1.8668308147       -2.0977733209        0.3607145261
 H         -2.3432775188       -0.2889434043       -1.4283985169
 H         -3.1436901744       -0.7394528690        1.4172401613
 H         -1.7414764875        1.9749228311       -1.1855989136
 H         -1.1660337559        2.0484429118        1.5853897238
 H         -1.5176156333       -2.5889367368        1.2704621792
 H         -2.7030771036       -2.6483990540       -0.0747280933
 H         -4.4893955390        0.3741727705       -1.4310083759
 H         -3.9470142185        1.9505767555        0.4027065010
 H          1.5671066602       -3.7277478365        0.9841218806
 H          0.9854565096       -2.8170973154       -2.2912928769
  34
        -75.52878340
 O         -0.0846232743        0.3332358347       -1.6646131537
 O          0.9153595372        2.3832240011        2.2788771915
 O          4.1996381030        1.1399398782       -0.5599480058
 N          0.3093051753        1.4760348843        0.2722069142
 N          2.0308816130        0.9325933309       -1.2070832058
 N          2.5497234314        1.8419963988        0.8319094812
 C          0.6967681226        0.8435644082       -0.8958322901
 C          1.2364594952        1.9149913309        1.2119120587
 C          3.0239245082        1.2754813221       -0.3248298372
 H          2.3135145830        0.4376628173       -2.0487719253
 H          3.2351354030        2.1178495723        1.5309560629
 P          0.6875551632       -2.1445326535       -0.2385710475
 O         -1.2165574363        0.0164200793        1.3085227326
 O         -4.1365700236        0.1385008621       -0.7078988628
 O         -3.2043016759        2.3354052919        0.3350967509
 O         -0.8557388931       -2.1011729957       -0.6071241328
 O          0.8190651884       -3.5998452981        0.3950528083
 O          1.3419155387       -2.1944747670       -1.6620746950
 O          1.3098269062       -1.1123529204        0.6084867442
 C         -2.7593778594        0.1502153513       -0.5164434796
 C         -2.3114310601       -0.6699646274        0.7143428642
 C         -2.1853472652        1.5613547434       -0.2366817148
 C         -1.0584658875        1.3076500134        0.7851257549
 C         -1.8861073447       -2.0952178910        0.3695952831
 H         -2.2956778544       -0.2643777293       -1.4140264032
 H         -3.1317585312       -0.7153629835        1.4443552703
 H         -1.7957668362        2.0135024825       -1.1506314896
 H         -1.1311286844        2.0249796176        1.6143977209
 H         -1.5456021671       -2.6023585193        1.2740939595
 H         -2.7286530596       -2.6265083669       -0.0773991555
 H         -4.5263017264        0.8486493486       -0.1669477352
 H         -3.0285623019        3.2798573219        0.2258267450
 H          1.5618645596       -3.7152076323        0.9970081759
 H          0.9519509568       -2.8222062634       -2.2850986485
  34
        -75.52873166
 O         -0.1416575548        0.7989028014       -1.8645320965
 O          1.0971630910        1.6965148828        2.4188847972
 O          4.1692608212        1.6627521357       -0.8884376593
 N          0.3592937705        1.4284465006        0.2756522059
 N          1.9726344872        1.4105551430       -1.4085870464
 N          2.6149834500        1.7886086972        0.7608620081
 C          0.6759111043        1.1455668525       -1.0452564390
 C          1.3423843843        1.6252422243        1.2370612886
 C          3.0148731245        1.6075774795       -0.5399582115
 H          2.2133186203        1.1933285214       -2.3719277394
 H          3.3440762109        1.9111783276        1.4592388389
 P          0.6202492718       -2.2029908917       -0.0044420419
 O         -1.0889951767       -0.2974635983        0.9656721145
 O         -4.1240144568        0.3127358971       -0.7098570472
 O         -3.0729802740        2.2598849786        0.7110238428
 O         -0.7361692558       -2.1890170317       -0.8621121727
 O          0.2359286540       -2.7455137750        1.4333176762
 O          1.3912696380       -3.4029455457       -0.6694759906
 O          1.4739441990       -1.0052986862       -0.0508125796
 C         -2.7270144335        0.2770975045       -0.6617450709
 C         -2.2854266739       -0.7758015660        0.3658738773
 C         -2.1374619660        1.5871163261       -0.0801386826
 C         -0.9658852007        1.0999972635        0.7941124741
 C         -2.0053086575       -2.1557810059       -0.2305048578
 H         -2.2691915348        0.0646283086       -1.6296341007
 H         -3.0703216821       -0.8596855151        1.1306066673
 H         -1.7788678282        2.2616179595       -0.8641399527
 H         -1.0214731204        1.5856644488        1.7781443261
 H         -2.0376898633       -2.9064163083        0.5614993531
 H         -2.7364483808       -2.3880908737       -1.0056480544
 H         -4.4238399027        0.6773122197       -1.5555323242
 H         -3.9355195567        1.8112985302        0.5985671968
 H          0.2327190309       -2.0802221201        2.1274452125
 H          0.9465870149       -4.2596289710       -0.6859426108
  34
        -75.52872742
 O         -0.1263892905        0.7042080313       -1.8294213153
 O          1.0755036740        1.8283461558        2.4134189290
 O          4.1711602316        1.6449752660       -0.8683177755
 N          0.3565234727        1.4333634231        0.2824610337
 N          1.9796289854        1.3572487681       -1.3908733464
 N          2.6056465835        1.8317352682        0.7644662205
 C          0.6836279488        1.0945190699       -1.0219153259
 C          1.3290459368        1.6896109074        1.2395611276
 C          3.0147767736        1.5978914330       -0.5247338136
 H          2.2280371988        1.1020785501       -2.3430640964
 H          3.3289037077        1.9937124375        1.4608696428
 P          0.6207309063       -2.2143129546       -0.0252601981
 O         -1.0924806749       -0.2868475667        0.9761747043
 O         -4.1345351880        0.3202471204       -0.6826271376
 O         -3.0657475262        2.2939777386        0.6829315815
 O         -0.7449165679       -2.1861367875       -0.8475223596
 O          0.2184655001       -2.8560647468        1.3653173394
 O          1.4175315305       -3.3279983668       -0.8171118339
 O          1.4726204548       -1.0153725165        0.0424930402
 C         -2.7370830458        0.2785200145       -0.6488781426
 C         -2.2892912972       -0.7675294719        0.3840926419
 C         -2.1350619024        1.5920656693       -0.0876231208
 C         -0.9704980209        1.1078108712        0.7997303013
 C         -2.0082309426       -2.1503004248       -0.2019298524
 H         -2.2916285452        0.0538314624       -1.6197186226
 H         -3.0716035985       -0.8500124648        1.1520018755
 H         -1.7636464395        2.2472715801       -0.8820841665
 H         -1.0292408994        1.6014716889        1.7796215153
 H         -2.0245703343       -2.8908486900        0.5986961586
 H         -2.7452941149       -2.3946389458       -0.9676003923
 H         -4.4416366657        0.6788116880       -1.5285156627
 H         -3.9254177637        1.8326742336        0.6060630550
 H          0.7835505787       -2.6092896887        2.1035757115
 H          0.9665112323       -4.1661169485       -0.9790609006
  34
        -75.52835898
 O         -0.0828203959        0.3121248331       -1.6549819426
 O          0.8945733286        2.3502978908        2.2976668909
 O          4.1921140234        1.1705177531       -0.5534421717
 N          0.2998286668        1.4689864216        0.2759484880
 N          2.0262487263        0.9377092363       -1.2000441147
 N          2.5348290333        1.8441317842        0.8436985055
 C          0.6933695029        0.8358497420       -0.8890941280
 C          1.2198208772        1.9024561532        1.2237775852
 C          3.0149806292        1.2907496781       -0.3164966930
 H          2.3151978540        0.4461362037       -2.0415921944
 H          3.2171005023        2.1199551614        1.5457824905
 P          0.6997449683       -2.1443414093       -0.2462683513
 O         -1.2282169691        0.0245501615        1.3142977419
 O         -4.1699338353        0.1579427487       -0.6358738533
 O         -3.1106882157        2.4250412362        0.2756507428
 O         -0.8451925760       -2.1018199501       -0.6100907123
 O          0.8345447452       -3.6044822471        0.3761510986
 O          1.3539953522       -2.1835792604       -1.6696591615
 O          1.3160909110       -1.1171918295        0.6110121598
 C         -2.7846811363        0.1318235641       -0.5043971193
 C         -2.3101640163       -0.6815250111        0.7194933675
 C         -2.1703563372        1.5411551697       -0.2760083651
 C         -1.0729784829        1.3071824146        0.7716695237
 C         -1.8663710663       -2.1026317008        0.3758229331
 H         -2.3804272646       -0.3041640321       -1.4192786249
 H         -3.1222794638       -0.7463221912        1.4580482292
 H         -1.7434508418        1.9424609043       -1.1970590896
 H         -1.1732656071        2.0484751240        1.5766912286
 H         -1.5111526096       -2.5988012819        1.2808161602
 H         -2.7053867791       -2.6496742217       -0.0592193109
 H         -4.5433399741        0.6898783302        0.0885643660
 H         -3.6552271218        2.8024658899       -0.4322720795
 H          1.5800405898       -3.7241283108        0.9739122467
 H          0.9657208888       -2.8079793826       -2.2971930190
  34
        -75.52835547
 O         -0.1477372832        0.8540134667       -1.8821423900
 O          1.1017766805        1.7199297425        2.4081876722
 O          4.1813671857        1.6000790924       -0.8889624856
 N          0.3621180757        1.4494856393        0.2659634338
 N          1.9792251068        1.4134129615       -1.4167032479
 N          2.6255511027        1.7691827275        0.7547186482
 C          0.6761238685        1.1708337610       -1.0581559777
 C          1.3501073037        1.6319507505        1.2278011360
 C          3.0247479896        1.5761631290       -0.5452633856
 H          2.2157543664        1.1945480590       -2.3806852011
 H          3.3559942520        1.8738751469        1.4546717850
 P          0.6075752322       -2.2017118108       -0.0130375557
 O         -1.0698648394       -0.2901364027        0.9700246972
 O         -4.0956299205        0.2978285682       -0.8490193933
 O         -3.1417808640        2.1562010557        0.7501412161
 O         -0.7666694901       -2.2089069444       -0.8388389670
 O          0.2598079248       -2.7427721755        1.4349700193
 O          1.3775582781       -3.3944415560       -0.6932090131
 O          1.4509693745       -0.9969398194       -0.0783102466
 C         -2.7218799306        0.2708548783       -0.6440777340
 C         -2.2813121212       -0.7725272219        0.4023797083
 C         -2.1516072258        1.5840699512       -0.0603098273
 C         -0.9574528688        1.1081284275        0.7944871269
 C         -2.0226201673       -2.1600915395       -0.1816895360
 H         -2.2422829882        0.0527873143       -1.6009138020
 H         -3.0468716571       -0.8391038125        1.1878222206
 H         -1.8288246719        2.2613737141       -0.8522346443
 H         -0.9970052654        1.5800834980        1.7866800462
 H         -2.0443382316       -2.9061072936        0.6151487137
 H         -2.7725547188       -2.3862360932       -0.9410865251
 H         -4.4980929498        0.8491662951       -0.1537720122
 H         -3.0024448162        3.1072224162        0.8544504125
 H          0.3095811833       -2.0878208373        2.1370804377
 H          0.9345455813       -4.2517485270       -0.7140723323
  34
        -75.52804315
 O          0.7271892603        2.0615384225        2.2054912336
 O          0.0698940416        0.5958581325       -2.0665126521
 O          4.1890951926        1.7734823808       -0.6769717354
 N          0.2763533741        1.4196646708        0.0590869487
 N          2.4357695291        1.9982381352        0.7482514878
 N          2.0872291645        1.3215624180       -1.4111651770
 C          1.1192305392        1.8297469425        1.0853057518
 C          0.7625935768        1.0482486132       -1.1820848928
 C          3.0040240344        1.6902108371       -0.4623873135
 H          3.0600305084        2.2790100671        1.5004702926
 H          2.4469044624        1.0331472921       -2.3169717196
 P          0.6432367718       -2.3064415956        0.2739282493
 O         -1.1222813346       -0.3457135611        0.7460393074
 O         -4.1080855957        0.4168879047        0.5572357460
 O         -2.8547523855        2.5752995757       -0.1828675185
 O         -0.5784595011       -2.6580726924       -0.6781601756
 O          0.0853685967       -2.4901700758        1.7320673808
 O          1.4785485384       -3.6423403786        0.0999093792
 O          1.4545480748       -1.1013872905       -0.0140614804
 C         -3.1335815037        0.1433843989       -0.4119465368
 C         -2.1751319077       -0.9763997833        0.0268031358
 C         -2.2127004398        1.3866531879       -0.5041372655
 C         -1.0724120516        1.0360356955        0.4836256878
 C         -1.5844265743       -1.7697554544       -1.1376727409
 H         -3.5834554341       -0.0786802685       -1.3830655211
 H         -2.6434498518       -1.6648888599        0.7382240345
 H         -1.8192237999        1.4956721334       -1.5151520862
 H         -1.2268232781        1.5747989150        1.4290030506
 H         -2.3378571102       -2.4083284237       -1.6018895492
 H         -1.1530117092       -1.0837576824       -1.8707202839
 H         -4.8591999239       -0.1858045181        0.4686272526
 H         -3.5395569979        2.3832026303        0.4843027630
 H          0.6882046055       -2.2537916534        2.4432719170
 H          2.0318345597       -3.6874654506       -0.6859096599
  34
        -75.52789392
 O          0.7724310232        1.9010388116        2.2579188383
 O          0.0480668371        0.6756488839       -2.0741928723
 O          4.1867513154        1.7924301913       -0.6915283089
 N          0.2831002648        1.4100921290        0.0813811153
 N          2.4551428287        1.9424111842        0.7698077170
 N          2.0751992502        1.3679277626       -1.4139156661
 C          1.1455391433        1.7492925547        1.1175431013
 C          0.7523961868        1.0909152028       -1.1809934017
 C          3.0055426336        1.6954567448       -0.4630868826
 H          3.0920916005        2.1763709600        1.5273947192
 H          2.4222001353        1.1200541421       -2.3366519453
 P          0.6386893064       -2.3046141935        0.2535235419
 O         -1.1363467565       -0.3511516917        0.7519629136
 O         -4.1253826636        0.4045113254        0.5203737251
 O         -2.8584279893        2.5863419764       -0.0944127783
 O         -0.5889890069       -2.6519452371       -0.7048604479
 O          0.1407021039       -2.5018972213        1.7329442290
 O          1.4517789007       -3.6475277666        0.0861247640
 O          1.4359430823       -1.0939460120       -0.0461182756
 C         -3.1261890582        0.1662059879       -0.4329602511
 C         -2.1764418160       -0.9643913092       -0.0030681800
 C         -2.2095405903        1.4165080520       -0.4678872901
 C         -1.0682043993        1.0339485043        0.5067107887
 C         -1.5664660938       -1.7370293250       -1.1714148175
 H         -3.5499571060       -0.0286870824       -1.4210294085
 H         -2.6622890854       -1.6658748045        0.6835827261
 H         -1.8160562712        1.5725308086       -1.4725348617
 H         -1.2115168912        1.5599644953        1.4607893617
 H         -2.3172857523       -2.3505146810       -1.6719452825
 H         -1.1053329608       -1.0401248245       -1.8754555790
 H         -4.8859059382       -0.1744418718        0.3740648894
 H         -3.5557986582        2.3583500969        0.5484475448
 H          0.3188411057       -1.7729084123        2.3324843120
 H          1.9257422066       -3.7504084127       -0.7451400654
  34
        -75.52770049
 O         -0.0265630032        0.8506183339       -2.0205675916
 O          0.8773616441        1.7577277477        2.3596507141
 O          4.1903270537        1.7176761682       -0.7060736446
 N          0.3036007876        1.4056998436        0.1758236955
 N          2.0400687307        1.4396065872       -1.3841439800
 N          2.5145179911        1.8193333993        0.8230020585
 C          0.7195968025        1.1753451241       -1.1234946894
 C          1.2095482037        1.6548710574        1.2014613163
 C          3.0139993370        1.6498464372       -0.4440364791
 H          2.3458363564        1.2584760617       -2.3364658795
 H          3.1835897117        1.9749431629        1.5730770860
 P          0.6211112906       -2.3257144462        0.0193507021
 O         -1.1182139376       -0.3740786517        0.7968055741
 O         -4.1384669940        0.3780994360        0.7289548415
 O         -2.8368950614        2.6200294196        0.2257888606
 O         -0.6673764116       -2.5738564988       -0.8762151404
 O          0.1442427844       -2.6120021755        1.4892573745
 O          1.4321980376       -3.6455344113       -0.3084699908
 O          1.4126057397       -1.0989847847       -0.2278065297
 C         -3.1474090922        0.2321402224       -0.2471844920
 C         -2.1874806275       -0.9278022633        0.0355413384
 C         -2.2152446602        1.4751445367       -0.2671631973
 C         -1.0363380767        1.0245776373        0.6287915912
 C         -1.6364621335       -1.5975266487       -1.2216600315
 H         -3.6715344661        0.1124133349       -1.1958785466
 H         -2.6413870138       -1.6962886494        0.6706899246
 H         -1.8685943428        1.6807912344       -1.2811126605
 H         -1.1257461292        1.4972883842        1.6175485331
 H         -2.4213712355       -2.1448468468       -1.7458387367
 H         -1.1847843136       -0.8488286864       -1.8764175777
 H         -3.7680502557        0.2314403171        1.6128835383
 H         -3.6812586381        2.3541205233        0.6416151016
 H          0.8355196794       -2.6658890840        2.1570862096
 H          1.9146000496       -3.6450552003       -1.1411095525
  34
        -75.52760972
 O         -0.1000768183        0.3426589301       -1.6745532795
 O          0.9064548828        2.3218384952        2.3016084497
 O          4.1864196171        1.1334832694       -0.5653144668
 N          0.2980868058        1.4568565907        0.2774589339
 N          2.0167144612        0.9317029284       -1.2099582310
 N          2.5389230285        1.8126816249        0.8406856447
 C          0.6824396879        0.8440336714       -0.9010029558
 C          1.2266675734        1.8783544503        1.2239074315
 C          3.0111757316        1.2648409702       -0.3256169810
 H          2.2982644884        0.4527293629       -2.0612141364
 H          3.2253594417        2.0770611527        1.5430931487
 P          0.7134152155       -2.1328171622       -0.2454963606
 O         -1.2570513379        0.0423711435        1.3447228370
 O         -4.1608375993        0.1415535166       -0.6400111489
 O         -3.1716572403        2.4278172396        0.2243025393
 O         -0.8302447376       -2.0849617775       -0.6126182346
 O          0.8511269270       -3.6007807380        0.3557097444
 O          1.3737120782       -2.1476282573       -1.6663272191
 O          1.3142137905       -1.1124607332        0.6304817551
 C         -2.7698731736        0.1392933255       -0.5113328408
 C         -2.3146895618       -0.6775600740        0.7157068744
 C         -2.1891757046        1.5528146830       -0.2474565599
 C         -1.0742771636        1.3156625975        0.7846964758
 C         -1.8503573636       -2.0919223207        0.3743112073
 H         -2.3186367057       -0.2816400250       -1.4151242136
 H         -3.1474252225       -0.7622291885        1.4281542118
 H         -1.8029591485        2.0025218810       -1.1621243634
 H         -1.1302615978        2.0609811092        1.5907860017
 H         -1.4895851412       -2.5804460914        1.2812888296
 H         -2.6847635007       -2.6487050884       -0.0568811623
 H         -4.4735861932        1.0634962950       -0.5737003217
 H         -3.4520368654        2.1810588069        1.1199236965
 H          1.5947776540       -3.7277822005        0.9543588931
 H          0.9976195366       -2.7732360771       -2.3000739036
  34
        -75.52742652
 O          1.0172837822        2.0148369355        2.2548092688
 O         -0.1322277278        0.5738415597       -1.9085620040
 O          4.1447911214        1.6278281360       -0.9788561675
 N          0.3232285844        1.4456642181        0.1548256790
 N          2.5620061775        1.9138243579        0.6229956739
 N          1.9611584126        1.2802631232       -1.4973063447
 C          1.2831636032        1.7902932637        1.0971020054
 C          0.6647362160        1.0281246412       -1.1219691427
 C          2.9857213065        1.5943076071       -0.6425406763
 H          3.2762089470        2.1390613916        1.3108351552
 H          2.2186461430        0.9674691998       -2.4293480218
 P          0.6650521728       -2.1744804962        0.2088390039
 O         -1.0996023183       -0.2446704049        0.9572719263
 O         -4.1383087594        0.1803817755       -0.7587089911
 O         -3.1210413403        2.2667587085        0.4835262227
 O         -0.6397389846       -2.2206234611       -0.6995842104
 O          0.1751283634       -2.5606682841        1.6488127072
 O          1.4217756468       -3.4975566240       -0.2565149929
 O          1.5488806984       -0.9985938526        0.0629796116
 C         -2.7406251739        0.1747564884       -0.7151375241
 C         -2.2732141529       -0.7967262274        0.3813022383
 C         -2.1724965129        1.5355609643       -0.2365591029
 C         -1.0024220436        1.1361130495        0.6853059553
 C         -1.9368087535       -2.2012517129       -0.1268801463
 H         -2.2852754734       -0.0988930371       -1.6687383730
 H         -3.0601837971       -0.8634473693        1.1452250005
 H         -1.8129611553        2.1470998728       -1.0700933702
 H         -1.0752590802        1.6948797479        1.6286734265
 H         -1.9781596747       -2.9119553467        0.6992368482
 H         -2.6238483467       -2.4963652978       -0.9203403147
 H         -4.4462319320        0.4809600531       -1.6267750277
 H         -3.9629991996        1.7695089828        0.4660951730
 H          0.8479747970       -2.5033775418        2.3354139410
 H          2.0505300803       -3.3825816471       -0.9748140534
  34
        -75.52734386
 O          1.0562459254        1.7893794852        2.3032599561
 O         -0.1722887715        0.6934835375       -1.9347560735
 O          4.1346626530        1.6057000458       -0.9909592861
 N          0.3215056686        1.4263717353        0.1729642678
 N          2.5751321648        1.8217775863        0.6442372870
 N          1.9397347238        1.3266630392       -1.5030546099
 C          1.3037535095        1.6698578045        1.1261980593
 C          0.6413137223        1.0851381771       -1.1317990689
 C          2.9793786186        1.5714205127       -0.6431630338
 H          3.3025664574        1.9743230373        1.3381910116
 H          2.1819929195        1.0626766342       -2.4541917373
 P          0.6794843722       -2.1433203112        0.1909622393
 O         -1.1219878772       -0.2575928815        0.9684109525
 O         -4.1426794559        0.2104583492       -0.7589541874
 O         -3.1287836172        2.2422013737        0.5714494335
 O         -0.5933314502       -2.1391038296       -0.7654696220
 O          0.2162568271       -2.5447312384        1.6494857621
 O          1.3452803891       -3.4810178931       -0.3254550311
 O          1.5901749804       -0.9847339244        0.0895473883
 C         -2.7449008382        0.2052169234       -0.7159184878
 C         -2.2768601443       -0.8053424497        0.3440255121
 C         -2.1817081369        1.5506130649       -0.1890788675
 C         -1.0046611727        1.1258158063        0.7086477293
 C         -1.9030694542       -2.1800461775       -0.2233331454
 H         -2.2893576866       -0.0312547304       -1.6790882004
 H         -3.0746415727       -0.9189267978        1.0901777522
 H         -1.8350775588        2.1970471135       -1.0013888651
 H         -1.0613814319        1.6691875992        1.6618177101
 H         -1.9493082640       -2.9348135641        0.5635710518
 H         -2.5658033875       -2.4499713265       -1.0457204854
 H         -4.4520304594        0.5234994779       -1.6217850077
 H         -3.9763555048        1.7575541376        0.5116589746
 H          0.1123802768       -1.8106339094        2.2629993175
 H          2.2844369542       -3.5737154262       -0.1341230884
  34
        -75.52703442
 O          1.0248357888        2.0255271956        2.2524180413
 O         -0.1355182473        0.6426634003       -1.9311988527
 O          4.1613224083        1.5762926401       -0.9640345531
 N          0.3294440914        1.4656269749        0.1506403212
 N          2.5769587008        1.8889358751        0.6310011840
 N          1.9711697524        1.2968931139       -1.4993486863
 C          1.2947177073        1.7900592605        1.0974006733
 C          0.6682755450        1.0616079361       -1.1331513148
 C          2.9997966355        1.5694572793       -0.6356558538
 H          3.2929258227        2.0921916828        1.3239568815
 H          2.2248430426        0.9908835779       -2.4346303105
 P          0.6473686305       -2.1796375660        0.1840752828
 O         -1.0761076789       -0.2409466050        0.9595068978
 O         -4.1065696623        0.1632608069       -0.8958234127
 O         -3.1882322930        2.1568925890        0.5471768080
 O         -0.6817594148       -2.2389409843       -0.6867366482
 O          0.2008305660       -2.5513778346        1.6417956254
 O          1.3980298967       -3.5048817521       -0.2843991414
 O          1.5229267524       -1.0019310209        0.0017669346
 C         -2.7321552580        0.1740297636       -0.6933397066
 C         -2.2697621862       -0.7894128564        0.4200060577
 C         -2.1833337273        1.5354642385       -0.2064197203
 C         -0.9901292188        1.1419733979        0.6913503391
 C         -1.9628197642       -2.2018703955       -0.0789226869
 H         -2.2519498255       -0.1018194888       -1.6347328683
 H         -3.0366965800       -0.8321047337        1.2055010626
 H         -1.8612839123        2.1540741769       -1.0459830736
 H         -1.0456394145        1.6823431362        1.6471702215
 H         -1.9894217239       -2.9080355608        0.7518499982
 H         -2.6765450964       -2.4882136719       -0.8525018949
 H         -4.5167261476        0.7548008232       -0.2395369506
 H         -3.0478770039        3.1123017334        0.5968516573
 H          0.9034535043       -2.5260721543        2.3000984194
 H          1.9741301216       -3.4069834910       -1.0479582945
  34
        -75.52672170
 O          1.0665737521        1.7850057646        2.3057808661
 O         -0.1777137771        0.7713300417       -1.9517973215
 O          4.1488740320        1.5527243911       -0.9810294964
 N          0.3277184617        1.4477474551        0.1725992375
 N          2.5904891451        1.7914871085        0.6519475782
 N          1.9476346316        1.3471161752       -1.5036615272
 C          1.3161129865        1.6627278341        1.1290666249
 C          0.6433333267        1.1239490930       -1.1393991909
 C          2.9919821090        1.5457000702       -0.6378481054
 H          3.3199836574        1.9170588730        1.3492659927
 H          2.1845293096        1.0934888585       -2.4589492548
 P          0.6621242615       -2.1477290731        0.1645438694
 O         -1.0982222781       -0.2537880185        0.9720118298
 O         -4.1112199785        0.1991475490       -0.8941635442
 O         -3.1932639961        2.1365249911        0.6267241426
 O         -0.6366067186       -2.1604586306       -0.7553907668
 O          0.2425714633       -2.5474728169        1.6370554110
 O          1.3263549753       -3.4804576457       -0.3658968683
 O          1.5620750371       -0.9826152549        0.0374329519
 C         -2.7367748983        0.2048883942       -0.6935416032
 C         -2.2741084485       -0.7987051455        0.3834042830
 C         -2.1917463268        1.5506749266       -0.1596903240
 C         -0.9929788158        1.1322941776        0.7165897045
 C         -1.9312037411       -2.1825033367       -0.1759378876
 H         -2.2575140882       -0.0352701851       -1.6451033703
 H         -3.0528417900       -0.8891939091        1.1522195460
 H         -1.8801893856        2.2012992129       -0.9779833340
 H         -1.0336766883        1.6567806939        1.6816882587
 H         -1.9636627261       -2.9328010394        0.6161114139
 H         -2.6224157977       -2.4442271181       -0.9779780054
 H         -4.5214106592        0.7670595471       -0.2169381188
 H         -3.0809231137        3.0953805470        0.6807531575
 H          0.1601242624       -1.8134434665        2.2539381718
 H          2.2730598418       -3.5596851846       -0.2081097234
  34
        -75.52649512
 O          1.0696265226        1.7041528767        2.3703789732
 O         -0.1513702228        0.9080446609       -1.9453320373
 O          4.1752890128        1.5702140596       -0.9031205907
 N          0.3446254074        1.4669269421        0.2172875239
 N          2.6097350501        1.7325500155        0.7321124632
 N          1.9743652358        1.4480718058       -1.4527745065
 C          1.3262751304        1.6186301659        1.1921942367
 C          0.6669863911        1.2047386701       -1.1078064259
 C          3.0153615966        1.5646290015       -0.5689315451
 H          3.3356174022        1.8050436500        1.4405266605
 H          2.2150397047        1.2473918402       -2.4196333437
 P          0.6185797078       -2.1544354476        0.0793642930
 O         -1.0533861831       -0.2827276300        0.9259951221
 O         -4.0818279496        0.2010127563       -0.9238131334
 O         -3.1846785694        2.1129050242        0.6559477474
 O         -0.7469458601       -2.2623581613       -0.7456072839
 O          0.2887997174       -2.4054198197        1.5933621675
 O          1.3489881966       -3.5163449878       -0.3093067759
 O          1.4601439141       -0.9893260800       -0.2607887431
 C         -2.7134600063        0.2051664187       -0.6874422899
 C         -2.2727110726       -0.7891960361        0.4062671352
 C         -2.1765358830        1.5463768304       -0.1366726017
 C         -0.9757114202        1.1152432069        0.7343454735
 C         -2.0096941601       -2.2037197228       -0.1066477973
 H         -2.2071034112       -0.0373034220       -1.6248508424
 H         -3.0292109934       -0.8139170594        1.2027770984
 H         -1.8689586812        2.2127877434       -0.9436627417
 H         -1.0359938372        1.6008715064        1.7190926678
 H         -2.0326155297       -2.9091340260        0.7253854095
 H         -2.7486687553       -2.4722333913       -0.8628447205
 H         -4.5096851084        0.7582347482       -0.2490330027
 H         -3.0579624658        3.0666432572        0.7529828589
 H          0.8056397322       -3.1148357128        1.9965955283
 H          1.7714424741       -3.5244782435       -1.1733075027
  34
        -75.52649112
 O         -0.0789697382        0.3374380963       -1.6568212823
 O          0.9090177352        2.4017086558        2.2816825386
 O          4.2035920733        1.1255608847       -0.5318780079
 N          0.3104564322        1.4872523259        0.2762030513
 N          2.0374741439        0.9238047346       -1.1879759553
 N          2.5498295946        1.8410507933        0.8491974844
 C          0.7006625258        0.8460337088       -0.8852402563
 C          1.2344104796        1.9242419996        1.2202048141
 C          3.0275104790        1.2659872399       -0.3018495744
 H          2.3246761991        0.4245704427       -2.0256415927
 H          3.2324647486        2.1139205975        1.5520312139
 P          0.6857413786       -2.1613260111       -0.2624532648
 O         -1.2243013414        0.0570878407        1.3383065899
 O         -4.1239434689        0.1178379859       -0.7055221543
 O         -3.2121391906        2.3370778449        0.3034407433
 O         -0.8808229605       -2.1239540127       -0.5981051052
 O          0.9291727640       -3.5987537000        0.3630367010
 O          1.3113821798       -2.1523783079       -1.7014375733
 O          1.2718143651       -1.1449845773        0.6183582920
 C         -2.7476550704        0.1415467311       -0.5078121086
 C         -2.3006935599       -0.6542897881        0.7391910895
 C         -2.1841288025        1.5612090231       -0.2495621299
 C         -1.0622770450        1.3332680579        0.7836661137
 C         -1.8588903483       -2.0830206200        0.4299806786
 H         -2.2782261455       -0.2847877529       -1.3966035514
 H         -3.1276459781       -0.6984249829        1.4620476613
 H         -1.7935282427        2.0016862442       -1.1688310775
 H         -1.1382283337        2.0706051363        1.5947212974
 H         -1.4591341946       -2.5309316718        1.3429424749
 H         -2.7143303800       -2.6498330029        0.0568501029
 H         -4.5214908637        0.8324434919       -0.1766389097
 H         -3.0331249753        3.2810139105        0.1956775590
 H          0.6527236744       -4.3696730444       -0.1495752932
 H          0.7892352273       -2.5594743762       -2.4057330820
  34
        -75.52644205
 O          0.9897932012        2.1346239375        2.1936177109
 O         -0.1143450678        0.4716336410       -1.8963344467
 O          4.1517812827        1.5940100554       -0.9831884737
 N          0.3193456130        1.4549752360        0.1201759007
 N          2.5520902782        1.9565732747        0.5848901450
 N          1.9743636862        1.2086897461       -1.5052899890
 C          1.2712905459        1.8504178088        1.0522260596
 C          0.6755683161        0.9687970317       -1.1300655425
 C          2.9895909667        1.5704137621       -0.6581516803
 H          3.2597065449        2.2199907257        1.2661287538
 H          2.2431321554        0.8427435513       -2.4144289140
 P          0.6726225926       -2.1862293908        0.2317658031
 O         -1.1158626853       -0.2004552259        1.0022432585
 O         -4.1353042625        0.1562616975       -0.8389166958
 O         -3.1426923041        2.3153319531        0.3409508582
 O         -0.6688109992       -2.2631434862       -0.6235593080
 O          0.2410301973       -2.6937881679        1.6686875975
 O          1.5143945610       -3.3534231427       -0.4242258020
 O          1.4977285908       -0.9669944278        0.2067532984
 C         -2.7461841022        0.1501796691       -0.7034087128
 C         -2.2845560986       -0.7810604855        0.4349682267
 C         -2.1724608556        1.5241269821       -0.2793819819
 C         -1.0071098181        1.1648346834        0.6611914105
 C         -1.9499218705       -2.2019245947       -0.0171422236
 H         -2.2864929174       -0.1677724430       -1.6440825419
 H         -3.0737698603       -0.8329201309        1.1986919650
 H         -1.8277833737        2.0960154423       -1.1411576023
 H         -1.0575921765        1.7630619199        1.5827340532
 H         -1.9724745501       -2.8731031661        0.8426395077
 H         -2.6614991792       -2.5246043609       -0.7783163894
 H         -4.4634023778        1.0462200548       -0.6098962707
 H         -3.3849881109        1.9518426508        1.2072037887
 H          0.8009424463       -2.3882137112        2.3889772242
 H          1.0804635072       -4.2089739620       -0.5315295886
  34
        -75.52631958
 O          1.0060413364        2.0367320681        2.2405524209
 O         -0.1342508674        0.5510111058       -1.9085124451
 O          4.1422086803        1.6136736150       -0.9806408945
 N          0.3179352987        1.4500811763        0.1437194354
 N          2.5560101091        1.9168220032        0.6142550943
 N          1.9590809139        1.2675842017       -1.5033394709
 C          1.2763506056        1.7996669667        1.0863766667
 C          0.6625582852        1.0144198358       -1.1277722966
 C          2.9820941267        1.5850694310       -0.6477544996
 H          3.2696999910        2.1443957435        1.3019118735
 H          2.2190412033        0.9443820056       -2.4311116247
 P          0.6672234938       -2.1742017016        0.2117874173
 O         -1.0900685697       -0.2476469246        0.9482612051
 O         -4.1529297146        0.1844062981       -0.8176805554
 O         -3.0930202283        2.2642781802        0.5117181776
 O         -0.6346390446       -2.2251285729       -0.6995026724
 O          0.1757541955       -2.5577918739        1.6521612206
 O          1.4292880045       -3.4970707772       -0.2460195718
 O          1.5501928752       -0.9972441449        0.0666232588
 C         -2.7675590466        0.1656920895       -0.6939672441
 C         -2.2698170195       -0.8093645815        0.3929822596
 C         -2.1708127263        1.5270707806       -0.2468497813
 C         -1.0051479349        1.1320365755        0.6745022595
 C         -1.9332401524       -2.2091154665       -0.1305094055
 H         -2.3569700685       -0.1143532504       -1.6653755522
 H         -3.0296675721       -0.8906702656        1.1830699757
 H         -1.8071998227        2.1013505767       -1.1008824802
 H         -1.0841864248        1.6903866646        1.6182343167
 H         -1.9789912099       -2.9333587125        0.6838884444
 H         -2.6194144950       -2.4870040747       -0.9316145236
 H         -4.5352975785        0.5732089378       -0.0115666911
 H         -3.6497876401        2.7977834492       -0.0751419455
 H          0.8512021674       -2.5088201447        2.3370435997
 H          2.0463194576       -3.3876157584       -0.9752341707
  34
        -75.52622646
 O          1.1024881296        0.4186665333        2.2798958278
 O         -0.3000750239        1.3800720308       -1.8993265554
 O          4.0745550522        1.7030280815       -0.8433305333
 N          0.2908442245        1.2154617856        0.3093370008
 N          2.5698920622        1.3037288813        0.8121282711
 N          1.8642146401        1.6180312574       -1.3505993809
 C          1.3172309987        0.9181545828        1.1980943721
 C          0.5496513224        1.3800539195       -1.0390816184
 C          2.9323134984        1.5412929404       -0.4927131257
 H          3.3231789844        1.1031869101        1.4651821893
 H          2.0761949685        1.7131297552       -2.3405171783
 P          0.8185907794       -2.0529750827       -0.0596976247
 O         -1.3714020068       -0.2616127838        1.1592545367
 O         -4.1696746189        0.4305151743       -0.7450074732
 O         -3.1639078707        2.2047011283        0.9325947041
 O         -0.4414505037       -1.6074171549       -0.9115662375
 O          0.4217319010       -2.3069409391        1.4483299085
 O          1.0320008206       -3.5293563788       -0.5767431116
 O          1.9494141372       -1.1351603232       -0.2895438214
 C         -2.7741117208        0.3969264104       -0.6585123011
 C         -2.3528806807       -0.7669468277        0.2588236543
 C         -2.2158188668        1.6486895497        0.0670200666
 C         -1.0590014922        1.0735150041        0.8969395539
 C         -1.7554207822       -1.9625897010       -0.4924031217
 H         -2.2909843284        0.2998158669       -1.6332454700
 H         -3.2195054491       -1.0950602341        0.8444634715
 H         -1.8749258991        2.4179676885       -0.6310383846
 H         -0.9992481566        1.5877954347        1.8646630967
 H         -1.7103112549       -2.8327168407        0.1630922896
 H         -2.3309123208       -2.1894353465       -1.3900150680
 H         -4.4469179658        0.8758119324       -1.5587773702
 H         -4.0164569842        1.7527998228        0.7751900574
 H          0.4529380757       -1.5376166074        2.0343693938
 H          1.8206565603       -3.9812717449       -0.2574052481
  34
        -75.52603807
 O         -0.0758069063        0.3134233326       -1.6452625794
 O          0.8871474887        2.3726592501        2.2996063365
 O          4.1968251541        1.1594649896       -0.5249105411
 N          0.3012852358        1.4799490330        0.2805030234
 N          2.0336767894        0.9292269348       -1.1800024470
 N          2.5348430901        1.8469963145        0.8605660694
 C          0.6980868459        0.8375126229       -0.8774130981
 C          1.2174731704        1.9146490008        1.2316301112
 C          3.0191240522        1.2841568555       -0.2933485993
 H          2.3277090208        0.4332913540       -2.0172771310
 H          3.2140850286        2.1218759503        1.5658394788
 P          0.6971210260       -2.1634432304       -0.2711464549
 O         -1.2358768217        0.0643478725        1.3439582214
 O         -4.1588762131        0.1406874425       -0.6291535165
 O         -3.1178331400        2.4270182735        0.2419585904
 O         -0.8707507904       -2.1251344160       -0.6032680584
 O          0.9411519026       -3.6047418649        0.3456797191
 O          1.3239278380       -2.1474223327       -1.7091151290
 O          1.2778030516       -1.1524633981        0.6193551233
 C         -2.7736001891        0.1235077524       -0.4946890144
 C         -2.2989565117       -0.6664728398        0.7444435539
 C         -2.1677429760        1.5402689587       -0.2884049619
 C         -1.0762251228        1.3316133248        0.7709373508
 C         -1.8385092642       -2.0903533217        0.4343700992
 H         -2.3656188285       -0.3255485380       -1.4013232371
 H         -3.1174469607       -0.7306673778        1.4762396923
 H         -1.7376559239        1.9283680991       -1.2132500302
 H         -1.1800229958        2.0920841779        1.5572098619
 H         -1.4236293460       -2.5277782784        1.3457495231
 H         -2.6899531661       -2.6718904516        0.0742825842
 H         -4.5340957684        0.6976241702        0.0753647691
 H         -3.6454711897        2.8065285403       -0.4773655690
 H          0.6769405296       -4.3735544806       -0.1765926752
 H          0.7977575494       -2.5421759399       -2.4175593807
  34
        -75.52576789
 O          0.4208558544        2.8559325122        1.6337371469
 O          0.1756058570       -0.1907505918       -1.7486721803
 O          4.1566823408        1.4940854410       -0.5055268102
 N          0.1789937695        1.4285603412       -0.1351315934
 N          2.2726436338        2.2373479386        0.5213146129
 N          2.1279161389        0.7923645297       -1.2494667103
 C          0.9211488266        2.2065178744        0.7453869033
 C          0.7836130208        0.5990045401       -1.0590638850
 C          2.9533414764        1.4950545017       -0.4099134409
 H          2.8242858616        2.7774089169        1.1834498846
 H          2.5703859709        0.1677603999       -1.9180432273
 P          0.8686381588       -2.2405547845        0.4951811801
 O         -1.3602791997        0.0494283971        0.9916925564
 O         -4.2582910826        0.6718407737        0.1973070773
 O         -2.8520293227        2.3926901844       -1.1733266356
 O         -0.6929061409       -2.6064012264        0.5053985074
 O          1.3935824144       -3.4013694821        1.4240660434
 O          1.4197333635       -2.6185341772       -0.9256513865
 O          1.2939233830       -0.8928565078        0.9083256758
 C         -3.2048893830        0.0557181221       -0.4921416977
 C         -2.3354937694       -0.8207544953        0.4273195509
 C         -2.2289104651        1.1746453438       -0.9353484710
 C         -1.2253632157        1.2270256212        0.2434241491
 C         -1.6774253029       -1.9925670782       -0.3137041422
 H         -3.5681006267       -0.5085505384       -1.3554202727
 H         -2.9014571250       -1.2050525152        1.2821683443
 H         -1.7161976090        0.8917510919       -1.8553218839
 H         -1.4578953588        2.0838947407        0.8908894898
 H         -2.4193624968       -2.7687884550       -0.5130241687
 H         -1.2257967735       -1.6436966060       -1.2424243421
 H         -5.0068354484        0.0660245419        0.2892197894
 H         -3.6064411994        2.4763682217       -0.5616654462
 H          1.3013421815       -3.2403209553        2.3679305003
 H          1.3487625336       -3.5531694907       -1.1620921804
  34
        -75.52575002
 O          0.5844468290        0.6524792627        2.6275797860
 O          0.1212089128        2.3351461792       -1.5707959028
 O          4.1856767591        1.0552095672       -0.0781718870
 N          0.2583241703        1.3236121725        0.4724913105
 N          2.3991917475        0.9335306865        1.3195048573
 N          2.1555254808        1.7779522495       -0.7966617536
 C          1.0467322670        0.9314449772        1.5496860604
 C          0.7884016465        1.8166110032       -0.7038206532
 C          3.0063141954        1.2187817966        0.1228100228
 H          2.9825052022        0.5679641410        2.0670279057
 H          2.5503386461        2.0559546781       -1.6912002749
 P          0.6399648766       -1.9967619614       -0.4581630257
 O         -1.1640566284       -0.4712244162        0.7998782316
 O         -4.0623962062        0.5812361312        0.7212394821
 O         -2.6034113097        2.4708436266       -0.6455969440
 O         -0.7930984110       -2.7274418767       -0.4799703637
 O          1.1362775991       -1.8320848928        1.0188418436
 O          1.5728703590       -3.1905845695       -0.9326731927
 O          0.7396798491       -0.7882266659       -1.2955205875
 C         -3.1842346201        0.1493825449       -0.2765723359
 C         -2.3538094982       -1.0289621618        0.2422959243
 C         -2.0831923372        1.1841425738       -0.5791116434
 C         -1.1398872845        0.9289611269        0.6126529580
 C         -1.9393268086       -2.0007659811       -0.8707978781
 H         -3.7376829900       -0.1168530924       -1.1861328948
 H         -2.8775103206       -1.5530701970        1.0477802384
 H         -1.5774837435        0.8910512336       -1.5040874894
 H         -1.5329105311        1.4227943475        1.5158075777
 H         -2.7180576043       -2.7384299418       -1.0627932523
 H         -1.7070700851       -1.4368153302       -1.7787611852
 H         -4.3448029618        1.4862957563        0.5100830304
 H         -1.9650855395        3.0408519575       -1.1026116322
 H          1.1384615017       -2.6536952139        1.5275011977
 H          1.5451624723       -3.4140373162       -1.8685575438
  34
        -75.52571897
 O          0.4276426878        2.7905221656        1.6776277587
 O          0.1745302464       -0.1565514454       -1.7902556682
 O          4.1613592560        1.4650557792       -0.4870592588
 N          0.1809728022        1.4208132594       -0.1353118849
 N          2.2790424602        2.1940825224        0.5529890578
 N          2.1301473064        0.8011682281       -1.2583684806
 C          0.9276421927        2.1657169615        0.7715361719
 C          0.7839039514        0.6122912340       -1.0787847628
 C          2.9579286875        1.4729574325       -0.3961989055
 H          2.8324017666        2.7084027343        1.2339118973
 H          2.5702368652        0.1934227339       -1.9439367441
 P          0.8737521873       -2.2341493750        0.4777626567
 O         -1.3870230357        0.0771102553        1.0112361495
 O         -4.3092796900        0.6224551441        0.1906783864
 O         -2.8733253892        2.3970295271       -1.1519621487
 O         -0.6889845154       -2.5961147764        0.4874379286
 O          1.4046062296       -3.4004099800        1.3943883142
 O          1.4217774530       -2.5939081370       -0.9481864016
 O          1.2879415943       -0.8856118739        0.8995482880
 C         -3.2129415440        0.0632344751       -0.4751031385
 C         -2.3364973473       -0.8128849218        0.4282461315
 C         -2.2352413409        1.1779925839       -0.9387212840
 C         -1.2272891717        1.2387326631        0.2350578047
 C         -1.6611910149       -1.9618501860       -0.3312621518
 H         -3.6222343231       -0.4886655166       -1.3216827581
 H         -2.8987661725       -1.2315524833        1.2694368232
 H         -1.7292610264        0.8911633457       -1.8618486410
 H         -1.4457595362        2.1128965448        0.8650169234
 H         -2.4026732251       -2.7294979390       -0.5623064251
 H         -1.1967092162       -1.5912365714       -1.2447496235
 H         -4.0518827093        0.9123253531        1.0792736407
 H         -3.7653296158        2.3465462118       -0.7545527291
 H          1.3048778938       -3.2552872420        2.3401330083
 H          1.3528449542       -3.5253061936       -1.1973855287
  34
        -75.52559428
 O          0.7309862951        2.5590108766        1.9159979202
 O         -0.1385283946        0.1444651746       -1.8412025645
 O          4.1031204838        1.1826427991       -0.7517390669
 N          0.1912486064        1.4751059232       -0.0204717479
 N          2.4058509629        1.9728495555        0.5336617222
 N          1.9564181817        0.8277187798       -1.4012448122
 C          1.0845242288        2.0224446975        0.8927370059
 C          0.6181927749        0.7517362052       -1.1150084209
 C          2.9197820024        1.3025521169       -0.5465853796
 H          3.0679970045        2.3300058427        1.2178597694
 H          2.2736299423        0.2733758006       -2.1920208006
 P          0.9037838617       -2.1924835179        0.4625282696
 O         -1.3653793106        0.0439420602        1.0271520446
 O         -4.3405289349        0.2285864233       -0.4298461705
 O         -3.1641218749        2.5458603981       -0.2420178151
 O         -0.6578598693       -2.5568937596        0.5298241161
 O          1.4931681935       -3.3756436780        1.3170382770
 O          1.3641978828       -2.5008784167       -1.0089540037
 O          1.3295837038       -0.8481608700        0.8828684719
 C         -2.9794372049        0.1498719497       -0.7433020509
 C         -2.2860679380       -0.7524938506        0.2935125609
 C         -2.2769692756        1.5361257818       -0.6073859561
 C         -1.1883554873        1.3106272714        0.4661579303
 C         -1.5910480251       -1.9584764863       -0.3561803185
 H         -2.8224483192       -0.2485930817       -1.7493928990
 H         -3.0228210296       -1.1092075033        1.0232035617
 H         -1.8242060634        1.8467902983       -1.5497691333
 H         -1.2822230868        2.0584758879        1.2642650078
 H         -2.3348469060       -2.7257344868       -0.5801741887
 H         -1.0822033370       -1.6444136829       -1.2692337392
 H         -4.8309738849        0.6130301663       -1.1723599232
 H         -3.8315816145        2.1774958200        0.3647689158
 H          1.4496428064       -3.2547363026        2.2706465376
 H          1.3481877126       -3.4342848781       -1.2604945444
  34
        -75.52531589
 O          1.0250230597        1.9908097127        2.2521976289
 O         -0.1518883144        0.5861174852       -1.9150886979
 O          4.1373638616        1.6030220075       -0.9955794265
 N          0.3192999113        1.4371147825        0.1528982989
 N          2.5637147214        1.8895541210        0.6147253170
 N          1.9485663332        1.2778441203       -1.5082183144
 C          1.2880822470        1.7698680813        1.0927192845
 C          0.6519908010        1.0293267157       -1.1304678100
 C          2.9795234647        1.5758240909       -0.6554426361
 H          3.2831900614        2.1025265119        1.3010398469
 H          2.1991249925        0.9739633593       -2.4450772455
 P          0.6764153766       -2.1705821637        0.1997574469
 O         -1.1095157289       -0.2489310006        0.9776107647
 O         -4.1515229330        0.1901356646       -0.7988171687
 O         -3.1429041076        2.2885802895        0.4724702892
 O         -0.6206896467       -2.1924618848       -0.7187273102
 O          0.1755473234       -2.5686855546        1.6329062514
 O          1.4334243263       -3.4907931286       -0.2712509863
 O          1.5613669765       -0.9932257858        0.0745318342
 C         -2.7599320377        0.1815177200       -0.6899428163
 C         -2.2759674493       -0.8104499696        0.3871159664
 C         -2.1821501062        1.5336578795       -0.2047296151
 C         -1.0018979732        1.1298473979        0.6977369444
 C         -1.9221219467       -2.1974892304       -0.1569014461
 H         -2.3173560343       -0.0832500277       -1.6551130500
 H         -3.0556217795       -0.9196982634        1.1538544487
 H         -1.8536933352        2.1507244566       -1.0412667924
 H         -1.0362863027        1.6846174691        1.6466978191
 H         -1.9663451126       -2.9348482248        0.6455592616
 H         -2.6031769384       -2.4674057664       -0.9648073766
 H         -4.4766645536        1.0716780161       -0.5355451342
 H         -3.3781519311        1.8722843814        1.3165622348
 H          0.8511502977       -2.5427360211        2.3191993143
 H          2.0518329649       -3.3764306966       -0.9985471671
  34
        -75.52531267
 O          0.6201464042        2.6444902851        1.8276785397
 O         -0.0344716989        0.0232977746       -1.8355304499
 O          4.1292644048        1.2370374694       -0.6389151976
 N          0.1830661605        1.4560817066       -0.0744300845
 N          2.3617717971        2.0340619318        0.5431370104
 N          2.0193507444        0.7920373353       -1.3523989337
 C          1.0263202724        2.0687850709        0.8463012668
 C          0.6743415661        0.6873673471       -1.1108450489
 C          2.9360120358        1.3313309352       -0.4851252052
 H          2.9867643464        2.4417186426        1.2339635508
 H          2.3801409484        0.2064154708       -2.1008027080
 P          0.9050407710       -2.1888232203        0.4710499301
 O         -1.3751432887        0.0623967207        1.0186256366
 O         -4.4085226915        0.3173989914       -0.2856497588
 O         -3.0471218376        2.5415622284       -0.4543653624
 O         -0.6523917782       -2.5675257491        0.5288867233
 O          1.4958272330       -3.3723696347        1.3253757030
 O          1.3866841583       -2.4881046777       -0.9945043922
 O          1.3176861104       -0.8451528086        0.9078257834
 C         -3.0841737094        0.0940207279       -0.6574481853
 C         -2.3061531713       -0.7812666409        0.3513461689
 C         -2.2630802414        1.4184647554       -0.7411739143
 C         -1.2084834042        1.2894077619        0.3700825657
 C         -1.6099044277       -1.9671271215       -0.3311777266
 H         -3.1251196736       -0.3983658004       -1.6307256539
 H         -2.9720725481       -1.1637716944        1.1330097254
 H         -1.7820261459        1.5126596416       -1.7182028411
 H         -1.3565806281        2.0934222785        1.1042789165
 H         -2.3490822321       -2.7407051490       -0.5487887434
 H         -1.1252360957       -1.6348438194       -1.2501686534
 H         -4.4393787489        0.9435128213        0.4566100786
 H         -3.7023072635        2.6687615747       -1.1589473205
 H          1.4366523558       -3.2587172783        2.2790375156
 H          1.3596962486       -3.4176147057       -1.2590153289
  34
        -75.52526008
 O         -0.0815240023        0.3948894244       -1.7877938844
 O          0.7683153255        2.2019154613        2.3031229635
 O          4.1521039246        1.2525169824       -0.5307335080
 N          0.2348043341        1.4345223112        0.2181152864
 N          2.0075675898        1.0086956735       -1.2382132959
 N          2.4487413019        1.8248613502        0.8575611961
 C          0.6691528602        0.8821553489       -0.9707248686
 C          1.1252591980        1.8283330192        1.2110067368
 C          2.9677896279        1.3378892557       -0.3148642366
 H          2.3268509243        0.5832589073       -2.1044112466
 H          3.1077893732        2.0710771915        1.5919369414
 P          0.8351664298       -2.2777607396       -0.0332389102
 O         -1.3347135894       -0.1089222815        1.0672849264
 O         -4.3994260992        0.5021665173       -0.0047065442
 O         -2.9531499634        2.6738305542        0.1760120306
 O         -0.7336512148       -2.6062483375        0.0216628767
 O          1.4075202114       -3.6203352286        0.5573385921
 O          1.2487886884       -2.3113557713       -1.5489855891
 O          1.3186135772       -1.0549887783        0.6284969404
 C         -3.1055353531        0.3128776439       -0.4866902681
 C         -2.3204949978       -0.7721703470        0.2846834854
 C         -2.2305584538        1.5977894061       -0.3512721387
 C         -1.1468208871        1.2186433390        0.6714210686
 C         -1.6938869419       -1.8096561089       -0.6572114460
 H         -3.2145500145        0.0259939932       -1.5341855128
 H         -2.9690254323       -1.2893411321        1.0006955217
 H         -1.7788861330        1.8583832367       -1.3118387226
 H         -1.2453276820        1.8626180998        1.5565172045
 H         -2.4696287068       -2.4964206860       -1.0018183717
 H         -1.2258920371       -1.3075917772       -1.5050494716
 H         -4.3680025093        0.9810379139        0.8399511658
 H         -3.6126365359        2.9717513230       -0.4703897298
 H          1.3956666842       -3.6827211402        1.5172655131
 H          1.1769356340       -3.1730507007       -1.9817593080
  34
        -75.52477332
 O          0.0638406994        0.3061651513       -1.8006941989
 O          0.6583026113        2.2670752379        2.2705722833
 O          4.1911440119        1.4245948908       -0.4113536968
 N          0.2414263914        1.4108503752        0.1931495886
 N          2.0890088937        1.0435889237       -1.1837264573
 N          2.4101050006        1.9224906825        0.9063940401
 C          0.7490513402        0.8517269927       -0.9634327664
 C          1.0745261969        1.8776966255        1.2044450668
 C          2.9968893017        1.4454090123       -0.2381573289
 H          2.4600857671        0.6188866350       -2.0294697311
 H          3.0261212667        2.2262435812        1.6564352652
 P          0.7894206788       -2.3237610986       -0.1084308717
 O         -1.3140867805       -0.1281974806        1.0827046257
 O         -4.2597058219        0.6762289613        0.6064498532
 O         -2.8263186962        2.6934391358       -0.3341952887
 O         -0.7851651247       -2.6289335333       -0.0988447942
 O          1.3154185537       -3.6432309414        0.5645288317
 O          1.2409535824       -2.3513734656       -1.6239632860
 O          1.3119585173       -1.1145972534        0.5390486207
 C         -3.2215115981        0.2735701714       -0.2407499914
 C         -2.3337067890       -0.8204120246        0.3651844091
 C         -2.2274187807        1.4443960851       -0.4758869030
 C         -1.1490886177        1.1834991054        0.6043929196
 C         -1.7509487435       -1.7692192800       -0.6883622461
 H         -3.6957302894       -0.0410108792       -1.1708619255
 H         -2.8652685107       -1.4154009028        1.1153234886
 H         -1.7896859243        1.3872411081       -1.4736105374
 H         -1.2893166596        1.8809255952        1.4425745426
 H         -2.5411901063       -2.4214529578       -1.0658999731
 H         -1.2992193490       -1.2009961263       -1.5011876824
 H         -3.9477538684        0.7268250784        1.5229066909
 H         -3.6947118681        2.5665993022        0.0970646977
 H          0.7057410159       -4.3919731699        0.5929732584
 H          1.0581430961       -3.1494917491       -2.1373070421
  34
        -75.52468227
 O          0.4348004739        2.8154378457        1.6784576446
 O          0.1729221485       -0.1467090203       -1.7768705408
 O          4.1606566000        1.4988867032       -0.5059503666
 N          0.1841532213        1.4319049799       -0.1234364396
 N          2.2814465210        2.2233132627        0.5432619671
 N          2.1281906438        0.8205960426       -1.2603771949
 C          0.9311002046        2.1864108252        0.7733686483
 C          0.7842837264        0.6247101420       -1.0699909932
 C          2.9577125081        1.4999397650       -0.4058484885
 H          2.8364607653        2.7431079806        1.2185404475
 H          2.5680023099        0.2106776541       -1.9442227162
 P          0.8576118864       -2.2520294374        0.4933692416
 O         -1.3524171791        0.0343205732        0.9851692620
 O         -4.2540292797        0.6652277579        0.2078906158
 O         -2.8533476061        2.4152532062       -1.1300807115
 O         -0.7017280903       -2.6258740122        0.4676301903
 O          1.3649779180       -3.3652387990        1.4827948821
 O          1.4274006690       -2.6052833018       -0.9393618913
 O          1.3054549876       -0.9093170288        0.8820262251
 C         -3.2005804419        0.0645975246       -0.4948147011
 C         -2.3279974150       -0.8267478587        0.4072701384
 C         -2.2276574652        1.1936250908       -0.9189730691
 C         -1.2192265374        1.2243401065        0.2567740930
 C         -1.6671627207       -1.9832661506       -0.3529701117
 H         -3.5643799088       -0.4837084861       -1.3681169638
 H         -2.8918557396       -1.2264732248        1.2565080231
 H         -1.7185026833        0.9306150388       -1.8467083387
 H         -1.4485950409        2.0698242035        0.9201425583
 H         -2.4110911745       -2.7482312365       -0.5854707212
 H         -1.1959061317       -1.6119175695       -1.2629137707
 H         -4.9998324815        0.0549417111        0.2927926163
 H         -3.6032700994        2.4875904649       -0.5116281196
 H          0.7553064848       -4.0908770949        1.6698319779
 H          1.3036473513       -3.5067316779       -1.2645815892
