  34
        -75.53405274
 O         -0.2850826587        1.0919848173       -1.9098089591
 O          1.1002668738        1.3687575379        2.4172371192
 O          4.0910329422        1.5544229218       -0.9619184023
 N          0.3014599199        1.3835987551        0.2774247174
 N          1.8716068017        1.5209978233       -1.4416644753
 N          2.5855684922        1.5497179096        0.7374534219
 C          0.5709082247        1.2842315580       -1.0754661613
 C          1.3140100283        1.4119600480        1.2290296371
 C          2.9439280194        1.5272216574       -0.5867168765
 H          2.0755272288        1.4389137527       -2.4343711753
 H          3.3354795388        1.5319617435        1.4237416027
 P          0.6921964185       -2.2408029815        0.1449173345
 O         -1.2028690803       -0.3543993884        0.8132541238
 O         -4.2412721841        0.3862971551       -0.4607678135
 O         -3.1007783328        2.2860880311        0.9015322725
 O         -0.7256494676       -2.6563235582       -0.4877235954
 O          0.5867331294       -2.1348546519        1.7010634307
 O          1.4792327418       -3.6075636967       -0.0113062050
 O          1.3367685121       -1.0844850257       -0.5041178501
 C         -2.8677836426        0.4595210743       -0.7157240403
 C         -2.1914834323       -0.7841836594       -0.1143851112
 C         -2.2111613181        1.6619907010        0.0280827285
 C         -1.0281079862        1.0339850527        0.7963539004
 C         -1.5197979696       -1.6883400125       -1.1480799790
 H         -2.6521727081        0.5221755612       -1.7846232412
 H         -2.9300063742       -1.3634598128        0.4535836978
 H         -1.8534741518        2.4225032712       -0.6685549636
 H         -1.0215564996        1.3885178137        1.8350036786
 H         -2.2597097290       -2.2424259908       -1.7257013962
 H         -0.8880827444       -1.0824298991       -1.8028736387
 H         -4.7234277499        0.9921731880       -1.0432932158
 H         -3.8183317840        1.6597811070        1.1154362014
 H          0.2864616289       -2.9356199033        2.1499793633
 H          1.7699899849       -3.8342973138       -0.9005422152
