34
cyanuric_acid_Nlink_ribose_phosphate  charge=0 mult=1  seed=1_b3lyp_pcm
O      3.40818900     1.45636100     1.89740500
O      1.62759400    -1.03825200    -1.51651900
O      5.95870000    -1.61711300    -0.26634700
N      2.44716800     0.27344100     0.17184100
N      4.67787500    -0.06531800     0.80748900
N      3.78622500    -1.32568000    -0.89672100
C      3.50165700     0.61937400     1.02857800
C      2.55025500    -0.72190800    -0.79928600
C      4.89750000    -1.05045600    -0.13065100
H      5.45279200     0.17681300     1.40833100
H      3.87816800    -2.04468600    -1.60017100
P     -4.34742700    -0.59227800     0.18180900
O      0.25700300     0.00051500     0.97401200
O     -1.93126500     1.48993900    -1.41915000
O      0.16065200     2.88848600    -0.53275200
O     -2.96003300    -1.25892800    -0.22899800
O     -4.48986300    -0.72297800     1.76443400
O     -4.14572500     0.96864500     0.05243100
O     -5.44898900    -1.18498000    -0.59276600
C     -0.81737500     0.69374200    -0.99889900
C     -1.04714000     0.16092700     0.41990600
C      0.46834600     1.54031700    -0.84914700
C      1.15912300     0.93425000     0.38932200
C     -1.72758600    -1.20090300     0.51557300
H     -0.65059100    -0.11989600    -1.69746900
H     -1.60242500     0.90972600     0.99336400
H      1.09372700     1.49007800    -1.73884700
H      1.36868500     1.73743400     1.08810700
H     -1.08476200    -1.95454600     0.06801300
H     -1.91352200    -1.46197100     1.55569200
H     -2.03571500     1.42515200    -2.37514800
H     -0.66192300     3.11458100    -0.98715300
H     -4.98917100    -1.50264800     2.03695600
H     -3.42151000     1.23141300    -0.56344600
