30
calc_63adf8eb5d64e352; angstrom; first printed source-job orientation; unoptimized start
O -1.211377 0.676516 -1.179063
O -1.337383 -2.258518 0.840379
O -3.435133 -1.373814 -0.537603
O -1.743962 2.146551 1.281182
O 1.261989 -2.294566 0.054989
N 0.858406 -0.090203 -0.357541
N 3.042850 -0.878589 0.114476
N 4.805031 0.574089 0.220929
C -1.354808 -0.867227 0.605903
C -2.771844 -0.398851 0.258219
C -0.554080 -0.439332 -0.643460
C -2.526612 0.851094 -0.588329
C -2.606406 2.173176 0.146373
C 1.310932 1.187259 -0.411859
C 1.734006 -1.147572 -0.052091
C 2.618484 1.473195 -0.207354
C 3.488669 0.373397 0.044144
H -0.991436 -0.309433 1.470818
H -3.357348 -0.175574 1.151694
H -0.523943 -1.256886 -1.366249
H -3.248304 0.877740 -1.405091
H -2.320317 2.974532 -0.539872
H -3.645932 2.335346 0.447146
H -0.426932 -2.550501 0.632365
H -3.101558 -2.235648 -0.250258
H 0.569804 1.937486 -0.630339
H -1.794724 2.995265 1.730524
H 2.977827 2.488541 -0.251317
H 5.207576 1.492880 0.181142
H 5.408150 -0.211017 0.396039
