29
calc_cc34f0ef71265eca; angstrom; atom order from source job; valid
O -1.094047 0.253009 -1.257138
O -1.092799 -1.993014 1.541324
O -3.187729 -1.809940 -0.110835
O -2.103807 2.350733 0.591451
O 0.601604 1.655849 0.664388
O 4.885116 0.336513 0.157258
N 0.953029 -0.396642 -0.309231
N 2.717495 0.939027 0.383323
C -1.277178 -0.789135 0.842197
C -2.693223 -0.552490 0.316458
C -0.464456 -0.712265 -0.456241
C -2.472954 0.406888 -0.859198
C -2.753004 1.865591 -0.568136
C 1.362948 0.785360 0.270031
C 1.878335 -1.313013 -0.748895
C 3.202053 -1.142139 -0.630278
C 3.704373 0.056051 -0.019275
H -0.998700 0.020159 1.510381
H -3.346377 -0.120785 1.073838
H -0.490808 -1.690841 -0.939364
H -3.103938 0.100497 -1.695626
H -2.471074 2.453617 -1.446974
H -3.825298 1.985815 -0.412409
H -1.561015 -2.687772 1.066837
H -4.099769 -1.705050 -0.390810
H 1.459938 -2.198565 -1.203620
H -1.157377 2.153672 0.521770
H 3.018208 1.804585 0.813191
H 3.894471 -1.886327 -0.987429
