29
calc_59a42f27feac7e7c; angstrom; atom order from source job; valid
O -4.243451 -0.602968 -0.095806
O -2.381704 -1.772009 0.364685
N -0.874303 0.708087 0.208545
N -2.750335 1.696726 -0.475014
C -2.217867 0.559851 -0.047213
C -0.560110 2.001035 -0.080148
C -1.731735 2.593348 -0.500272
C -2.922346 -0.713432 0.100039
H 0.440637 2.375348 0.035808
H -1.875956 3.613352 -0.813671
H -4.631044 -1.486130 -0.000833
O 1.195659 0.330517 1.239934
O 2.804461 -1.709478 -1.267680
O 0.701480 -2.593836 0.138892
O 2.915466 1.999920 -0.315919
C 1.931235 -0.745265 -0.724572
C 2.400436 -0.153853 0.614106
C 0.535971 -1.285381 -0.380480
C 0.058700 -0.314025 0.719726
C 3.413882 0.963769 0.527342
H 1.838513 0.053567 -1.457584
H 2.830236 -0.951021 1.228766
H -0.136403 -1.288788 -1.235988
H -0.459238 -0.857566 1.504958
H 4.343432 0.545675 0.129988
H 3.614403 1.345540 1.531866
H 2.619856 -2.550112 -0.828634
H -0.172188 -2.983416 0.259069
H 3.575940 2.696423 -0.372492
