29
calc_59a42f27feac7e7c; angstrom; first printed source-job orientation; unoptimized start
O -4.129834 0.611481 0.114076
O -2.285919 1.777808 -0.354668
N -0.783466 -0.696128 -0.235165
N -2.632098 -1.671067 0.511781
C -2.115666 -0.542581 0.053974
C -0.465966 -1.974866 0.064667
C -1.625281 -2.559839 0.522906
C -2.832480 0.715109 -0.087161
H 0.528782 -2.349820 -0.059049
H -1.782561 -3.563675 0.859262
H -4.590657 1.471445 0.033346
O 1.238455 -0.259388 -1.324945
O 2.836837 1.666641 1.244109
O 0.715934 2.590894 -0.076335
O 2.789036 -2.039135 0.321137
C 1.967170 0.720233 0.713799
C 2.425025 0.134576 -0.637451
C 0.570176 1.275020 0.372501
C 0.103699 0.323239 -0.753860
C 3.378464 -1.049024 -0.492671
H 1.882194 -0.091321 1.443439
H 2.925039 0.918385 -1.223272
H -0.113060 1.224521 1.228261
H -0.443212 0.882219 -1.525688
H 4.301712 -0.667842 -0.041830
H 3.588026 -1.448098 -1.492110
H 2.664404 2.518461 0.808140
H -0.160664 2.969486 -0.239877
H 3.435402 -2.741075 0.480847
