29
DFT refinement start; not an optimized result
O -2.563913 -1.416987 1.941003
O -0.664330 -0.262187 1.841944
N -1.084664 -0.212517 -1.118316
N -3.169718 -0.780090 -0.612695
C -1.955131 -0.588955 -0.128752
C -1.810069 -0.173864 -2.264635
C -3.095362 -0.517737 -1.929212
C -1.644628 -0.735716 1.290236
H -1.372890 0.090340 -3.204466
H -3.960264 -0.591519 -2.555267
H -2.378702 -1.478737 2.900426
O 0.985174 -0.929857 -0.312315
O 2.980504 1.668273 -1.010244
O 0.519219 2.502803 -1.207605
O 2.096072 -0.219074 2.523327
C 2.170718 1.133787 0.007268
C 2.261325 -0.409537 0.072744
C 0.697487 1.401777 -0.381629
C 0.321208 0.056866 -1.056580
C 2.639686 -0.953349 1.457942
H 2.401562 1.570336 0.981649
H 2.999979 -0.752617 -0.665604
H 0.078834 1.534025 0.510056
H 0.693830 0.073459 -2.095116
H 3.722539 -0.898056 1.585082
H 2.324641 -2.002970 1.498424
H 3.853827 1.897448 -0.666352
H 1.354014 2.650328 -1.691520
H 1.126390 -0.241143 2.463322
