29
DFT refinement start; not an optimized result
O -4.154529 0.823222 -0.106230
O -2.188502 1.777971 -0.553744
N -0.926321 -0.790805 -0.069236
N -2.912181 -1.525662 0.596905
C -2.255415 -0.493568 0.096138
C -0.762143 -2.064721 0.354245
C -2.002952 -2.500330 0.759661
C -2.844875 0.799831 -0.220720
H 0.188871 -2.551244 0.319871
H -2.282667 -3.453451 1.158150
H -4.533920 1.703534 -0.304803
O 1.241261 -0.648062 -0.894177
O 2.716945 1.725914 1.369914
O 0.622822 2.438201 -0.114621
O 4.087124 -1.523701 -1.258078
C 1.894317 0.705924 0.914206
C 2.398218 -0.009976 -0.353601
C 0.494056 1.173372 0.463190
C 0.093852 0.094055 -0.579127
C 3.485628 -1.046432 -0.083440
H 1.803385 -0.020967 1.728369
H 2.772497 0.734260 -1.070980
H -0.221689 1.190132 1.293699
H -0.299711 0.586547 -1.481383
H 3.057858 -1.871431 0.500660
H 4.277818 -0.569315 0.497204
H 2.554240 2.517693 0.829512
H -0.257544 2.759954 -0.365625
H 3.408347 -1.928433 -1.816896
