30
DFT refinement start; not an optimized result
O -1.343716 -0.651544 1.122447
O -1.613104 2.456056 -0.239914
O -3.796705 0.936634 0.025712
O -1.262869 -3.213772 -0.178697
O 4.621143 -0.470801 -0.483037
N 0.753037 0.178448 0.369669
N 2.912898 0.978307 -0.144498
N 1.248767 2.466000 0.216635
C -1.406717 1.095948 -0.488856
C -2.718888 0.270678 -0.559976
C -0.643504 0.478900 0.711862
C -2.324903 -1.032178 0.155001
C -1.799833 -2.091843 -0.830064
C 1.655429 1.193245 0.132174
C 1.222752 -1.106410 0.358749
C 2.508332 -1.375971 0.078861
C 3.430104 -0.284201 -0.203333
H -0.823100 0.946313 -1.408847
H -3.019564 0.082560 -1.592346
H -0.622656 1.189668 1.551020
H -3.159770 -1.444859 0.729134
H -2.617535 -2.377766 -1.502367
H -0.981835 -1.679535 -1.426192
H -2.303143 2.805246 -0.824518
H -3.610124 1.130051 0.956897
H 0.501388 -1.874701 0.591348
H -1.956461 -3.668222 0.320411
H 2.886176 -2.383464 0.063600
H 1.947752 3.151787 -0.016482
H 0.276694 2.737921 0.198744
