30
DFT refinement start; not an optimized result
O -1.313512 0.137245 1.342333
O -1.718600 1.875305 -1.657824
O -3.727597 0.955543 -0.230763
O -0.791893 -2.091392 -0.568823
O 4.477530 -0.579802 -0.696296
N 0.732592 0.575573 0.176931
N 2.756186 -0.480772 0.773696
N 1.098659 -0.368966 2.296981
C -1.479908 0.696287 -0.961091
C -2.760489 -0.027103 -0.495720
C -0.687438 0.910137 0.363966
C -2.281813 -0.744076 0.773802
C -1.715555 -2.142081 0.499760
C 1.537184 -0.103700 1.064765
C 1.328040 1.042099 -0.967806
C 2.594691 0.730593 -1.283488
C 3.351067 -0.155190 -0.406051
H -0.907810 0.028125 -1.611025
H -3.102215 -0.734378 -1.255848
H -0.743884 1.965726 0.670763
H -3.075471 -0.825842 1.520995
H -1.227751 -2.500635 1.413373
H -2.553579 -2.805312 0.254042
H -2.545247 2.265088 -1.321051
H -4.602458 0.555335 -0.137402
H 0.717018 1.679903 -1.588431
H -0.471205 -2.984810 -0.750931
H 3.068887 1.099846 -2.176110
H 1.715837 -0.906662 2.880884
H 0.136121 -0.205503 2.547320
