35
calc_a384fef795f11182; angstrom; atom order from source job; valid
O 1.849733 -1.250674 -2.022658
O 0.702414 -2.516572 2.395380
O -2.087165 -3.232257 -1.076534
N -0.119079 -2.200849 -1.515955
N -0.682886 -2.836009 0.655076
C 1.469379 -1.689729 0.292770
C 1.105372 -1.688299 -1.177340
C 0.482978 -2.383160 1.216018
C -1.042979 -2.784798 -0.675210
H 2.410168 -2.234235 0.389440
H -0.369771 -2.184445 -2.494390
H -1.347350 -3.283907 1.270016
P -2.551664 1.298397 0.121519
O 0.511671 0.489824 0.574968
O 2.853018 2.800418 -0.724468
O 3.545137 1.171151 1.267614
O -1.504540 2.457186 -0.170214
O -3.838440 2.077522 0.584042
O -2.055355 0.594785 1.447054
O -2.813135 0.417606 -1.019400
C 2.155202 1.581610 -0.670187
C 0.820681 1.775680 0.041264
C 2.860308 0.534190 0.214178
C 1.703070 -0.264274 0.820057
C -0.289179 2.211744 -0.883378
H 1.996753 1.169028 -1.666230
H 0.939760 2.495818 0.855787
H 3.536312 -0.093458 -0.365784
H 1.869639 -0.340185 1.894102
H -0.012314 3.152588 -1.353901
H -0.458937 1.460476 -1.656278
H 3.411570 2.815928 -1.503075
H 3.861468 2.015433 0.927152
H -3.743771 2.579558 1.398341
H -1.100491 0.399760 1.392870
