  36
        -75.06176354
 P         -0.2890979426       -2.5316161075        0.0247767228
 O         -1.7035112646       -0.1522849712        0.7927936763
 O         -2.7253739529        2.8956031863        1.0811185457
 O         -3.6119484983        1.9028848908       -1.1653164146
 O         -1.5510896273       -2.2326250839       -0.9314438830
 O         -0.0559574173       -4.0708302727       -0.2730405882
 O         -0.7497851905       -2.5785624836        1.5191074995
 O          4.6882743567        0.5673771563       -0.1704822196
 O          0.8578261520       -1.6501145896       -0.2433711288
 N          0.2978385106        1.0084329928        1.1858405973
 N          2.3688809907        0.5817736428        1.9116551485
 N          0.7795629588        1.3694653003       -1.1792877825
 N          3.0570065108        1.0795281635       -1.6581994693
 C         -1.7408593849        2.1982577489        0.3810751006
 C         -2.3146892716        1.4712954991       -0.8690768509
 C         -1.1451459002        1.0568398800        1.2365731705
 C         -2.3597199751       -0.0117281325       -0.4604750552
 C         -1.6824649046       -0.9328659568       -1.4750278135
 C          1.1159326423        1.0859600754        0.1001661679
 C          1.1154360101        0.6807324045        2.2319058874
 C          2.4099034381        0.8251450808        0.5654524031
 C          3.5005092656        0.7948629590       -0.3621854047
 C          1.7779685247        1.3374909906       -1.9994586439
 H         -0.9516456824        2.9054390702        0.1103539605
 H         -1.6305072988        1.5996187368       -1.7106172385
 H         -1.4170715443        1.1869198164        2.2917651905
 H         -3.4008636327       -0.3272281325       -0.3167198609
 H         -0.6872702100       -0.5405452216       -1.7053615529
 H         -2.2854622370       -1.0307846589       -2.3778337884
 H         -3.5979897348        2.6242017951        0.7352862752
 H         -3.5842463010        2.6938662100       -1.7241090405
 H          0.7381121855        0.5355215780        3.2237397277
 H          1.5744757722        1.5405349173       -3.0400532098
 H          3.7765808763        1.0559071446       -2.3742534589
 H          0.3566493646       -4.2811392251       -1.1167819090
 H         -1.4338994162       -3.2316158501        1.7153529111
