36
hypoxanthine_ribose_phosphate  charge=0 mult=1  seed=1_b3lyp_pcm
P     -4.40050200    -1.25586700     0.14817100
O     -0.48040900     0.54304200     0.62349500
O      1.25122900     3.15520000    -1.06554500
O     -0.83140300     3.71613700     0.57267800
O     -3.16007000    -0.35937600     0.55674500
O     -4.55692000    -2.20166500     1.41461200
O     -3.77049100    -2.23679100    -0.93359900
O      5.28294900    -2.66369500    -0.64914600
O     -5.61228700    -0.53410500    -0.27591600
N      1.63285300     0.11750100    -0.26230100
N      2.44856400    -1.64236300    -1.38547900
N      3.49080700     0.54737800     1.25416400
N      5.24996600    -0.97221600     0.89932600
C      0.28232400     2.13921400    -0.90959500
C     -1.05446800     2.65584100    -0.34269100
C      0.71800000     1.14916500     0.17565600
C     -1.59441200     1.44425900     0.43018600
C     -2.71555900     0.72441700    -0.28814200
C      2.87938200    -0.13304900     0.25674200
C      1.43412100    -0.83007300    -1.24331200
C      3.37032900    -1.22000700    -0.45374000
C      4.67434400    -1.72718100    -0.14504000
C      4.67235100     0.08158100     1.53266500
H      0.10946100     1.61372700    -1.84873400
H     -1.73182700     2.97422300    -1.13801600
H      1.22666800     1.68386300     0.97974300
H     -1.94663000     1.77205100     1.40899500
H     -2.37879400     0.31925300    -1.24289100
H     -3.54391200     1.41178900    -0.45713200
H      1.25736800     3.46047200    -1.97816800
H     -0.12963100     4.27000400     0.20430200
H      0.51689400    -0.87796300    -1.80557700
H      5.26181800     0.53967800     2.31456200
H      6.17576200    -1.25853400     1.18933300
H     -5.12154800    -1.83697800     2.10743000
H     -4.42270800    -2.64066200    -1.51935200
