37
calc_9db5e2d5ecb9c3a8; angstrom; first printed source-job orientation; unoptimized start
P 1.619000 -1.355170 2.671230
O -0.824770 -1.648760 -0.937460
O 0.395230 -3.165770 -3.986610
O -0.952940 -4.448680 -2.149270
O 0.495780 -1.928410 1.690560
O 0.909940 -1.275320 4.098800
O 1.763830 0.189950 2.313470
O 2.893760 -2.121600 2.736990
N -0.190450 -0.217750 -2.711130
N -0.441310 1.787150 -3.657570
N 1.617910 0.279870 -1.153230
N 2.172920 2.645290 -1.169560
N 1.109620 4.230100 -2.542500
C 0.512230 -2.638170 -2.665820
C 0.160980 -3.694200 -1.626010
C -0.540330 -1.576380 -2.356180
C -0.237020 -2.861840 -0.409640
C 0.956530 -2.544650 0.495110
C 0.727520 0.596360 -2.106010
C -0.830320 0.529550 -3.668650
C 0.512060 1.848330 -2.662000
C 1.261880 2.912130 -2.131870
C 2.300470 1.369650 -0.745300
H 1.531340 -2.265160 -2.522100
H 0.969600 -4.406450 -1.441120
H -1.478290 -1.807960 -2.877790
H -1.018550 -3.352440 0.183290
H 1.678210 -1.889770 0.004870
H 1.464220 -3.473650 0.774620
H -0.195250 -3.948450 -3.911950
H -1.737360 -4.292450 -1.590530
H -1.584440 0.114930 -4.326190
H 3.043000 1.202470 0.031000
H 0.695670 4.322770 -3.462900
H 1.917000 4.797270 -2.322570
H 1.526730 -1.591950 4.783210
H 0.912850 0.651750 2.424770
