20
calc_d2fbb85799b12c43; angstrom; atom order from source job; valid
O -0.431104 0.906042 -0.735262
O 0.747312 -2.222820 0.578927
O 2.134189 -0.550280 -1.005545
O 0.660570 2.096146 0.967221
O -3.144192 -0.048337 -0.460327
C 0.436424 -0.847414 0.629696
C -0.737125 -0.430970 -0.280062
C 1.574563 0.066808 0.147829
C 0.814730 1.341729 -0.214444
C -2.086776 -0.440245 0.410509
H 0.206938 -0.612931 1.668459
H -0.772526 -1.081323 -1.157442
H 2.330700 0.244414 0.909839
H 1.301613 1.930659 -0.992138
H -2.316682 -1.453426 0.740409
H -2.051807 0.209387 1.290618
H 1.286129 -2.362807 -0.211392
H 3.024248 -0.216874 -1.151515
H 0.199293 2.914902 0.755241
H -2.952995 0.842543 -0.773353
