37
calc_ff2daa361198dfa7; angstrom; atom order from source job; valid
P 2.274133 -1.891582 -0.228927
O 0.834184 0.850847 -0.727341
O -0.837878 3.308520 1.267061
O 1.363823 3.877276 -0.127162
O 3.184480 -0.594323 -0.116465
O -2.753024 1.715449 -1.705545
O -4.415407 -2.077099 0.111703
O 3.274370 -2.999786 -0.729518
O 1.419752 -1.712646 -1.541134
O 1.532514 -2.187312 1.004211
N -1.424176 0.571857 -0.226631
N -3.537074 -0.189056 -0.763325
C 0.023622 2.264833 0.942920
C 1.460655 2.695284 0.636210
C 1.991703 1.513587 -0.181645
C -0.349544 1.529197 -0.349489
C 2.786920 0.534623 0.660145
C -1.273034 -0.530306 0.589483
C -2.579415 0.774027 -0.958050
C -2.211815 -1.470327 0.760829
C -3.468512 -1.313485 0.047182
C -2.018478 -2.665477 1.636511
H 0.023177 1.562519 1.777316
H 2.040865 2.860156 1.543900
H -0.654831 2.240640 -1.114643
H 2.598180 1.867648 -1.014556
H 2.216490 0.201044 1.528638
H 3.701246 1.013873 1.003047
H -0.571946 4.073752 0.745648
H 2.190810 4.359371 -0.093122
H -0.308881 -0.619484 1.070524
H -4.393765 -0.054668 -1.280250
H -2.743515 -2.672157 2.451077
H -2.161622 -3.585594 1.069113
H -1.015014 -2.670564 2.056189
H 3.690831 -3.490668 -0.015946
H 1.009630 -0.830890 -1.554413
