37
calc_ff2daa361198dfa7; angstrom; first printed source-job orientation; unoptimized start
P 3.017427 -1.737844 -0.136521
O 0.661360 0.533197 -0.247736
O -1.213490 3.498665 0.461519
O 1.412682 3.867492 0.119425
O 3.479469 -0.208619 -0.136084
O -2.396781 0.881883 -2.408152
O -4.787699 -2.162370 -0.036168
O 4.133796 -2.438551 -1.017970
O 1.794496 -1.823974 -1.140610
O 2.805739 -2.303477 1.207968
N -1.673607 0.378809 -0.278085
N -3.560551 -0.629248 -1.170915
C -0.435599 2.359726 0.716682
C 1.096656 2.646413 0.772777
C 1.726120 1.478496 -0.012990
C -0.548401 1.283074 -0.379269
C 2.861457 0.784779 0.706669
C -1.853008 -0.383927 0.861934
C -2.529784 0.259216 -1.368975
C -2.860760 -1.258922 1.034432
C -3.818894 -1.415197 -0.048835
C -3.035951 -2.073732 2.278444
H -0.761136 1.948563 1.670586
H 1.441283 2.671256 1.804677
H -0.612572 1.750094 -1.360464
H 2.074427 1.863126 -0.974513
H 2.517199 0.325070 1.632709
H 3.637587 1.511192 0.936094
H -0.666335 4.112323 -0.050092
H 1.574514 4.552594 0.775393
H -1.101624 -0.240670 1.622992
H -4.202340 -0.724143 -1.946515
H -3.998817 -1.866256 2.747043
H -3.014480 -3.140583 2.052582
H -2.249100 -1.857634 2.998046
H 4.837772 -2.838795 -0.493307
H 1.173731 -1.078937 -1.007178
