26
calc_1b8957e20a266a8b; angstrom; atom order from source job; valid
N 1.568617 -0.189557 -0.252603
N 3.292252 0.987566 0.494644
C 2.706488 -0.857423 -0.652800
C 1.980554 0.914780 0.433357
C 3.755595 -0.121881 -0.180795
H 2.659059 -1.769973 -1.219066
H 1.282385 1.626096 0.841471
H 4.807768 -0.323456 -0.288309
O -0.461133 0.441268 -1.228217
O -2.527921 -1.749098 -0.389073
O -0.485957 -2.133775 1.285646
O -1.339982 2.182522 0.930779
C -2.064924 -0.549402 0.232273
C -1.833993 0.575083 -0.788720
C -0.650893 -0.848456 0.739544
C 0.202046 -0.590492 -0.521099
C -2.080535 1.978488 -0.271603
H -2.736551 -0.248690 1.034327
H -2.481614 0.418235 -1.652965
H -0.384903 -0.123011 1.504340
H 0.259474 -1.501436 -1.121160
H -1.777681 2.694639 -1.039835
H -3.153540 2.098283 -0.094224
H -3.488044 -1.738054 -0.442072
H -1.077435 -2.726139 0.801167
H -1.501096 3.075921 1.248014
