37
unoptimized sampling seed; angstrom
P -4.632291 -1.063359 0.062370
O -0.432240 0.209100 0.362498
O 1.567645 3.039128 -0.534942
O -0.956727 3.641879 0.122136
O -3.212309 -0.417736 0.376389
O -4.915077 -1.888770 1.388833
O -4.409202 -2.214105 -1.007806
O -5.663897 -0.116600 -0.384515
O 6.034625 -0.520550 0.429015
N 1.848333 -0.109177 0.101077
N 2.842079 -2.015401 -0.458445
N 3.702840 1.238925 0.850682
N 5.619044 -2.600898 -0.392011
C 0.661626 1.973129 -0.693489
C -0.826478 2.391605 -0.538550
C 0.811963 0.868761 0.368823
C -1.457051 1.205492 0.229629
C -2.654341 0.609345 -0.469840
C 3.188316 0.084441 0.324731
C 1.699654 -1.397164 -0.380680
C 3.799424 -1.109288 -0.024377
C 5.226434 -1.375499 0.026678
H 0.817550 1.527398 -1.675900
H -1.282485 2.529893 -1.515867
H 1.027390 1.318499 1.345737
H -1.756173 1.538215 1.229713
H -2.358879 0.171608 -1.423602
H -3.400135 1.384696 -0.639692
H 1.082406 3.769775 -0.121852
H -0.984272 3.524464 1.078509
H 0.733641 -1.793214 -0.635330
H 4.714130 1.235420 0.838422
H 3.284215 2.102001 0.526847
H -5.099550 -1.349956 2.168407
H -3.715626 -2.851722 -0.795484
H 4.942136 -3.270547 -0.715001
H 6.594118 -2.843986 -0.379991
