34
calc_71e4fd9c80d17df9; angstrom; atom order from source job; valid
P 4.143967 -0.925792 0.159789
O -0.403153 0.574442 -1.276254
O 0.730752 3.283621 -0.073469
O -1.238339 2.418467 1.683655
O 3.066964 0.092400 -0.383132
O -4.083351 1.487967 -0.740302
O 5.416649 -0.012434 0.310347
O 4.531587 -1.893701 -1.018643
O 3.726291 -1.691671 1.343579
O -5.216023 -2.752037 0.344654
N -2.386990 0.056935 -0.162656
N -4.594820 -0.643728 -0.185203
C 0.755771 1.919921 0.299238
C -0.583253 1.464495 0.890531
C 0.918734 0.962922 -0.878955
C -1.362568 1.070547 -0.368689
C 1.694267 -0.294851 -0.534060
C -3.708882 0.381379 -0.389420
C -2.024551 -1.208599 0.223727
C -2.908656 -2.197417 0.412868
C -4.307686 -1.939463 0.205887
H 1.565485 1.816306 1.016605
H -0.414153 0.586668 1.513824
H 1.399149 1.466767 -1.717950
H -1.870295 1.940572 -0.781346
H 1.604852 -1.016481 -1.345431
H 1.330473 -0.739806 0.392748
H 0.174392 3.409057 -0.847333
H -1.153496 3.273749 1.248194
H -0.964114 -1.366112 0.356219
H -5.567446 -0.413389 -0.342601
H -2.591385 -3.182340 0.713264
H 5.349023 0.668408 0.990217
H 4.760612 -1.458991 -1.848483
