32
calc_c3e30f1dec61c4dd; angstrom; atom order from source job; valid
N 2.458804 -1.376798 -0.414671
N 1.100484 0.500754 0.114259
N 3.471100 0.653142 0.321066
N 0.193164 -1.531127 -0.596148
N 4.738038 -1.177697 -0.236410
N 2.116421 2.431302 0.842882
C 1.273431 -0.765741 -0.284376
C 3.518955 -0.619879 -0.102838
C 2.239569 1.160310 0.410348
H 0.429563 -2.439393 -0.958202
H 5.551485 -0.673663 0.067129
H 4.817728 -2.150834 -0.469801
H 1.222243 2.891013 0.806253
H 2.944893 2.985665 0.965206
O -1.493326 -0.097797 -1.422504
O -4.070962 -0.888663 0.214775
O -2.075730 -1.891980 1.647637
O -1.060008 2.283706 0.232550
C -3.005435 0.043192 0.420480
C -2.566980 0.713645 -0.892161
C -1.780720 -0.788648 0.820691
C -1.201508 -1.190710 -0.553182
C -2.073230 2.145488 -0.750615
H -3.279670 0.771362 1.182157
H -3.396603 0.696050 -1.602836
H -1.068698 -0.162644 1.349828
H -1.724454 -2.088480 -0.893399
H -2.906519 2.785059 -0.455520
H -1.720696 2.486637 -1.730066
H -4.914439 -0.428805 0.254647
H -2.958958 -2.200062 1.402170
H -0.366240 1.602987 0.075840
