  25
        -51.57742688
 P         -2.2267692407       -0.0499136325        0.0807988966
 O          0.4813790804       -0.3696693833        0.6435943618
 O          3.1378985660        1.7485196059       -0.0450666130
 O          3.3982341080       -0.6295879119        1.0358351422
 O          0.8282091029       -1.7254914900       -1.2316358946
 O         -1.5114222511        1.3436858467       -0.2826073925
 O         -3.7382587599        0.3273898950       -0.0764716079
 O         -2.1142293412       -0.2450520297        1.6470166470
 O         -1.8508026213       -1.1930986885       -0.7697656345
 C          2.2417823836        0.7878586823       -0.4996133632
 C          0.8290288228        0.9145397689        0.1306514173
 C          2.6594234975       -0.6627670723       -0.1533267409
 C          1.2898025720       -1.3431065156        0.0218705248
 C         -0.2293958521        1.3506908395       -0.8807800072
 H          2.1684917296        0.9010759259       -1.5845697569
 H          0.8377741817        1.6069729436        0.9778143218
 H          3.2082699014       -1.1286629747       -0.9748879828
 H          1.3199776948       -2.1971366559        0.7140807938
 H         -0.2229548351        0.6628140435       -1.7312251940
 H         -0.0501496262        2.3740068914       -1.2115115376
 H          3.5433228932        1.4210873049        0.7777928659
 H          3.8921722132       -1.4519364408        1.1547305395
 H         -0.1462084427       -1.8140216637       -1.1920952737
 H         -4.0433034409        1.0611931680        0.4712571684
 H         -1.2668898308       -0.5815666589        1.9564379338
