25
ribo_phosphate  charge=0 mult=1  seed=1_b3lyp_pcm
P      2.97414900     0.01296800     0.16945700
O     -1.21867000     0.91750500     0.75927300
O     -2.37555300    -2.21524100    -0.37109300
O     -3.85078000    -0.41302100     1.03321000
O     -2.28707800     2.10189200    -0.95966900
O      1.46279400    -0.21374600     0.56410200
O      3.01213200     1.14202300    -0.95978200
O      3.29213400    -1.29789000    -0.67191800
O      3.81154000     0.28567500     1.34654000
C     -2.08539200    -0.84256600    -0.58638100
C     -0.91572000    -0.41285200     0.31415800
C     -3.22560700     0.09077700    -0.13341100
C     -2.45960300     1.35742500     0.22457600
C      0.41393900    -0.46555800    -0.40163400
H     -1.85872900    -0.65826600    -1.63692200
H     -0.87747700    -1.06616100     1.18837300
H     -3.95580500     0.27434400    -0.92266900
H     -2.94703200     1.95321600     0.99589500
H      0.45789600     0.28710500    -1.18769000
H      0.56309500    -1.45612600    -0.83123500
H     -2.80182000    -2.57840600    -1.15429300
H     -3.83732400    -1.37768200     0.96818400
H     -1.82081100     2.91778700    -0.74801700
H      3.14211000     2.03197300    -0.60902600
H      4.18580900    -1.34323100    -1.03361500
