  37
        -73.60055799
 N          1.8622819517        1.8010963083       -1.0727665411
 N          1.3990697422        0.8070774203        1.0253207572
 N          3.6121381513        0.7862078783        0.1640700537
 N         -0.2498918371        1.8575034987       -0.2279424614
 N          4.0117158322        1.7695520473       -1.8637325319
 N          3.1358127443       -0.1158279931        2.2096752005
 C          1.0450269828        1.4489469135       -0.0880977156
 C          3.1392479919        1.4304368441       -0.9079080519
 C          2.7087535343        0.4951020021        1.0955812884
 H         -0.4950145649        2.0393274911       -1.1906344614
 H          3.6516824254        2.1437041318       -2.7233279876
 H          4.9429509857        1.3971728425       -1.8084224007
 H          2.4509579381       -0.4983987612        2.8379837420
 H          4.0761137385       -0.4704373101        2.2108608500
 P          0.2730692635       -2.1164006361       -0.1665132376
 O         -1.3855774288       -0.0429954003        0.6513567042
 O         -4.5499201194        0.7330367049       -0.8135457663
 O         -3.5511235679        1.9821082440        1.3124904679
 O         -1.2820509708       -2.4940796501       -0.3700950556
 O          0.9300772290       -3.5458505499       -0.2533557072
 O          0.5276633885       -1.7361175608        1.3450093402
 O          0.7910378480       -1.1896379247       -1.1850797711
 C         -3.1684084604        0.7774774113       -0.6928106108
 C         -2.5448040290       -0.4770570345       -0.0429898945
 C         -2.6571548128        1.9036198443        0.2373683254
 C         -1.2748048857        1.3745443895        0.6527866143
 C         -2.1145087014       -1.5585583860       -1.0298039379
 H         -2.7636226610        0.9055694386       -1.7014574877
 H         -3.2366303985       -0.9070378431        0.6937057507
 H         -2.5740042442        2.8607563612       -0.2862247033
 H         -0.9933456628        1.6541483325        1.6743876938
 H         -2.9720474741       -2.1110668599       -1.4136344537
 H         -1.5467821912       -1.1054917522       -1.8490985321
 H         -4.9400167188        0.9522195288        0.0513286036
 H         -3.3674213159        2.7632780660        1.8522461292
 H          0.6358057758       -4.1742295995        0.4184030005
 H          0.6024579245       -0.7579229284        1.4342618751
