37
melamine_ribose_phosphate  charge=0 mult=1  seed=1_b3lyp_pcm
N      3.42271400    -1.88241700    -0.07834000
N      3.36040900     0.49069100     0.14744800
N      5.45509200    -0.64270400     0.08734000
N      1.42644800    -0.75726800    -0.01609700
N      5.46615300    -2.92002400    -0.19447900
N      5.34894900     1.63618500     0.32031400
C      2.77704000    -0.71519000     0.02517600
C      4.75907400    -1.78211600    -0.05680200
C      4.70705900     0.45881600     0.18857900
H      0.99658200    -1.66791000    -0.04607500
H      4.98915400    -3.80295400    -0.22204000
H      6.46518100    -2.90031500    -0.09757600
H      4.83261200     2.47167000     0.52862100
H      6.34514200     1.63743800     0.44783800
P     -4.87497700    -0.74850800     0.03161800
O     -0.74329000    -0.16119500     0.42024300
O     -0.81002000     3.03519700     0.66693900
O      1.49124700     2.46622900    -0.56550100
O     -3.37408400    -0.81675700    -0.46524200
O     -4.71789400    -0.32858700     1.55847800
O     -5.26195600    -2.28551100     0.15026300
O     -5.78481600     0.08966900    -0.76806200
C     -0.89627300     2.08790100    -0.38794100
C     -1.70091100     0.86798600     0.08836000
C      0.48384400     1.48901900    -0.69411700
C      0.57097600     0.35560600     0.34053200
C     -2.66457100     0.34321600    -0.95885800
H     -1.34096900     2.55138000    -1.27160000
H     -2.25012600     1.13450100     0.99210300
H      0.48042300     1.04834700    -1.69558000
H      0.88904900     0.77036600     1.30446700
H     -3.37477100     1.12029900    -1.23835200
H     -2.13418500     0.00961400    -1.84816900
H      0.05766400     3.45656000     0.58452100
H      2.30565300     1.98155600    -0.30430900
H     -5.53378000    -0.00214600     1.95842000
H     -5.57226200    -2.67581100    -0.67636900
