29
calc_655ec0f917222576; angstrom; atom order from source job; valid
O -2.836046 2.197902 -0.769654
O -0.631017 1.821457 -0.771293
N -1.245368 -0.868894 0.407819
N -3.378741 -0.269431 0.161291
C -2.122666 0.119706 -0.000695
C -2.021583 -1.906905 0.839235
C -3.329135 -1.523713 0.674348
C -1.759689 1.434784 -0.537780
H -1.585318 -2.811510 1.222693
H -4.217826 -2.086401 0.903048
H -2.523092 3.041048 -1.130915
O 0.734872 0.103316 1.216389
O 3.238861 -1.547875 -0.346192
O 0.941603 -2.100698 -1.606815
O 2.027107 2.489340 0.046883
C 2.367266 -0.423180 -0.462451
C 2.148363 0.203767 0.931406
C 0.950754 -0.884135 -0.903154
C 0.210495 -0.948901 0.445668
C 2.554485 1.658519 1.069310
H 2.777748 0.298891 -1.162586
H 2.700149 -0.393616 1.662534
H 0.494837 -0.126406 -1.532480
H 0.423979 -1.916570 0.909562
H 3.640625 1.728675 1.008276
H 2.250878 2.012299 2.059905
H 3.848789 -1.555803 -1.089673
H 1.686487 -2.624418 -1.277676
H 1.078742 2.314903 -0.046325
