38
calc_aedaa4b1b97764b6; angstrom; atom order from source job; valid
P 3.246435 -1.241413 -0.222575
O 0.220590 1.640446 -1.127877
O -1.647907 3.436440 1.274451
O 0.647623 4.381219 0.094247
O 2.445784 0.043853 -0.642222
O 4.742435 -0.752906 -0.251652
O 3.148285 -2.158896 -1.497022
O -4.250958 -3.001440 -0.162367
O 2.817597 -1.859817 1.047059
N -1.950779 0.925753 -0.612709
N -3.907787 -0.068403 -1.038809
N -0.768937 -0.892201 0.479023
N -2.115864 -2.820322 0.603208
N 0.043561 -2.821129 1.435465
C -0.680826 2.501904 0.861351
C 0.719596 3.092105 0.668802
C -1.007667 2.016601 -0.548666
C 1.319748 2.127207 -0.341797
C 2.039943 0.995279 0.355641
C -1.842669 -0.347704 -0.119178
C -3.211036 1.022779 -1.149331
C -3.057818 -0.945163 -0.392677
C -3.250792 -2.296807 -0.010250
C -0.943688 -2.148290 0.820196
H -0.630920 1.658939 1.550610
H 1.284451 3.113323 1.602300
H -1.462521 2.832291 -1.114290
H 2.004107 2.640905 -1.015786
H 1.390032 0.494408 1.070687
H 2.918826 1.393227 0.863769
H -1.633411 3.491904 2.232773
H -0.065279 4.853785 0.536991
H -3.544131 1.940416 -1.607076
H -2.177529 -3.789602 0.886682
H 0.977611 -2.429841 1.366022
H -0.029150 -3.821283 1.521487
H 5.359326 -1.324963 0.218674
H 2.314376 -2.636853 -1.578947
