20
calc_3e42afc65c2111c2; angstrom; atom order from source job; valid
O -0.259744 1.032271 1.022327
O 0.314350 -2.157206 -0.256939
O -2.065224 -1.264659 0.574075
O -1.246795 1.866936 -0.936222
O 3.022554 -0.040767 -0.274937
C 0.068790 -0.775773 -0.502245
C 0.732732 0.083427 0.588762
C -1.434327 -0.428014 -0.379042
C -1.385562 0.993562 0.163823
C 1.978362 0.839135 0.130444
H 0.437042 -0.498564 -1.488917
H 0.983733 -0.552342 1.441322
H -1.953540 -0.472559 -1.337532
H -2.253994 1.256212 0.767357
H 1.735418 1.450765 -0.737684
H 2.311055 1.503464 0.931606
H 0.273627 -2.639046 -1.089424
H -1.568962 -2.095573 0.585599
H -1.218449 2.772650 -0.609284
H 3.372969 -0.491630 0.500069
