32
calc_c353cb46090f2737; angstrom; atom order from source job; valid
O -1.644054 0.862191 -0.449540
O -0.893243 -2.470639 0.622960
O -3.438002 -2.092205 -0.104348
O -3.971107 2.593840 -0.403969
O 4.606586 -0.955844 -0.322329
N 0.580285 0.294317 -0.135691
N 2.224016 1.702176 0.365992
N 1.782731 -1.705398 -0.747040
N 5.011992 1.171233 0.374418
C -1.324062 -1.132136 0.708359
C -0.751096 -0.222615 -0.393955
C -2.855669 -0.957574 0.525466
C -2.979078 0.349541 -0.291044
C -3.852464 1.404929 0.365058
C 1.744888 -0.412582 -0.298269
C 0.932716 1.566813 0.275008
C 2.764124 0.472984 0.014479
C 4.183733 0.166932 0.004523
H -1.019580 -0.731186 1.675237
H -0.712475 -0.768235 -1.345101
H -3.345966 -0.877108 1.493020
H -3.379928 0.112826 -1.284456
H -4.833160 0.964742 0.565413
H -3.409654 1.699302 1.316452
H -1.609988 -2.975000 0.208218
H -3.428158 -1.992302 -1.062995
H 0.190281 2.318245 0.472297
H -4.521172 2.419436 -1.174531
H 2.715873 -2.091505 -0.693553
H 1.055225 -2.318783 -0.400973
H 4.640247 2.067502 0.638001
H 6.005291 1.019274 0.389288
