32
calc_c353cb46090f2737; angstrom; first printed source-job orientation; unoptimized start
O -1.902254 0.403908 -1.167513
O -1.290923 -2.655409 0.379793
O -3.744838 -1.773427 -0.187926
O -2.352428 2.886618 0.223664
O 4.326722 -0.910357 0.453570
N 0.336621 0.136403 -0.476768
N 1.868753 1.692942 -0.103452
N 1.656607 -1.878599 -0.340790
N 4.576782 1.343519 0.533064
C -1.468318 -1.276813 0.471087
C -0.922203 -0.511754 -0.772330
C -2.955411 -0.848045 0.507300
C -2.904697 0.531842 -0.155462
C -2.589738 1.653886 0.849636
C 1.507333 -0.531982 -0.241998
C 0.622384 1.474815 -0.378180
C 2.461094 0.451043 -0.008568
C 3.851530 0.231651 0.335495
H -0.944844 -0.923848 1.367223
H -0.739575 -1.211510 -1.602329
H -3.345381 -0.815655 1.525230
H -3.831455 0.766921 -0.687337
H -3.419531 1.725062 1.563780
H -1.672813 1.423246 1.396802
H -2.142849 -3.059417 0.126309
H -3.646866 -1.642351 -1.143720
H -0.120597 2.232773 -0.518057
H -3.145736 3.175152 -0.250411
H 2.563102 -2.183066 -0.008049
H 0.872219 -2.459508 -0.079579
H 4.123469 2.234751 0.425326
H 5.548863 1.273928 0.779791
