30
calc_632ac16308aa7835; angstrom; first printed source-job orientation; unoptimized start
O 1.663480 0.529870 0.164500
O -1.965390 0.722490 -0.055130
O -0.669650 -1.417040 0.874040
O 3.360040 -0.767340 -1.718770
O -1.029090 3.399930 1.179280
N 0.619990 2.652020 -0.228650
N -0.431870 4.770450 -0.525660
N 0.121000 6.110740 -2.273210
C -0.634350 0.540830 -0.515340
C -0.180860 -0.898880 -0.371620
C 0.442620 1.300410 0.284040
C 1.338780 -0.777370 -0.379740
C 1.938500 -0.873990 -1.785290
C 1.489450 2.917370 -1.262750
C -0.314780 3.602870 0.197190
C 1.425690 4.061460 -1.938950
C 0.343340 4.979180 -1.542360
H -0.601290 0.839740 -1.569850
H -0.578380 -1.541910 -1.163100
H 0.187060 1.341310 1.350250
H 1.813330 -1.516680 0.276200
H 1.694660 -1.833880 -2.250120
H 1.585030 -0.069070 -2.436200
H -2.080030 0.140240 0.721890
H -0.044020 -1.190790 1.585130
H 2.223000 2.162360 -1.518570
H 3.560610 -0.024160 -1.118830
H 2.076010 4.302510 -2.766530
H 0.892360 6.524480 -2.780100
H -0.487640 6.777380 -1.808500
