30
unoptimized sampling seed; angstrom
O 1.053005 -1.787398 1.607598
O 1.333558 2.184939 -0.797599
O 4.924551 -0.505010 -0.335435
N 2.939540 -1.243639 0.499648
N 3.072237 0.776759 -0.652500
C 0.850989 -0.102341 -0.121393
C 1.588411 -1.107765 0.765816
C 1.736634 1.072049 -0.521070
C 3.733480 -0.348599 -0.185628
H 0.701147 -0.639621 -1.068553
H 3.429292 -1.987333 0.979604
H 3.663329 1.500462 -1.040645
O -1.335920 -0.958291 0.219103
O -3.183101 1.379452 1.374552
O -1.157848 2.633821 0.192930
O -3.091241 -2.707619 -1.083867
C -2.813829 0.904044 0.085306
C -2.738448 -0.619488 0.120150
C -1.377080 1.319844 -0.266619
C -0.549916 0.217070 0.425405
C -3.300246 -1.300425 -1.117547
H -3.521698 1.266128 -0.664204
H -3.248765 -0.993462 1.009960
H -1.242971 1.254542 -1.349450
H -0.479071 0.447898 1.492606
H -4.377673 -1.144838 -1.160432
H -2.854193 -0.867859 -2.019293
H -2.865376 2.288607 1.446427
H -0.265980 2.877469 -0.095614
H -2.144485 -2.859314 -0.985204
