44
UNCONVERGED state-matched split-site hydration start
N   2.960572000 -2.221197000 -0.186913000
N   4.532663000 -0.455453000  0.104237000
N   0.700032000 -1.866914000 -0.218928000
N   3.877181000  1.726486000  0.406019000
N   5.226572000 -2.626059000 -0.227439000
C   1.948262000 -1.346655000 -0.048295000
C   3.517040000  0.412894000  0.232197000
C   2.168346000  0.019223000  0.219476000
C   4.197415000 -1.734499000 -0.080203000
H   0.634994000 -2.871089000 -0.206422000
H  -0.082626000 -1.344664000  0.140996000
H   3.252139000  2.431182000  0.043669000
H   4.853945000  1.912177000  0.241691000
H   6.131848000 -2.332837000  0.097957000
H   5.004242000 -3.600166000 -0.113569000
P  -3.868415000 -1.166966000 -0.063493000
O  -0.086156000  0.466084000  1.038015000
O  -0.985748000  3.600010000 -0.142557000
O   1.360713000  2.891247000 -1.151328000
O  -2.652208000 -0.153774000 -0.023112000
O  -5.078604000 -0.225122000 -0.485266000
O  -3.580322000 -1.975529000 -1.400126000
O  -4.082167000 -1.976965000  1.147704000
C  -0.894155000  2.197431000 -0.382865000
C  -1.127618000  1.436707000  0.938886000
C   0.551306000  1.786332000 -0.794602000
C   1.089719000  1.041415000  0.449021000
C  -2.464538000  0.752646000  1.088713000
H  -1.609809000  1.903546000 -1.145803000
H  -1.037307000  2.161851000  1.755929000
H   0.518290000  1.107020000 -1.645378000
H   1.474760000  1.804936000  1.136655000
H  -2.498971000  0.190447000  2.020574000
H  -3.260532000  1.497156000  1.087122000
H  -1.452895000  4.019776000 -0.871010000
H   0.927599000  3.679066000 -0.787994000
H  -4.894418674  0.324023312 -1.257465658
H  -3.039852000 -2.764390000 -1.268568000
O  -4.560502809  1.319587597 -2.657412782
H  -3.703242992  1.570004344 -3.009544944
H  -5.193474739  1.737881242 -3.245610846
O   2.315624727 -4.778722049  0.752825601
H   2.536749506 -3.901856318  0.430629509
H   3.164689656 -5.199217368  0.907332664
