  30
        -55.05941237
 O         -1.2876246435       -0.6615334741        1.3143908439
 O         -1.6160890170        2.2198942668       -0.6536627380
 O         -3.6600747793        0.9457182898        0.3340044727
 O         -1.1133671722       -1.9310083129       -1.4077748489
 O          4.6478844651       -0.5060892400       -0.2986288022
 N          0.7536662196        0.1417134238        0.4286818127
 N          2.8891545243        0.9202289962       -0.2008345142
 N          1.1735624096        2.3936472679       -0.0681487720
 C         -1.4548945310        0.8423747436       -0.5255684286
 C         -2.7849033818        0.0851905548       -0.3473569656
 C         -0.6493768476        0.4382683635        0.7437355626
 C         -2.3622396451       -1.1264702271        0.4959324839
 C         -1.9780369915       -2.3349558565       -0.3670552960
 C          1.6221094977        1.1334455488        0.0313995753
 C          1.2589441950       -1.1153769881        0.5884346288
 C          2.5520297946       -1.3895159452        0.3496451535
 C          3.4455645049       -0.3196322576       -0.0692778360
 H         -0.9300792675        0.4734087742       -1.4116734518
 H         -3.1940472661       -0.2228007969       -1.3132091248
 H         -0.6481292204        1.2594912640        1.4760375116
 H         -3.1476324678       -1.4322953185        1.1926430457
 H         -1.4949662263       -3.0793578867        0.2774474092
 H         -2.9007964447       -2.7635301937       -0.7763265621
 H         -2.4256559019        2.4782658311       -0.1754789505
 H         -4.5629220542        0.6024321763        0.3117836305
 H          0.5527757177       -1.8522060142        0.9349537611
 H         -0.9223010049       -2.6903996561       -1.9751055231
 H          2.9599043103       -2.3778543895        0.4726898544
 H          1.8529237659        3.0462195758       -0.4253111068
 H          0.1956725335        2.5977135664       -0.2342455039
