30
isocytosine_ribose  charge=0 mult=1  seed=1_b3lyp_pcm
O     -1.11285400     0.84552200    -0.48040600
O     -0.85651300    -2.52829700     0.66948900
O     -3.30752600    -1.81529200    -0.07256000
O     -3.14732300     2.87388500    -0.55781600
O      4.90670400     1.02341100     0.14886900
N      1.03181900     0.00749900    -0.08981900
N      3.32095700    -0.54840800    -0.29831000
N      1.71063000    -2.11310500    -0.80580100
C     -1.08755600    -1.13925600     0.74107700
C     -2.57808000    -0.75455300     0.53052700
C     -0.36960100    -0.34128200    -0.36563700
C     -2.51057300     0.52777900    -0.32479400
C     -3.20931200     1.72979900     0.28199900
C      2.05535100    -0.86940500    -0.38196000
C      1.36937500     1.24044000     0.42518100
C      2.65530100     1.60690900     0.55832500
C      3.70933200     0.70482100     0.12649100
H     -0.74470800    -0.77700500     1.71043100
H     -3.05982000    -0.57553600     1.48880500
H     -0.37686400    -0.90541300    -1.30312900
H     -2.92994300     0.32902200    -1.31700700
H     -4.26498500     1.49363700     0.40970800
H     -2.78242900     1.94218300     1.26666100
H     -1.65624600    -2.92957500     0.29353800
H     -3.27052300    -1.75165300    -1.03377800
H      0.53913200     1.87450700     0.68529500
H     -2.22843000     3.15265500    -0.63042200
H      2.91043300     2.57593900     0.95764100
H      2.49307600    -2.73616800    -0.92404300
H      0.86214600    -2.53984000    -0.45404500
