32
calc_c2c6ab8c0cd44dd8; angstrom; first printed source-job orientation; unoptimized start
O -1.417821 -0.816363 1.068190
O -2.252993 2.272820 -0.244822
O -4.042316 0.389941 0.171811
O -0.859618 -3.191499 -0.352411
O 0.503744 2.658383 0.236875
O 4.428131 0.504489 -0.436566
N 0.508901 0.392802 0.414759
N 2.452594 1.538967 -0.073985
C -1.754223 0.988477 -0.448938
C -2.921694 -0.017038 -0.559906
C -0.927410 0.437145 0.745718
C -2.328615 -1.283061 0.069414
C -1.626762 -2.185767 -0.960327
C 1.204880 -0.780926 0.355152
C 1.117915 1.598250 0.198750
C 2.522563 -0.838968 0.070852
C 3.240628 0.397209 -0.167655
C 3.274998 -2.127245 -0.001000
H -1.140249 0.945275 -1.360180
H -3.199198 -0.179904 -1.609925
H -1.031857 1.102066 1.615026
H -3.100280 -1.839090 0.608644
H -2.385238 -2.610497 -1.628124
H -0.923053 -1.598602 -1.555539
H -1.504538 2.878862 -0.103479
H -4.082551 1.360834 0.152521
H 0.621260 -1.669757 0.546797
H 2.917730 2.428454 -0.232921
H -1.433810 -3.772132 0.166903
H 2.588154 -2.966334 -0.033259
H 3.909932 -2.129404 -0.884074
H 3.926424 -2.225141 0.865700
