44
UNCONVERGED state-matched split-site hydration start
P  -5.015345000 -0.552510000  0.218724000
O  -0.264450000  0.051948000  0.987813000
O  -0.292912000  2.546119000 -1.153622000
O  -2.578506000  1.307465000 -1.482953000
O  -3.887269000 -0.057084000  1.233603000
O  -5.087074000  0.561695000 -0.901683000
O  -6.368822000 -0.350992000  1.020961000
O   5.885050000 -2.217972000 -0.517339000
O  -4.856515000 -1.942978000 -0.237272000
N   1.730108000 -0.271295000 -0.176363000
N   2.790755000 -2.137316000 -0.823814000
N   3.611050000  1.054422000  0.590183000
N   5.646125000 -0.108816000  0.331797000
N   5.604569000  2.056202000  1.181518000
C  -0.149895000  1.132758000 -1.144154000
C  -1.548200000  0.539972000 -0.887782000
C   0.663184000  0.664944000  0.093942000
C  -1.591890000  0.455910000  0.647888000
C  -2.540426000 -0.565527000  1.258211000
C   3.066825000 -0.058020000  0.064601000
C   1.635075000 -1.545742000 -0.710266000
C   3.706950000 -1.220413000 -0.344721000
C   5.125370000 -1.301124000 -0.220310000
C   4.919833000  0.990814000  0.707914000
H   0.289984000  0.783077000 -2.074670000
H  -1.609315000 -0.462926000 -1.309056000
H   1.127132000  1.534575000  0.557694000
H  -1.815400000  1.444352000  1.064339000
H  -2.284844000 -0.715847000  2.304471000
H  -2.487411000 -1.520974000  0.738484000
H   0.344961000  2.938501000 -1.756977000
H  -2.286292000  2.232080000 -1.494403000
H   0.685361000 -1.976252000 -0.978459000
H   6.651851000 -0.095196000  0.432388000
H   5.063395000  2.796464000  1.594672000
H   6.554336000  1.960542000  1.496760000
H  -5.599938441  1.363489145 -0.627993052
H  -6.600152000  0.567179000  1.208623000
O  -6.506188820  2.780288963 -0.144372823
H  -6.161195925  3.628123947  0.145033022
H  -7.459900864  2.884103989 -0.108935886
O   7.950876801 -3.957811763 -1.255794975
H   7.242593326 -3.361295273 -1.002610069
H   8.755599290 -3.475948124 -1.051273219
