35
calc_9f2bdd9c41fe820c; angstrom; atom order from source job; valid
P -4.314535 -0.505888 -0.280532
O 0.354718 -0.702922 0.844292
O -1.821176 1.883763 -0.357516
O 0.627078 2.647754 -0.068521
O -3.279719 -0.867282 0.880899
O 3.299269 2.011528 0.356538
O -4.377903 1.074506 -0.304329
O -5.727065 -0.909056 0.315646
O -4.044771 -1.182974 -1.559448
N 2.557831 -0.137684 0.270144
N 4.839036 0.391188 -0.092326
N 6.344930 -1.260022 -0.572530
C -0.898236 0.809082 -0.432918
C 0.577612 1.285262 -0.430445
C -0.966441 -0.160785 0.766796
C 1.237809 0.375245 0.638066
C -1.935287 -1.327077 0.651865
C 2.801977 -1.455124 0.048148
C 3.591291 0.817041 0.180891
C 4.049663 -1.885469 -0.248385
C 5.080184 -0.900427 -0.302427
H -1.111478 0.269353 -1.353895
H 1.040706 1.123264 -1.404552
H -1.193808 0.408092 1.675351
H 1.354962 0.954746 1.557980
H -1.724802 -2.056723 1.429819
H -1.864302 -1.809267 -0.321787
H -1.373848 2.644209 0.042832
H 1.561486 2.823435 0.142908
H 1.954120 -2.115243 0.127039
H 4.248990 -2.929905 -0.424888
H 6.594855 -2.217410 -0.742698
H 7.064562 -0.558616 -0.607535
H -3.484632 1.499798 -0.316629
H -6.016232 -0.390810 1.076974
