35
calc_9f2bdd9c41fe820c; angstrom; first printed source-job orientation; unoptimized start
P 1.551308 3.750292 -0.121064
O -0.161002 -0.332898 1.346935
O 2.403212 0.686606 -0.884003
O 1.725669 -1.767276 -1.171212
O 1.446266 2.924010 1.265901
O -0.133448 -3.760976 -0.756905
O 2.951669 3.369966 -0.733833
O 1.780374 5.226138 0.348473
O 0.365604 3.587563 -0.975881
N -1.269793 -2.141185 0.357801
N -2.361628 -4.042817 -0.508894
N -4.608915 -4.294949 -0.278593
C 1.077044 0.449567 -0.515570
C 0.619069 -0.999674 -0.806215
C 0.855652 0.593851 1.007717
C -0.004103 -1.466715 0.539499
C 0.407381 1.987841 1.440189
C -2.438362 -1.637359 0.810939
C -1.229285 -3.375911 -0.339510
C -3.595683 -2.312908 0.622349
C -3.520954 -3.564121 -0.061846
H 0.441313 1.165664 -1.046970
H -0.146136 -1.020114 -1.593469
H 1.793655 0.336893 1.522714
H 0.694912 -2.186621 1.003112
H 0.159595 1.978829 2.503393
H -0.465719 2.286957 0.853295
H 2.813243 -0.176241 -1.088015
H 1.428950 -2.693905 -1.255352
H -2.369371 -0.690522 1.322823
H -4.533389 -1.926475 0.977091
H -5.511154 -3.977729 0.031346
H -4.510673 -5.168911 -0.767492
H 3.015820 2.439610 -1.010022
H 2.583238 5.373086 0.865311
