37
calc_abc6a46c4791a92c; angstrom; atom order from source job; valid
P -4.453889 -0.677638 -0.271287
O 0.201153 -0.389623 0.988984
O 0.210204 2.892207 -0.046968
O -2.105925 1.871945 -0.598285
O -3.413716 -0.773869 0.936857
O 3.075573 2.374847 0.250482
O 6.127576 -0.901430 -0.571353
O -4.595556 0.868147 -0.574864
O -5.848741 -1.044404 0.387210
O -4.140431 -1.555285 -1.410494
N 2.369647 0.203199 0.323513
N 4.578723 0.701265 -0.142962
C 0.336153 1.533691 -0.409667
C -1.076886 0.905673 -0.470834
C -1.146462 0.061366 0.817618
C 1.039002 0.701831 0.697403
C -2.038285 -1.170141 0.790608
C 2.661499 -1.135297 0.183162
C 3.328748 1.177546 0.151373
C 3.893476 -1.596790 -0.118601
C 4.964043 -0.632863 -0.300149
C 4.202226 -3.054699 -0.271077
H 0.856012 1.432006 -1.361929
H -1.145846 0.250538 -1.337496
H 1.162398 1.336605 1.578506
H -1.441286 0.699768 1.657795
H -1.807507 -1.805842 1.642030
H -1.905564 -1.739972 -0.127731
H 1.106081 3.235113 0.082371
H -1.800597 2.702597 -0.205518
H 1.822392 -1.793870 0.336755
H 5.296332 1.401280 -0.276053
H 4.968161 -3.368361 0.439498
H 3.312376 -3.658743 -0.106721
H 4.586176 -3.270671 -1.269065
H -3.728118 1.343524 -0.599570
H -6.173457 -0.412829 1.041021
