30
calc_70a1afe23b704cc1; angstrom; first printed source-job orientation; unoptimized start
O -1.320789 0.688299 -1.304449
O -1.634808 -2.238820 0.567856
O -3.726672 -0.864016 -0.244270
O -1.007891 1.966316 1.354344
O 1.035839 -2.295632 0.079103
N 0.747344 -0.114317 -0.495800
N 2.834389 -0.941542 0.221598
N 4.641322 0.430204 0.377845
C -1.402812 -0.864727 0.501524
C -2.741032 -0.110633 0.405966
C -0.653492 -0.416312 -0.779917
C -2.379068 1.112733 -0.442428
C -1.986453 2.329141 0.402288
C 1.266431 1.117192 -0.667559
C 1.556425 -1.181243 -0.045177
C 2.568091 1.367471 -0.391857
C 3.355170 0.274722 0.075314
H -0.842397 -0.509895 1.377889
H -3.092167 0.184243 1.402958
H -0.663461 -1.234741 -1.517413
H -3.215392 1.381395 -1.093408
H -1.600779 3.104142 -0.271537
H -2.893542 2.696537 0.894385
H -0.766467 -2.682292 0.494853
H -3.564643 -1.801541 -0.044039
H 0.581338 1.860613 -1.043338
H -0.859089 2.714811 1.950568
H 2.992014 2.345492 -0.526649
H 5.087372 1.325451 0.279084
H 5.159071 -0.371464 0.695515
