37
calc_7a8ceeb16edf502a; angstrom; atom order from source job; valid
N 3.351296 0.627973 0.523354
N 3.052243 -1.105781 -1.072177
N 5.010166 -1.062186 0.278903
N 1.495614 0.546549 -0.850344
N 5.263596 0.647371 1.777302
N 4.655954 -2.726060 -1.251116
C 2.673833 0.007238 -0.438487
C 4.520545 0.049405 0.834525
C 4.229404 -1.597011 -0.667005
H 0.956463 -0.038666 -1.469893
H 4.891254 1.433120 2.279201
H 6.101128 0.201765 2.106218
H 4.132016 -3.123409 -2.009646
H 5.562471 -3.094388 -1.026851
P -3.884378 -1.291806 0.108684
O 0.155928 1.107767 1.038828
O -2.735910 1.791552 -0.969812
O -0.656916 3.476751 -0.509419
O -3.026518 -0.643201 1.269251
O -4.571822 -0.091323 -0.634293
O -5.075344 -2.009965 0.843227
O -3.134666 -2.235940 -0.736934
C -1.464702 1.256766 -0.669596
C -1.239507 0.934096 0.815924
C -0.303405 2.195225 -0.985007
C 0.812868 1.584091 -0.142377
C -1.602046 -0.480157 1.234651
H -1.370358 0.353411 -1.272768
H -1.797352 1.647128 1.430082
H -0.056511 2.221106 -2.045227
H 1.531764 2.333254 0.172244
H -1.152551 -1.210527 0.561890
H -1.251960 -0.663070 2.247668
H -2.858020 2.610533 -0.478542
H 0.019396 4.102114 -0.779388
H -3.959400 0.671524 -0.796646
H -5.684696 -1.424910 1.307393
