32
calc_f8fbb2f87101a351; angstrom; atom order from source job; valid
O -1.315443 0.109619 -1.274696
O -1.251591 -1.864331 1.742783
O -3.265855 -2.051987 -0.025060
O -2.656709 2.284713 0.315100
O 0.116250 1.877793 0.617839
O 4.554038 1.023302 0.332524
N 0.742828 -0.204234 -0.161165
N 2.317653 1.381010 0.453903
C -1.511247 -0.748314 0.917463
C -2.917643 -0.706289 0.305291
C -0.627361 -0.699160 -0.342415
C -2.735658 0.161842 -0.949213
C -3.174147 1.609239 -0.827299
C 1.789995 -1.043015 -0.495069
C 0.989287 1.065311 0.320845
C 3.092877 -0.724647 -0.362345
C 3.415141 0.585867 0.154413
C 4.201042 -1.661207 -0.728621
H -1.353853 0.139311 1.520952
H -3.651079 -0.284187 0.990079
H -0.511271 -1.713305 -0.726248
H -3.283791 -0.286172 -1.779864
H -2.893590 2.133429 -1.745962
H -4.260989 1.634615 -0.746030
H -1.639375 -2.643763 1.322531
H -4.188439 -2.073617 -0.302457
H 1.485705 -2.004864 -0.879207
H 2.506478 2.311636 0.807812
H -1.689174 2.182765 0.329184
H 4.832764 -1.875961 0.134912
H 3.800781 -2.600750 -1.104406
H 4.843225 -1.227190 -1.496681
