30
calc_ca7a1ad393c49c94; angstrom; first printed source-job orientation; unoptimized start
O 1.490394 2.222884 1.209019
O 4.661422 -0.956762 -0.058463
O 0.306385 -1.582949 -0.977967
N 0.851092 0.369269 0.069485
N 2.475034 -1.216859 -0.524411
C 3.233010 0.949650 0.219370
C 1.803063 1.245902 0.568265
C 3.552697 -0.477604 -0.107690
C 1.151063 -0.849528 -0.516925
H 3.883387 1.312670 1.018605
H 3.479470 1.551775 -0.664543
H 2.657415 -2.164759 -0.848345
O -1.183409 -0.292263 1.039612
O -3.355629 1.715416 -0.079584
O -1.239679 2.116415 -1.609869
O -2.694025 -2.828000 1.261968
C -2.783354 0.518554 -0.541740
C -2.531132 -0.495174 0.587469
C -1.361506 0.861246 -1.029219
C -0.554022 0.703410 0.279694
C -2.718125 -1.956918 0.158169
H -3.380198 0.079628 -1.346227
H -3.184669 -0.290668 1.444662
H -1.025370 0.124553 -1.762083
H -0.551257 1.657743 0.827122
H -3.701469 -2.085356 -0.297245
H -1.937317 -2.219631 -0.564789
H -4.305497 1.603259 0.062298
H -1.852312 2.722837 -1.156598
H -1.843462 -2.732078 1.712038
