32
calc_fd442879a64e1632; angstrom; atom order from source job; valid
O -1.291430 0.153949 -1.284532
O -1.577775 -1.654786 1.815321
O -3.626065 -1.391532 0.126182
O -1.806451 2.510658 0.333032
O 1.204896 -2.699354 -0.762804
O 4.629439 0.151028 0.109672
N 0.672285 -0.526346 -0.207178
N 2.876921 -1.226861 -0.310456
C -1.574422 -0.543876 0.953358
C -2.952298 -0.163031 0.399782
C -0.764047 -0.760899 -0.340947
C -2.609871 0.603639 -0.888045
C -2.627456 2.113973 -0.765515
C 1.127653 0.737567 0.111552
C 1.550608 -1.570192 -0.452634
C 2.430066 1.060377 0.239384
C 3.414509 0.014534 0.023834
C 2.901791 2.439334 0.586208
H -1.167348 0.300998 1.504109
H -3.525442 0.441592 1.100229
H -0.867533 -1.788876 -0.681770
H -3.312817 0.321437 -1.673432
H -2.261602 2.548686 -1.699071
H -3.661337 2.438455 -0.616399
H -2.270992 -2.253491 1.504676
H -4.575486 -1.241694 0.096186
H 0.345467 1.473291 0.237888
H 3.535724 -1.975654 -0.475641
H -1.815221 3.470003 0.400142
H 2.059475 3.115990 0.714614
H 3.482562 2.433699 1.509679
H 3.549987 2.839751 -0.194601
