35
calc_fff03848f43180e0; angstrom; first printed source-job orientation; unoptimized start
P -0.509027 2.175242 -0.295754
O 1.229201 -0.288253 1.479482
O 3.964174 -0.600319 -0.650721
O 2.821324 -2.791466 0.188684
O 1.075409 2.001516 -0.539606
O -0.173203 -0.443942 -1.421927
O -1.086909 1.984853 -1.741867
O -0.709184 3.724270 -0.050072
O -1.082126 1.410884 0.820801
N -0.505878 -1.557782 0.545830
N -2.288898 -0.846991 -0.828473
N -4.457634 -1.180023 -0.232389
C 2.580740 -0.457942 -0.485071
C 1.897230 -1.825244 -0.224237
C 2.298724 0.344925 0.796424
C 0.900269 -1.535272 0.914611
C 1.968973 1.819170 0.544744
C -1.398685 -1.985320 1.475595
C -0.982204 -0.908874 -0.604390
C -2.730724 -1.898408 1.278243
C -3.167864 -1.294069 0.060767
H 2.099459 0.032725 -1.332126
H 1.371956 -2.190921 -1.112106
H 3.188092 0.303622 1.442761
H 1.030375 -2.309123 1.685714
H 2.883339 2.351954 0.275116
H 1.535904 2.229918 1.459861
H 4.184201 -0.681951 -1.590066
H 3.709583 -2.382069 0.157159
H -0.974063 -2.408954 2.373234
H -3.431568 -2.247826 2.014283
H -5.159802 -1.453722 0.433452
H -4.713414 -0.709442 -1.084341
H -0.932888 1.063725 -2.034790
H -0.503963 4.288265 -0.806671
