33
DFT refinement start; not an optimized result
N -2.892224 -1.426525 0.378927
N -3.339311 0.828714 -0.205504
N -0.777270 -2.267091 0.538329
N -1.687703 2.296741 -0.791365
N -5.039126 -0.639423 0.246972
C -1.579742 -1.221150 0.200513
C -2.032051 1.038538 -0.392766
C -1.082168 0.013181 -0.241573
C -3.710826 -0.403634 0.143853
H -1.253130 -3.150712 0.619103
H 0.144497 -2.260819 0.130686
H -2.439867 2.962871 -0.716158
H -0.772551 2.634464 -0.536173
H -5.318109 -1.485799 0.710002
H -5.643121 0.162565 0.269812
O 1.154469 -0.830270 -0.784022
O 3.459766 1.431965 0.686898
O 1.102437 2.451774 0.399521
O 4.686746 -1.212164 -0.139099
C 2.479930 0.432979 0.687884
C 2.496651 -0.449553 -0.576657
C 1.072586 1.072127 0.646801
C 0.361489 0.321441 -0.517916
C 3.389315 -1.676858 -0.433596
H 2.572687 -0.201434 1.579413
H 2.850627 0.168473 -1.418366
H 0.537458 0.894221 1.589686
H 0.417364 0.982252 -1.399788
H 3.000898 -2.304780 0.378458
H 3.366454 -2.246619 -1.368953
H 4.328917 1.010638 0.607718
H 2.024504 2.751998 0.490149
H 5.296265 -1.962094 -0.092377
