33
DFT refinement start; not an optimized result
N -3.263819 0.030041 -0.921569
N -2.788421 -0.704995 1.283942
N -1.625549 0.635889 -2.396599
N -0.671086 -0.730763 2.140182
N -4.931004 -0.686518 0.475836
C -1.955971 0.182221 -1.153116
C -1.477354 -0.546307 1.060849
C -0.986285 -0.147411 -0.191588
C -3.617193 -0.441286 0.275258
H -2.412328 0.968843 -2.930218
H -0.769839 1.159102 -2.491560
H -1.096424 -1.221578 2.909132
H 0.298429 -0.916720 1.937150
H -5.576054 -0.316161 -0.198670
H -5.230918 -0.846189 1.420651
O 1.317471 -0.859760 0.220376
O 3.435785 1.905539 -0.536708
O 0.979430 2.113247 -1.543364
O 3.864112 -2.292076 0.886260
C 2.477405 1.188130 0.178912
C 2.631318 -0.345632 0.078821
C 1.021601 1.425589 -0.320990
C 0.468311 -0.005898 -0.533045
C 3.549362 -0.946800 1.139657
H 2.580572 1.503402 1.220356
H 3.018775 -0.604489 -0.920294
H 0.428126 1.946695 0.439950
H 0.605575 -0.246869 -1.600655
H 4.497485 -0.405271 1.128612
H 3.080055 -0.833119 2.125322
H 3.310476 1.746484 -1.486570
H 1.272551 3.027376 -1.408824
H 3.044776 -2.805863 0.850293
