33
DFT refinement start; not an optimized result
N -2.595988 -1.488160 0.401317
N -3.282826 0.687669 -0.254685
N -0.399654 -2.052117 0.656618
N -1.793304 2.330578 -0.824135
N -4.813838 -0.959219 0.183514
C -1.311179 -1.139258 0.242378
C -2.003591 1.038567 -0.427496
C -0.953194 0.128277 -0.249281
C -3.518843 -0.573472 0.110513
H -0.755010 -2.981009 0.806884
H 0.549409 -1.954319 0.328451
H -2.615716 2.909077 -0.758239
H -0.929490 2.762048 -0.537655
H -5.006349 -1.822842 0.658573
H -5.507412 -0.232993 0.172266
O 1.247929 -0.544438 -0.997939
O 3.568380 1.693072 0.412121
O 1.070472 2.481443 0.742005
O 2.928060 -2.259940 0.450387
C 2.671853 0.624240 0.512801
C 2.610425 -0.236882 -0.772659
C 1.201979 1.084230 0.720754
C 0.463751 0.536653 -0.522236
C 3.398015 -1.540057 -0.666573
H 3.009804 0.009193 1.349966
H 3.005066 0.354989 -1.614094
H 0.781125 0.631699 1.625629
H 0.471812 1.332324 -1.285581
H 3.243832 -2.111131 -1.589609
H 4.460452 -1.290681 -0.558484
H 3.129666 2.424127 -0.055301
H 1.398681 2.826604 1.585661
H 3.410126 -3.095902 0.516562
