33
DFT refinement start; not an optimized result
N -2.484043 -1.586941 0.125961
N -3.089496 0.701712 0.175421
N -0.355082 -2.313098 -0.278169
N -1.604586 2.377780 -0.261987
N -4.647552 -0.943097 0.518389
C -1.226483 -1.250495 -0.183881
C -1.832455 1.042564 -0.122635
C -0.825292 0.079730 -0.338105
C -3.363372 -0.598877 0.276463
H -0.838532 -3.198106 -0.331936
H 0.376356 -2.174093 -0.963564
H -2.373505 2.949456 0.050661
H -0.682131 2.715603 -0.026020
H -4.827392 -1.891963 0.793253
H -5.270815 -0.211335 0.808533
O 1.389821 -0.491682 -1.238071
O 3.360590 1.837784 -0.533463
O 1.150082 2.516842 0.653283
O 1.991350 -1.797633 1.371140
C 2.803128 0.772549 0.198794
C 2.673951 -0.518048 -0.618755
C 1.338392 1.139373 0.499888
C 0.565524 0.540461 -0.705211
C 2.848502 -1.774342 0.257638
H 3.358250 0.596551 1.125214
H 3.414470 -0.549028 -1.426573
H 1.013403 0.653066 1.425819
H 0.478187 1.321493 -1.478663
H 2.703133 -2.662701 -0.366871
H 3.866553 -1.785643 0.653887
H 4.320715 1.743911 -0.585009
H 1.841517 2.964025 0.131398
H 1.085287 -1.988954 1.057983
