  15
        -27.91419880
 N         -1.2408646681       -1.3915225972        0.0005479999
 N         -2.0988940936        0.6689713815       -0.0000475717
 N          0.0047278978        1.8832229177       -0.0002119337
 N          1.9382061682        0.4907490025        0.0016892459
 N          1.8989752359       -1.8073087119       -0.0106985409
 C         -0.1714994533       -0.5304754828        0.0010069943
 C         -0.7368421097        0.7653516336        0.0005698062
 C          1.2277450794       -0.6452608710        0.0032516878
 C         -2.3468702305       -0.6120028271       -0.0009258444
 C          1.2990496488        1.6523106890       -0.0010477779
 H         -1.2215813991       -2.3987926068       -0.0066858241
 H         -3.3398156805       -1.0153002220       -0.0021287416
 H          1.9345106580        2.5286345315       -0.0021047262
 H          2.9022239761       -1.7661052458        0.0295371484
 H          1.4264999901       -2.6883966069        0.0685505847
