15
adenine  charge=0 mult=1  seed=1_b3lyp_pcm
N     -1.27820200    -1.32400600    -0.00414700
N     -2.10205500     0.75471900     0.00420100
N      0.02759800     1.92796000     0.00329800
N      1.94561900     0.48634100    -0.00121100
N      1.84266900    -1.82554500    -0.03732500
C     -0.18886700    -0.47748900    -0.00158000
C     -0.72670300     0.81423300     0.00272800
C      1.20557800    -0.63104900    -0.00216600
C     -2.38068000    -0.53052000    -0.00036400
C      1.32871200     1.67719700    -0.00027100
H     -1.28608400    -2.33081100    -0.01186300
H     -3.37272000    -0.95121400    -0.00154000
H      1.98744200     2.53805600    -0.00008500
H      1.35511900    -2.68073500     0.16253200
H      2.83860200    -1.82580800     0.10716800
