34
calc_9518692843c4482d; angstrom; atom order from source job; valid
P 4.053509 -0.756733 0.244159
O -0.409069 0.364428 -1.337918
O 1.054605 2.925415 -0.018331
O -0.851065 2.123795 1.747894
O 3.121426 -0.339866 -0.966520
O -3.888196 1.778941 -0.600876
O 5.392449 0.000922 -0.101407
O 4.448316 -2.268859 0.035984
O 3.470786 -0.536090 1.569316
O -5.582669 -2.298100 0.389528
N -2.398224 0.091536 -0.167227
N -4.684831 -0.279915 -0.097377
C 0.975793 1.531723 0.207302
C -0.366447 1.168327 0.857542
C 0.958011 0.689899 -1.070371
C -1.252017 0.955133 -0.376530
C 1.720002 -0.620560 -0.957430
C -3.671023 0.620632 -0.313037
C -2.209087 -1.232353 0.140161
C -3.215816 -2.091921 0.339397
C -4.579408 -1.626918 0.228685
H 1.814501 1.276793 0.850214
H -0.264813 0.227413 1.401331
H 1.362003 1.261791 -1.908527
H -1.654729 1.906706 -0.724014
H 1.497685 -1.247519 -1.817980
H 1.438199 -1.154383 -0.048613
H 0.612984 3.168109 -0.834982
H -0.540049 2.983136 1.441776
H -1.177770 -1.546831 0.194870
H -5.617926 0.094078 -0.191325
H -3.031219 -3.126319 0.575869
H 5.356746 0.954481 0.016514
H 4.770436 -2.496274 -0.840967
