16
calc_a091e116d6de97ca; angstrom; first printed source-job orientation; unoptimized start
O 1.029300 0.006330 -0.044790
N 2.647240 -2.532380 -0.056020
N 3.046650 1.081680 -0.054710
N 5.135440 -0.047950 -0.065210
N 4.872110 -2.504480 -0.067660
N 5.041820 2.242890 -0.044550
C 3.024370 -1.223680 -0.058260
C 4.389310 -1.228180 -0.065310
C 2.255110 -0.040300 -0.052440
C 4.421510 1.040390 -0.055870
C 3.800700 -3.271430 -0.061750
H 1.698910 -2.884200 -0.050330
H 2.563410 1.963310 -0.045120
H 3.796130 -4.353590 -0.061120
H 6.054270 2.240000 -0.089240
H 4.563860 3.128320 -0.093860
