30
calc_f3b372db5e5c32c0; angstrom; atom order from source job; valid
O 1.499741 -2.307108 -1.079147
O 4.786113 0.834069 0.193441
O 0.412147 1.787117 0.650642
N 0.880317 -0.319472 -0.135209
N 2.576701 1.244025 0.412833
C 3.285118 -0.955913 -0.323255
C 1.828915 -1.264084 -0.563130
C 3.645040 0.435526 0.105292
C 1.229711 0.947271 0.329681
H 3.841290 -1.207495 -1.224518
H 3.634966 -1.643408 0.451249
H 2.779818 2.184529 0.726684
O -1.145707 0.204433 -1.222181
O -3.282116 -1.777968 0.096612
O -1.262262 -1.740062 1.809409
O -2.339191 2.479541 0.261715
C -2.811212 -0.456718 0.368172
C -2.560193 0.339477 -0.925949
C -1.408139 -0.611791 0.981747
C -0.539755 -0.667020 -0.290111
C -2.906291 1.817166 -0.858864
H -3.493217 0.060386 1.039523
H -3.124853 -0.117758 -1.741145
H -1.168271 0.266925 1.570609
H -0.529488 -1.689013 -0.662708
H -2.593266 2.290029 -1.795303
H -3.988346 1.923129 -0.776710
H -4.243280 -1.788596 0.110717
H -1.861327 -2.419411 1.468545
H -1.382120 2.325159 0.264262
