30
calc_f3b372db5e5c32c0; angstrom; first printed source-job orientation; unoptimized start
O 1.499986 2.367163 0.912409
O 4.685538 -0.909511 -0.067898
O 0.302281 -1.771685 -0.535637
N 0.851831 0.337497 0.136314
N 2.481279 -1.286484 -0.316344
C 3.219825 0.985307 0.035087
C 1.804772 1.305064 0.421238
C 3.561272 -0.467461 -0.101122
C 1.151669 -0.951439 -0.264082
H 3.904035 1.472660 0.734042
H 3.402137 1.459033 -0.938238
H 2.671845 -2.269343 -0.502341
O -1.126631 -0.259935 1.245784
O -3.359343 1.701895 0.002807
O -1.302170 1.858196 -1.640755
O -2.511771 -2.400177 -0.492131
C -2.816696 0.442375 -0.305310
C -2.523021 -0.404314 0.949182
C -1.416307 0.686589 -0.904251
C -0.546851 0.672294 0.374868
C -2.872711 -1.890119 0.765507
H -3.449529 -0.111052 -1.004067
H -3.077085 -0.010096 1.809779
H -1.131519 -0.144005 -1.554712
H -0.542553 1.677113 0.824060
H -2.390780 -2.452002 1.573620
H -3.955225 -2.013347 0.837246
H -4.318443 1.641568 0.106401
H -1.903729 2.519056 -1.252836
H -1.543159 -2.390867 -0.569268
