15
calc_dec3790c850e3be9; angstrom; atom order from source job; valid
N -1.275832 -1.317210 -0.003773
N -2.093666 0.756810 0.003854
N 0.033114 1.923443 0.003060
N 1.942160 0.479907 -0.001399
N 1.826816 -1.824295 -0.032369
C -0.190116 -0.473037 -0.001581
C -0.721833 0.811867 0.002433
C 1.201483 -0.630053 -0.002384
C -2.370399 -0.524812 -0.000274
C 1.327295 1.669447 -0.000143
H -1.284645 -2.322171 -0.010791
H -3.363627 -0.944044 -0.001216
H 1.989009 2.528461 0.000098
H 1.329371 -2.677491 0.141825
H 2.823164 -1.835819 0.096168
