41
UNCONVERGED matched split-site microsolvation start
P  -2.220003000  1.958360000 -0.132817000
O  -0.294176000 -0.943758000 -1.201970000
O  -2.031739000 -3.230572000  0.892813000
O   0.476112000 -3.815361000  0.275446000
O  -2.602823000  0.431803000  0.114951000
O   0.576135000  0.394003000  1.257460000
O  -1.176189000  2.269335000  0.999919000
O  -3.495224000  2.805527000  0.317628000
O  -1.863587000  2.285955000 -1.524773000
N   1.858438000 -0.627549000 -0.319850000
N   2.608060000  1.313082000  0.816532000
N   4.661690000  2.210700000  0.369089000
C  -1.222691000 -2.091715000  0.628712000
C   0.283923000 -2.441601000  0.576879000
C  -1.511385000 -1.563359000 -0.780537000
C   0.811655000 -1.607946000 -0.612320000
C  -2.659993000 -0.583843000 -0.902154000
C   3.025805000 -0.672416000 -1.023502000
C   1.651409000  0.391661000  0.625561000
C   4.003048000  0.238276000 -0.830680000
C   3.748196000  1.261504000  0.129992000
H  -1.391644000 -1.313092000  1.365022000
H   0.792502000 -2.185876000  1.504522000
H  -1.743305000 -2.413938000 -1.433041000
H   1.251999000 -2.303995000 -1.326339000
H  -3.598204000 -1.116689000 -0.758993000
H  -2.657746000 -0.124265000 -1.888370000
H  -2.272345000 -3.243678000  1.824319000
H  -0.331112000 -4.273908000  0.552481000
H   3.119278000 -1.475925000 -1.738136000
H   4.924440000  0.192442000 -1.387792000
H   5.538806000  2.232143000 -0.119794000
H   4.466381000  2.930593000  1.043858000
H  -1.336087327  1.786841257  1.870647449
H  -3.726286000  2.716245000  1.250226000
O  -1.613624171  0.949372889  3.381977999
H  -0.957378109  0.609765981  3.994846871
H  -2.456288906  0.726460822  3.784254466
O   2.292811799  3.664983456  2.302862419
H   2.400896896  2.858617242  1.793263418
H   3.157793715  3.823815709  2.687802153
