33
calc_ccffa35bdaa00ec6; angstrom; atom order from source job; valid
N 2.976173 -1.403838 -0.399949
N 3.396506 0.814846 0.358319
N 0.861083 -2.221753 -0.711842
N 1.696510 2.274510 0.862429
N 5.125189 -0.645623 -0.070293
C 1.652212 -1.193290 -0.291072
C 2.073304 1.020448 0.456499
C 1.122618 0.019534 0.189029
C 3.777755 -0.399608 -0.043728
H 1.321100 -3.108646 -0.833661
H -0.094570 -2.235306 -0.394578
H 2.441474 2.952412 0.877033
H 0.803683 2.630216 0.553458
H 5.430588 -1.434395 -0.614598
H 5.731829 0.156628 -0.070799
O -1.113424 -0.857244 0.672150
O -3.456458 1.509179 -0.575088
O -1.025872 2.426535 -0.668895
O -4.706447 -1.142096 0.383164
C -2.528010 0.441707 -0.682586
C -2.474803 -0.452116 0.568800
C -1.086653 1.012061 -0.784842
C -0.336404 0.319769 0.388993
C -3.380868 -1.663353 0.508999
H -2.751836 -0.161947 -1.564184
H -2.744890 0.161076 1.438088
H -0.633953 0.737371 -1.736125
H -0.435642 0.993406 1.248745
H -3.120891 -2.281609 -0.354363
H -3.278610 -2.264476 1.415313
H -4.323451 1.134012 -0.379972
H -1.911087 2.739015 -0.434658
H -5.319274 -1.866644 0.228445
