  37
        -73.92745089
 P          1.1339879044       -1.7607427624       -0.5473579447
 O         -1.9679437304        0.3060937068        1.5038102354
 O         -3.4017519459        1.6419337095       -1.3608649321
 O         -4.5312891545       -0.2604651054        0.0293096122
 O         -0.3656106251       -1.2470559767       -0.3750263068
 O          0.8866959427       -3.3115798251       -0.7972095316
 O          1.8011514895       -1.7262896936        0.8764687818
 O          1.8322746613       -1.0506567344       -1.6264515258
 O          3.4615578331        0.2101687537        1.0128349437
 N         -0.4503915511        1.6087706356        0.2432422593
 N          1.2743872655        2.2239162064       -1.0166124871
 N          0.6824067360        0.6913589113        2.1549513257
 N          3.9987686005        1.7164439191       -0.5902091648
 C         -2.5266424665        0.7376670092       -0.7746484207
 C         -3.2019368887       -0.5671477948       -0.2946520781
 C         -1.8406195476        1.2865592624        0.5135665497
 C         -2.3710349959       -0.9403062117        0.9445638685
 C         -1.1818186373       -1.8540782457        0.6281933807
 C          0.6680692847        1.1612592469        0.8891634506
 C         -0.0109829146        2.2389950211       -0.8989368455
 C          1.7448191766        1.5283854734        0.0775064089
 C          3.1124238054        1.1057487981        0.1982835419
 H         -1.7499091460        0.4972521570       -1.5075210306
 H         -3.1394069653       -1.3387653316       -1.0660867307
 H         -2.3505118803        2.1963610857        0.8624153203
 H         -2.9826540622       -1.4239563701        1.7114710071
 H         -1.5374467597       -2.8185881208        0.2591806647
 H         -0.5816473908       -2.0147782496        1.5268686941
 H         -4.2815533720        1.5177727989       -0.9591228283
 H         -5.0614250353       -1.0658782854        0.1034103016
 H         -0.6883502461        2.6971563038       -1.5899819907
 H          1.5471537242        0.2665738746        2.4504980632
 H         -0.1835302267        0.3268781610        2.5217595576
 H          1.6591224924       -3.7944749790       -1.1087340885
 H          2.5146464631       -1.0097420473        0.9728195232
 H          3.6397586021        2.3381765408       -1.2962980015
 H          4.9383264038        1.3591184102       -0.6458338299
  37
        -73.92731637
 P          0.5809636500       -2.3800610864        0.0879961927
 O         -1.4044607152       -0.4843265967        0.7237087699
 O         -3.6852824607        1.4454151683        1.0600210064
 O         -4.3069243682        0.2000585266       -1.1740674650
 O         -0.8143638640       -2.7781389097       -0.6156551808
 O          1.3621045812       -3.7545514192       -0.0219491409
 O          0.3750727152       -2.2801017307        1.6396748226
 O          1.2383926042       -1.2191628443       -0.5272381147
 O          4.0121447147        1.6021953168        0.9398335877
 N         -0.1377502351        1.4221301037        0.1291056448
 N          1.2835939209        2.2866572940       -1.3420832692
 N          1.3346712687        0.8932316592        1.9633913072
 N          4.0697086037        2.5268294564       -1.1295621076
 C         -2.6334462491        1.4376724057        0.1351688078
 C         -2.9515798703        0.3396245908       -0.9093810174
 C         -1.3289835266        0.9248590779        0.7715769403
 C         -2.3024377262       -0.9201840141       -0.2895044929
 C         -1.5243854667       -1.7622296302       -1.2958133636
 C          1.1075129963        1.3425311308        0.6960152274
 C          0.0484316077        1.9766163622       -1.1143466524
 C          1.9827833362        1.9050327391       -0.2186860343
 C          3.4242905399        1.9947720788       -0.0805216180
 H         -2.4995967153        2.4189423683       -0.3270294021
 H         -2.4662024792        0.5675695633       -1.8628362646
 H         -1.2576150470        1.1921709863        1.8336556900
 H         -3.0625034762       -1.5435186803        0.1967368710
 H         -0.8077533151       -1.1254530530       -1.8248744744
 H         -2.1966981506       -2.2575768239       -1.9964200052
 H         -3.6702613721        2.2503093013        1.5962704707
 H         -4.8002189065        0.3555600731       -0.3485544867
 H         -0.7483018317        2.1479748906       -1.8074544756
 H          2.3340159972        0.8277613449        2.1322337788
 H          0.8383380296        0.0432079918        2.1994440282
 H          1.7258566835       -3.9634586810       -0.8878792957
 H          0.0769676702       -3.0954007486        2.0627272779
 H          3.5313439121        2.7930889065       -1.9361690398
 H          5.0736989496        2.5826649611       -1.1255528515
  37
        -73.92722739
 P          1.1349196202       -1.7584019452       -0.5527749248
 O         -1.9869354061        0.3269404457        1.5036562171
 O         -3.4343982936        1.6474413478       -1.3309747065
 O         -4.5550910814       -0.3408860874        0.0110862189
 O         -0.3594542506       -1.2298346793       -0.3749939285
 O          0.8722884438       -3.3055597427       -0.8042944044
 O          1.8038358049       -1.7332561731        0.8709921312
 O          1.8390337836       -1.0520784557       -1.6304694560
 O          3.4640345706        0.2038417451        1.0217160913
 N         -0.4439915543        1.6004794717        0.2321340812
 N          1.2856596198        2.2115126466       -1.0224148459
 N          0.6803086137        0.6842521191        2.1494722463
 N          4.0083834940        1.7059967147       -0.5828346460
 C         -2.5319037336        0.7433914709       -0.7790094704
 C         -3.2050337474       -0.5618489163       -0.2850813959
 C         -1.8368060989        1.2965972649        0.5013153823
 C         -2.3694764024       -0.9298634549        0.9461368044
 C         -1.1736769335       -1.8339264789        0.6310255402
 C          0.6714684501        1.1534968238        0.8833647993
 C          0.0000611412        2.2278430478       -0.9100678702
 C          1.7512716952        1.5185589208        0.0750749003
 C          3.1188718664        1.0968937380        0.2030768469
 H         -1.7620403113        0.5032548304       -1.5208300208
 H         -3.1795303245       -1.3356103533       -1.0522822863
 H         -2.3325448027        2.2190011963        0.8386068453
 H         -2.9732103057       -1.4314714780        1.7084069669
 H         -1.5288117582       -2.8006270837        0.2675990023
 H         -0.5719983826       -1.9895763839        1.5298153499
 H         -4.3384086206        1.3197084095       -1.1543507576
 H         -4.6394479809        0.1377152662        0.8507088060
 H         -0.6741733766        2.6862905943       -1.6039518933
 H          1.5444256649        0.2610524383        2.4490944406
 H         -0.1857515462        0.3197824645        2.5153963278
 H          1.6381164026       -3.7956783332       -1.1205642011
 H          2.5182932772       -1.0193469295        0.9725700675
 H          3.6526487784        2.3247811543       -1.2931935832
 H          4.9483159363        1.3487560637       -0.6331172701
  37
        -73.92720011
 P          1.2728275937       -1.8255594129       -0.4085795231
 O         -1.9519203674        0.2384462110        1.4501411800
 O         -4.1965882375        1.6427909045        0.2434823892
 O         -4.0487591351       -0.6234044424       -1.2090006552
 O         -0.1993059831       -1.2252856100       -0.5031419796
 O          0.9781972713       -3.3821941780       -0.5208884084
 O          1.7395662363       -1.6529594071        1.0884571044
 O          2.1678629700       -1.2749287231       -1.4340099989
 O          3.4199861924        0.2911300700        1.0431872976
 N         -0.5065700264        1.5958517050        0.1805744800
 N          1.1613776150        1.8995551017       -1.2533293521
 N          0.6849733827        0.9583475059        2.1653305774
 N          3.9098191784        1.4602127144       -0.8353675394
 C         -2.9397707299        1.3713525352       -0.3074431101
 C         -2.8418461638       -0.1136742261       -0.7380233030
 C         -1.8318736239        1.4554986735        0.7487305534
 C         -2.3448249780       -0.8069493028        0.5584370561
 C         -1.2152533261       -1.8084851023        0.3172165211
 C          0.6393680615        1.2342164670        0.8398493690
 C         -0.1160566116        1.9741651912       -1.0833212809
 C          1.6764492561        1.4147368316       -0.0712475108
 C          3.0517444726        1.0108442905        0.0804053230
 H         -2.8189693551        2.0633605110       -1.1384145290
 H         -2.0879055416       -0.2369682029       -1.5218075645
 H         -2.0008305939        2.2604464386        1.4757543048
 H         -3.1636922024       -1.3519761760        1.0411098031
 H         -1.6146930524       -2.6854502199       -0.1959465751
 H         -0.7783860327       -2.1121531905        1.2713135522
 H         -4.2734219663        1.2286450637        1.1179182015
 H         -4.7734028880       -0.0643744661       -0.8700836754
 H         -0.7977756034        2.3130133466       -1.8335792024
 H          1.5677995236        0.5785563089        2.4747706369
 H         -0.1422558282        0.5388881082        2.5648051735
 H          1.7555894270       -3.9273896277       -0.6821282444
 H          2.4599537228       -0.9538681643        1.1691727546
 H          3.5213301864        1.9122261390       -1.6473439956
 H          4.8412362386        1.0781363117       -0.8621807799
  37
        -73.92704102
 P          1.2606896382       -1.8315940554       -0.4040330284
 O         -1.9191094365        0.2289690272        1.4419013727
 O         -4.1987672498        1.5610369689        0.2690991890
 O         -4.0290121521       -0.6193851621       -1.2350647941
 O         -0.2129725695       -1.2384178174       -0.5050576368
 O          0.9748567322       -3.3899579455       -0.5138647786
 O          1.7265092863       -1.6524922707        1.0923026907
 O          2.1542305552       -1.2777340429       -1.4294651677
 O          3.4179357153        0.2823871861        1.0399037971
 N         -0.5007376445        1.6181571922        0.1886837818
 N          1.1680363812        1.9179596582       -1.2469564425
 N          0.6917689679        0.9643146917        2.1677496330
 N          3.9144056637        1.4519569480       -0.8363575564
 C         -2.9354839627        1.3768576354       -0.3068756012
 C         -2.8389273881       -0.1059306197       -0.7360431868
 C         -1.8272157358        1.4531255864        0.7565304822
 C         -2.3478341248       -0.8037461680        0.5588918911
 C         -1.2367350029       -1.8233947597        0.3054031853
 C          0.6444300194        1.2440475097        0.8430621034
 C         -0.1088243268        1.9995833351       -1.0738554386
 C          1.6816012419        1.4229767103       -0.0684660539
 C          3.0535662506        1.0073222488        0.0795630170
 H         -2.7765599962        2.0581487952       -1.1444895002
 H         -2.0805012618       -0.2231794394       -1.5157478139
 H         -2.0033926441        2.2395548732        1.5013421736
 H         -3.1774760752       -1.3230103039        1.0508620610
 H         -1.6476896854       -2.6860660290       -0.2223618216
 H         -0.8050143132       -2.1464809818        1.2551069884
 H         -4.3858229972        2.5009564059        0.4003678749
 H         -4.7639969632       -0.2498741652       -0.7138446394
 H         -0.7866880671        2.3464168971       -1.8240914818
 H          1.5718016804        0.5739613831        2.4725747730
 H         -0.1379626211        0.5464665374        2.5644581405
 H          1.7568467498       -3.9318191552       -0.6637154354
 H          2.4489662760       -0.9549426784        1.1688798310
 H          3.5286116295        1.9071911569       -1.6477929028
 H          4.8420451965        1.0608710068       -0.8653997483
  37
        -73.92683762
 P          1.1306754446       -1.7693176473       -0.5368630753
 O         -1.9898453016        0.3526871436        1.4975267969
 O         -3.5107712528        1.7317594652       -1.1587559558
 O         -4.5423635439       -0.4910743992       -0.1185094225
 O         -0.3590408275       -1.2317360965       -0.3536549849
 O          0.8595018271       -3.3169690377       -0.7760773680
 O          1.8121769961       -1.7383979058        0.8804323758
 O          1.8284372813       -1.0736243602       -1.6260302307
 O          3.4679386466        0.2013504032        1.0229159401
 N         -0.4377702170        1.6040955735        0.2169892007
 N          1.2987550892        2.2097976314       -1.0313681621
 N          0.6784382809        0.6877724388        2.1385073492
 N          4.0174680935        1.6979335900       -0.5845106178
 C         -2.5532163036        0.7919580156       -0.7712684094
 C         -3.1650739570       -0.5660080254       -0.3298142632
 C         -1.8341011405        1.3173448894        0.4958398669
 C         -2.3692498705       -0.9048605367        0.9446450399
 C         -1.1686512705       -1.8148046519        0.6694096337
 C          0.6743071982        1.1543848569        0.8723114885
 C          0.0131385967        2.2329231578       -0.9217637084
 C          1.7581913724        1.5135501445        0.0660899838
 C          3.1251819988        1.0914920020        0.2002216254
 H         -1.8115388032        0.6124187069       -1.5606050120
 H         -3.0197202595       -1.3314634316       -1.0934036742
 H         -2.3183942306        2.2449901969        0.8363969228
 H         -3.0043852946       -1.3910177280        1.6907075542
 H         -1.5165659116       -2.7938771843        0.3335269110
 H         -0.5680911876       -1.9400167766        1.5733887890
 H         -4.0373424079        1.3833624267       -1.8940293580
 H         -4.7512371243        0.2665927249        0.4499492149
 H         -0.6529496377        2.7062820250       -1.6131420437
 H          1.5389051226        0.2615280229        2.4438340862
 H         -0.1923634374        0.3394625272        2.5089001669
 H          1.6248432808       -3.8153148466       -1.0804635884
 H          2.5245547205       -1.0213529089        0.9770842627
 H          3.6656540850        2.3176546701       -1.2959332063
 H          4.9586121421        1.3430244426       -0.6273857727
  37
        -73.92666269
 P          0.6151502160       -2.3942113511        0.1020219778
 O         -1.4544716180       -0.4727688311        0.7601319482
 O         -3.6931113045        1.5225195624        1.0764846210
 O         -4.3239577206        0.1785148783       -1.1308150992
 O         -0.7474981313       -2.7229752813       -0.6954652438
 O          1.3714512404       -3.7783032531       -0.0227216732
 O          0.3140823874       -2.3463554688        1.6403854094
 O          1.3207168946       -1.2170398217       -0.4213622810
 O          3.9911562553        1.6049120615        0.9263613424
 N         -0.1588115418        1.4105465476        0.1228128516
 N          1.2571927144        2.2723827178       -1.3544177205
 N          1.3170098481        0.8982076219        1.9588725250
 N          4.0459020220        2.5024891521       -1.1548312398
 C         -2.6522168859        1.4416719992        0.1462762258
 C         -2.9599469882        0.3523110803       -0.9148583593
 C         -1.3494715351        0.9376504766        0.7809834031
 C         -2.2722337025       -0.9036941309       -0.3258146183
 C         -1.4109967417       -1.6524256926       -1.3375525357
 C          1.0874780387        1.3394757757        0.6891871733
 C          0.0225194195        1.9641335958       -1.1220201041
 C          1.9597624927        1.8967356643       -0.2312695987
 C          3.4018269431        1.9866346480       -0.0971068339
 H         -2.5537568122        2.4378351152       -0.2851944547
 H         -2.4982532516        0.6028344722       -1.8753226392
 H         -1.2660211793        1.2303365692        1.8356265738
 H         -3.0154438096       -1.5976090644        0.0842840998
 H         -0.6628483478       -0.9723212280       -1.7580202435
 H         -2.0276875094       -2.0865262712       -2.1250943433
 H         -3.6766405365        0.7540124957        1.6683052588
 H         -4.8105665869        0.6091614032       -0.4015249959
 H         -0.7777509370        2.1371328191       -1.8103855982
 H          2.3168620794        0.8391444643        2.1271999264
 H          0.8265456157        0.0463292804        2.2001294319
 H          1.7660637829       -3.9669973823       -0.8796981944
 H         -0.0001885852       -3.1760638050        2.0218194996
 H          3.5058281692        2.7696170140       -1.9599608157
 H          5.0494057764        2.5658582176       -1.1498025899
  37
        -73.92655476
 P          1.2693344424       -1.8175900170       -0.4202394674
 O         -1.9426988258        0.2552998459        1.4381891376
 O         -4.1629903843        1.7734432369        0.0720616921
 O         -4.1646965761       -0.7149612186       -0.9472742003
 O         -0.2090683463       -1.2288052351       -0.5052873187
 O          0.9816158261       -3.3749707528       -0.5479983175
 O          1.7400453848       -1.6585355592        1.0758158338
 O          2.1547523761       -1.2529427208       -1.4464353344
 O          3.4203724831        0.2794876668        1.0712720239
 N         -0.4945541897        1.5975957460        0.1631856820
 N          1.2005766381        1.9254661465       -1.2356114577
 N          0.6700163082        0.9431561822        2.1608618956
 N          3.9377771826        1.4742602992       -0.7831910277
 C         -2.9201549543        1.3368280531       -0.3863234552
 C         -2.8956460317       -0.1841979292       -0.7039550302
 C         -1.8346646458        1.4492488961        0.7030299947
 C         -2.3405168394       -0.8163200972        0.5889233924
 C         -1.2036464612       -1.8092903394        0.3427776593
 C          0.6401908127        1.2302570207        0.8383092745
 C         -0.0795930617        1.9984954196       -1.0857659254
 C          1.6941314284        1.4217258844       -0.0525539808
 C          3.0655131844        1.0143035407        0.1141127522
 H         -2.6974895572        1.9515903973       -1.2569747225
 H         -2.2016082182       -0.3763193834       -1.5319138221
 H         -2.0408840924        2.2737490255        1.3978208485
 H         -3.1422775262       -1.3569410217        1.1048905408
 H         -1.6003264919       -2.7014370374       -0.1456876020
 H         -0.7478217552       -2.0893212663        1.2948717362
 H         -4.5340722407        1.1333184811        0.6991667955
 H         -4.5239813911       -0.3651793619       -1.7754805449
 H         -0.7433605764        2.3584144435       -1.8422232329
 H          1.5448181572        0.5541594158        2.4805020725
 H         -0.1701239284        0.5455906706        2.5552440514
 H          1.7635552063       -3.9181122799       -0.6932263612
 H          2.4592023071       -0.9573119789        1.1674547291
 H          3.5621653360        1.9411024867       -1.5927685671
 H          4.8693318307        1.0921664052       -0.8010548908
  37
        -73.92632216
 P          0.6309137903       -2.3789396705        0.0805925311
 O         -1.4679186773       -0.4766759595        0.7532679005
 O         -3.6592375474        1.7197366907        1.0092970287
 O         -4.3929608802        0.0210026162       -0.8924839496
 O         -0.7207893744       -2.6991487374       -0.7392106173
 O          1.3888315827       -3.7609822045       -0.0579581276
 O          0.3166396128       -2.3522428237        1.6160227806
 O          1.3402954632       -1.1943960794       -0.4202573852
 O          3.9762492094        1.6460100017        0.9899436466
 N         -0.1560283202        1.3872773474        0.1151913735
 N          1.2865803812        2.1813583107       -1.3757507909
 N          1.2873340687        0.9732140858        2.0014413719
 N          4.0662186137        2.4538694079       -1.1264380305
 C         -2.6486782799        1.4566290983        0.0859932060
 C         -3.0261012713        0.3055654992       -0.8910394197
 C         -1.3628988142        0.9307315036        0.7584107194
 C         -2.2739121449       -0.9168708679       -0.3322925899
 C         -1.3937652291       -1.6229647440       -1.3607615008
 C          1.0776194671        1.3547173777        0.7098112127
 C          0.0498816164        1.8728319038       -1.1535368017
 C          1.9662497195        1.8730890079       -0.2187132391
 C          3.4041684364        1.9784505124       -0.0604002804
 H         -2.4635211929        2.4036980663       -0.4231604162
 H         -2.6673464599        0.5339967696       -1.9029303937
 H         -1.3084193361        1.2421147426        1.8090209901
 H         -2.9925342874       -1.6395344360        0.0721492043
 H         -0.6525165756       -0.9211869819       -1.7573515155
 H         -1.9965684704       -2.0507774241       -2.1625258965
 H         -4.0209525112        0.8884394151        1.3551203405
 H         -4.8940511680        0.7819768150       -1.2228726784
 H         -0.7340887812        1.9926049722       -1.8715582655
 H          2.2837396912        0.9206414578        2.1900069665
 H          0.7846999914        0.1403082941        2.2795214315
 H          1.7867120649       -3.9381399003       -0.9159679920
 H          0.0017380383       -3.1869594228        1.9857746335
 H          3.5411703647        2.6745841110       -1.9551604509
 H          5.0695864972        2.5163827026       -1.1069645957
  37
        -73.92604965
 P          1.2703054736       -1.8286901372       -0.4036582412
 O         -1.9247439480        0.2338206356        1.4341052961
 O         -4.1551141526        1.6651015017        0.2567770981
 O         -4.1079011640       -0.5748734764       -1.1470007963
 O         -0.2123211136       -1.2539332553       -0.5061349445
 O          0.9920092479       -3.3899938238       -0.5115515753
 O          1.7349400680       -1.6447197507        1.0903781779
 O          2.1529819086       -1.2721219753       -1.4365310460
 O          3.4144819510        0.2918926193        1.0495007945
 N         -0.5073407503        1.6169799594        0.1800699593
 N          1.1715980943        1.9304875934       -1.2414285787
 N          0.6763837311        0.9642967150        2.1653420625
 N          3.9134783789        1.4743528815       -0.8177110304
 C         -2.9309064133        1.3471727894       -0.3395041008
 C         -2.8444425593       -0.1435873379       -0.7343687876
 C         -1.8401058478        1.4474703018        0.7319626111
 C         -2.3440400844       -0.8182639823        0.5676862286
 C         -1.2137676434       -1.8256958773        0.3407316068
 C          0.6340974902        1.2483283822        0.8431197139
 C         -0.1065816546        2.0086335815       -1.0763608435
 C          1.6779993694        1.4312758963       -0.0614836562
 C          3.0503230311        1.0216441552        0.0919115594
 H         -2.7518091034        2.0067554603       -1.1951274418
 H         -2.0878709430       -0.2644627891       -1.5179666602
 H         -2.0561543001        2.2499331142        1.4475500211
 H         -3.1700433462       -1.3319847521        1.0726509116
 H         -1.5980151192       -2.7280211143       -0.1383085507
 H         -0.7661643345       -2.0924254098        1.3005559864
 H         -4.8509583952        1.1509491855       -0.1879307438
 H         -4.0475962669       -1.4121260934       -1.6250630199
 H         -0.7809877986        2.3638331952       -1.8258421893
 H          1.5526036894        0.5740917506        2.4792474606
 H         -0.1626003161        0.5751159696        2.5700885629
 H          1.7790330605       -3.9313532394       -0.6333360468
 H          2.4530778316       -0.9407014061        1.1700247899
 H          3.5303370806        1.9389621772       -1.6249940472
 H          4.8445797332        1.0916257218       -0.8428187598
  37
        -73.92554491
 P          0.5740819259       -2.2513449396       -0.3007887574
 O         -1.2858501061       -0.4877697204        0.7624820562
 O         -3.0981567119        2.1805424060       -0.8242450536
 O         -4.2648145466        0.3434841438        0.7602516001
 O         -0.8759692241       -2.9639953838       -0.2832731133
 O          1.5055109227       -3.4996573968       -0.6010142142
 O          0.9724546659       -1.9440774418        1.1840301413
 O          0.6772901453       -1.1464363698       -1.2628917451
 O          3.8517103511        1.5687382237        1.4423664594
 N         -0.1188788662        1.3932958701       -0.0086303977
 N          1.5038985168        2.3032600348       -1.2178398563
 N          1.0335972530        0.9224327365        2.0557691350
 N          4.2158734998        2.5642123025       -0.5623319487
 C         -2.4839326280        0.9462784211       -0.6865114580
 C         -3.4263042476       -0.1873880732       -0.2293347713
 C         -1.3934188861        0.8828773970        0.4028434060
 C         -2.4276023494       -1.2190052256        0.3179640988
 C         -1.9873021131       -2.2284315777       -0.7470371915
 C          1.0121806559        1.3362223419        0.7595697928
 C          0.2525914090        1.9782369066       -1.1934240146
 C          2.0207079560        1.9055937854       -0.0027833425
 C          3.4208387207        1.9968839184        0.3586072910
 H         -2.0370268389        0.6870003494       -1.6499768390
 H         -3.9993958341       -0.5899191518       -1.0691832855
 H         -1.7205651402        1.4475920303        1.2933499120
 H         -2.8162067025       -1.7502115643        1.1937573659
 H         -1.7027562824       -1.6936980943       -1.6578340579
 H         -2.7732183926       -2.9560930318       -0.9513180892
 H         -3.7389101809        2.2908867974       -0.0993922729
 H         -5.0217440201       -0.2382461650        0.9189333706
 H         -0.4384541110        2.1831104994       -1.9835257190
 H          1.9873407296        0.8134352123        2.3831367464
 H          0.4293420344        0.1389135346        2.2588204600
 H          1.5665369265       -3.7664758395       -1.5235226979
 H          1.1138141117       -2.7408260002        1.7121411653
 H          3.8012724305        2.8601601553       -1.4293785139
 H          5.2061086413        2.6293641917       -0.4011642827
  37
        -73.92517971
 P          0.6167347948       -2.3591289257        0.0883789895
 O         -1.4290246105       -0.4864475775        0.7166351166
 O         -3.6223107388        1.5447582177        1.0962195649
 O         -4.3774262587        0.2055952608       -1.0123253210
 O         -0.7691695166       -2.7535148495       -0.6374543267
 O          1.3950185460       -3.7352397644       -0.0143117568
 O          0.3896386283       -2.2577533783        1.6356848073
 O          1.2782525953       -1.1985658848       -0.5223713125
 O          3.9863709256        1.6039315244        0.9733193454
 N         -0.1539937137        1.4084971675        0.1204223531
 N          1.2849429295        2.2399738877       -1.3542155352
 N          1.3011423442        0.9312812847        1.9837461234
 N          4.0688691241        2.4816461990       -1.1152159706
 C         -2.6485617537        1.4283913758        0.1005234686
 C         -2.9888389445        0.3133243993       -0.9170419463
 C         -1.3548879258        0.9222137708        0.7513129761
 C         -2.3017739088       -0.9344196276       -0.3149122169
 C         -1.4747428518       -1.7361205253       -1.3194989059
 C          1.0829088559        1.3491211415        0.7060925820
 C          0.0477228053        1.9329667256       -1.1333775232
 C          1.9699933468        1.8886645759       -0.2125057383
 C          3.4095616689        1.9766733670       -0.0609658331
 H         -2.4991617920        2.3988671353       -0.3893716316
 H         -2.5370733781        0.5512198925       -1.8871198653
 H         -1.3200733655        1.2155337939        1.8077484354
 H         -3.0436231110       -1.5884383319        0.1597969419
 H         -0.7526675708       -1.0717959163       -1.8065394167
 H         -2.1019369890       -2.2388037614       -2.0558578743
 H         -4.4916037232        1.3672518666        0.6955323311
 H         -4.6352683868       -0.3300724596       -1.7744927250
 H         -0.7412022824        2.0884065264       -1.8389706387
 H          2.2979739269        0.8596618022        2.1626378508
 H          0.7826833250        0.1060044336        2.2540107341
 H          1.7714350826       -3.9425768473       -0.8752157479
 H          0.0920835695       -3.0734005207        2.0583816574
 H          3.5398645138        2.7364545775       -1.9315136686
 H          5.0726441928        2.5381622692       -1.0991916477
  37
        -73.92514489
 P          0.3794774793       -2.7917992577        0.4719730504
 O         -1.0856039893       -0.5003786735        0.5294920711
 O         -3.0051568352        2.2902383812       -0.2615892445
 O         -4.2690166694        0.0808879445       -0.8672413260
 O         -1.1941323905       -3.1460108448        0.4478455205
 O          1.0001019562       -4.2124850131        0.7973121706
 O          0.7157433224       -2.0115191858        1.7861203298
 O          0.8552358326       -2.1697012254       -0.7736711324
 O          3.6117331978        1.9265385467       -1.7191516313
 N          0.0468638911        1.5397407787        0.5419247983
 N          1.6635582221        2.9273331409        1.1651629440
 N          0.9369619870        0.6733725555       -1.5378435566
 N          4.1277095551        3.3886586324       -0.0638250805
 C         -2.1282320932        1.2720497072       -0.6506912583
 C         -2.8870103383       -0.0559236490       -0.9605030688
 C         -1.2286449275        0.9016234859        0.5545959822
 C         -2.3139252326       -1.0478118591        0.0831125360
 C         -2.0130242649       -2.4373560929       -0.4619536485
 C          1.0346324389        1.4267015519       -0.4029880495
 C          0.4981702578        2.4527755700        1.4625426689
 C          2.0339644113        2.3045614100       -0.0067631283
 C          3.3086206343        2.5176226580       -0.6707325335
 H         -1.4957942966        1.5646154183       -1.4916357787
 H         -2.6602224576       -0.4054582793       -1.9711911688
 H         -1.7465053961        1.2179228840        1.4757568919
 H         -3.0090725427       -1.1181877087        0.9331976049
 H         -1.4828717517       -2.3415259716       -1.4137694432
 H         -2.9277487680       -3.0167139038       -0.5838102482
 H         -3.2743693570        2.8172214407       -1.0278961407
 H         -4.4640266698        0.8341711456       -0.2777350093
 H         -0.0788370705        2.7334047869        2.3192148144
 H          1.8233184561        0.6917726170       -2.0355440383
 H          0.6194016865       -0.2783740461       -1.3761648237
 H          1.0415116929       -4.8365209491        0.0654975566
 H          0.5417024410       -2.4996336284        2.6008847415
 H          3.8149219266        3.8255599524        0.7866474919
 H          5.0342326177        3.5822489205       -0.4533825908
  37
        -73.92489246
 P          0.3501885138       -2.8434480813        0.5552723502
 O         -1.0535030570       -0.4947818723        0.5195882298
 O         -3.1101468132        2.2477866887       -0.0776509303
 O         -4.1494996071        0.0487238790       -1.0272974190
 O         -1.2145273354       -3.1614664845        0.3203028857
 O          0.9040338000       -4.2922753504        0.8742019401
 O          0.5224551692       -2.1415848600        1.9430908563
 O          0.9857215670       -2.1681825866       -0.5867216142
 O          3.5611625618        1.9633533774       -1.8052044264
 N          0.0862011966        1.5402159299        0.5844428392
 N          1.6829486328        2.9873899717        1.1176339679
 N          0.9330333695        0.6396117527       -1.4989780242
 N          4.0868692885        3.4908550551       -0.2136422899
 C         -2.1398320885        1.3561705055       -0.5288726157
 C         -2.7526739855        0.0204938727       -1.0473815133
 C         -1.1926557170        0.9059632006        0.6243037944
 C         -2.2478883940       -1.0179226566       -0.0287800018
 C         -1.9149221773       -2.3788719419       -0.6256829496
 C          1.0431176635        1.4323124319       -0.3913406690
 C          0.5400338030        2.4904753826        1.4638853950
 C          2.0319404982        2.3443987400       -0.0500691409
 C          3.2749492029        2.5770052086       -0.7648338985
 H         -1.5503384226        1.8550197553       -1.3038070869
 H         -2.3576858197       -0.2131345286       -2.0391175935
 H         -1.6608115576        1.1736325020        1.5856602745
 H         -3.0018631444       -1.1286043868        0.7651554219
 H         -1.2828253706       -2.2385406681       -1.5073106027
 H         -2.8221363076       -2.9279508778       -0.8775599320
 H         -3.9466115995        1.7538710823        0.0350881944
 H         -4.4942589804        0.3836306230       -1.8684516428
 H         -0.0171778001        2.7792563527        2.3308906406
 H          1.8046248592        0.6667611900       -2.0218583549
 H          0.6531355614       -0.3142581498       -1.2889363998
 H          1.0354814255       -4.8726150451        0.1174298203
 H          0.2121881234       -2.6581617798        2.6982485877
 H          3.7860871806        3.9498222852        0.6294439162
 H          4.9701247125        3.7041016030       -0.6442722179
  37
        -73.92483259
 P          0.1994407478       -2.2186401014       -0.3914855747
 O         -1.1702269570       -0.1838814643        1.0851257343
 O         -3.0224765941        1.8436711653       -1.1143318001
 O         -4.2857792801       -0.3347949896       -0.4295661210
 O         -1.2229635699       -2.8785500387       -0.0074500895
 O          0.8537591977       -3.4524745551       -1.1169826544
 O          0.9862873642       -2.0705428620        0.9609203470
 O          0.1460907594       -1.0562030981       -1.2915767623
 O          4.0431345731        1.4832359560        1.3357914185
 N          0.0226948243        1.5479871355        0.0835188583
 N          1.5736729400        2.6853826644       -1.0244653557
 N          1.3935062170        0.4482846356        1.7801188063
 N          4.3286635453        2.8410835166       -0.4590472788
 C         -2.1562159759        0.7880439425       -0.8473923417
 C         -2.9014333933       -0.5348025697       -0.5055709855
 C         -1.2824747433        1.0441592532        0.4092117174
 C         -2.3655339926       -0.9176735655        0.8846184087
 C         -2.0386900224       -2.3956531751        1.0418797483
 C          1.2089861743        1.2919603846        0.7088806938
 C          0.3141326390        2.3930326889       -0.9557697848
 C          2.1703871068        2.0030498203        0.0094046411
 C          3.5832630382        2.0767653544        0.3471069079
 H         -1.4999864671        0.6390409183       -1.7083506797
 H         -2.6299711391       -1.3064093352       -1.2283187429
 H         -1.8042263252        1.7788252381        1.0528794578
 H         -3.1140791443       -0.6235264197        1.6355252805
 H         -2.9516523688       -2.9920834218        1.0048887846
 H         -1.5238441000       -2.5374037919        1.9956394678
 H         -3.8921554883        1.6235950955       -0.7238999834
 H         -4.7089347686       -0.5568100128       -1.2711872368
 H         -0.4424101165        2.7811990350       -1.6055878706
 H          2.3358506010        0.5680462144        2.1495018473
 H          0.6562760473        0.4623546463        2.4723399787
 H          0.9611559650       -4.2461777230       -0.5781479959
 H          1.1970226193       -1.1322650162        1.2438373923
 H          3.8819824457        3.2863532114       -1.2427981875
 H          5.3150160170        2.9410643652       -0.2893036587
  37
        -73.92479503
 P          1.2927978930       -2.0293264018       -0.2109272688
 O         -1.9488386110        0.1229800934        1.2293621770
 O         -3.7748753721        2.1762458094       -0.6284999506
 O         -4.7083727152       -0.2468596735       -0.0222554432
 O         -0.1694718269       -1.8550885105        0.4640526715
 O          1.3770508690       -3.5686037164       -0.5619505776
 O          2.2506490867       -1.8464153563        1.0043744291
 O          1.4702929417       -1.1834065621       -1.4002664637
 O          3.5041759513        0.3816948692        0.9820552007
 N         -0.4712681830        1.5403535065        0.0695662251
 N          1.2559082588        2.2451535101       -1.1379747601
 N          0.6589209914        0.6217070377        1.9886694766
 N          3.9803909531        1.8441134442       -0.6764576476
 C         -2.8187145370        1.1631895859       -0.7140384789
 C         -3.4164285539       -0.2675695211       -0.5434120407
 C         -1.8447543795        1.3055945188        0.4823417085
 C         -2.3871910012       -0.9326230444        0.3882414371
 C         -1.2415907937       -1.5634656611       -0.4145007613
 C          0.6529268747        1.1286754826        0.7355093463
 C         -0.0315450453        2.2179571279       -1.0452298666
 C          1.7290901179        1.5509531146       -0.0461432732
 C          3.1172824987        1.2162084622        0.1229012823
 H         -2.2688773115        1.2117036399       -1.6618121567
 H         -3.4883227377       -0.7909757233       -1.4979542594
 H         -2.1679226976        2.1357911472        1.1267710547
 H         -2.8303632611       -1.6790124481        1.0506507910
 H         -0.8763915634       -0.8867771489       -1.1940869222
 H         -1.5923454632       -2.4833170286       -0.8905717973
 H         -4.4970153748        2.0034376000       -1.2521637291
 H         -4.7232954675        0.2418127285        0.8155824248
 H         -0.6947956788        2.6968128134       -1.7344342508
 H          1.5475908135        0.2453215447        2.2832047989
 H         -0.1646461568        0.1139545153        2.2772069104
 H          1.4286060716       -4.1584383568        0.2011202678
 H          2.7723859175       -0.9762198120        1.0208353498
 H          3.6082183248        2.4473294145       -1.3915211700
 H          4.9512533235        1.5786161428       -0.6687050527
  37
        -73.92474432
 P          0.4836247514       -2.5542275000        0.1163681971
 O         -1.3974928194       -0.5268127857        0.7190097447
 O         -3.5985539254        1.4437202966        1.1471767052
 O         -4.3117093976        0.1751011087       -1.0057468166
 O         -0.6553640245       -2.6585956047       -1.0191846833
 O          1.3234073954       -3.8454774908       -0.1598518898
 O         -0.2142410537       -2.9207555619        1.4939671714
 O          1.2871544448       -1.3255314200        0.0769255674
 O          4.0225414214        1.9550370096        0.9588274716
 N         -0.0870815262        1.3785995927        0.1328434791
 N          1.2837741496        2.2300470540       -1.3957855168
 N          1.4099372232        1.1220461411        2.0122523148
 N          4.0470355332        2.6835984878       -1.1878862290
 C         -2.5742383155        1.4358421153        0.1928549317
 C         -2.9431097074        0.3759062771       -0.8796809962
 C         -1.2666753973        0.8789661051        0.7925627663
 C         -2.1781826418       -0.8903418061       -0.4155260882
 C         -1.2676181979       -1.4761563123       -1.4929994706
 C          1.1560802415        1.4381806615        0.7096469701
 C          0.0710542386        1.8541186182       -1.1481671862
 C          1.9970779047        1.9878689913       -0.2437361543
 C          3.4262511312        2.2029130872       -0.1008002629
 H         -2.4236306119        2.4242165938       -0.2472963892
 H         -2.5820556202        0.6806931838       -1.8655821154
 H         -1.1693822600        1.1210612731        1.8569504582
 H         -2.8822649860       -1.6627823105       -0.0882009902
 H         -0.4904998490       -0.7507278106       -1.7543107924
 H         -1.8425970042       -1.7614124597       -2.3747294089
 H         -3.5961717425        2.2661508915        1.6555093338
 H         -4.7248870438        0.3123086436       -0.1337596794
 H         -0.7299398816        1.9215606043       -1.8537996016
 H          2.4103976804        1.1733854171        2.1843011718
 H          1.0143442646        0.2405179810        2.3098875514
 H          0.8414350453       -4.6805455706       -0.1074357149
 H         -0.7865746272       -2.2335989148        1.8516568863
 H          3.5063060005        2.8346258910       -2.0222481265
 H          5.0434990302        2.8185067536       -1.1770254804
  37
        -73.92459793
 P          0.3356634780       -2.4204763894       -0.0895187944
 O         -1.1134976005       -0.3352766203        0.8995425463
 O         -2.9916671714        1.8732012161       -1.1580157754
 O         -4.3794812461       -0.1296931810       -0.1642536089
 O         -1.2199234772       -2.8299827520       -0.2025014634
 O          0.5759352095       -1.2251081819       -1.0865888020
 O          1.0104587777       -3.6028870333       -0.9000179919
 O          0.8155239823       -2.2596533896        1.2909220416
 O          4.0735920949        1.6784072161        1.1435116428
 N         -0.0060591880        1.5191076884        0.0057237303
 N          1.4513669767        2.7797732392       -1.0985963511
 N          1.3852231700        0.6909492657        1.8118707702
 N          4.1891834923        3.0701771507       -0.6430658796
 C         -2.2145142105        0.7594074112       -0.8668993899
 C         -3.0570112668       -0.4868242676       -0.4577282712
 C         -1.2760219853        0.9536636686        0.3545012008
 C         -2.3688220035       -0.9868281288        0.8289250816
 C         -2.0882351752       -2.4824811895        0.8569929057
 C          1.1924128225        1.3688760580        0.6511888790
 C          0.2210651137        2.3859398979       -1.0377029553
 C          2.0972082523        2.1565404394       -0.0535184886
 C          3.5176614825        2.2787634593        0.2085961154
 H         -1.6024269516        0.5406961722       -1.7448924946
 H         -3.0044587668       -1.2577320831       -1.2296304700
 H         -1.7749425026        1.6041304766        1.0980486494
 H         -2.9933286289       -0.7035173800        1.6882825914
 H         -3.0018679127       -3.0596209289        0.7169880181
 H         -1.6102726440       -2.7265193468        1.8089890730
 H         -3.7840149037        1.8514893830       -0.5889968808
 H         -4.9368430699       -0.2212613758       -0.9507536728
 H         -0.5604306863        2.7089244803       -1.6934902381
 H          2.3754604006        0.6124384383        2.0202139030
 H          0.8767597226       -0.1792215565        1.9050291633
 H          0.8138306733       -1.5374471394       -1.9688415243
 H          1.1251505486       -4.4291301009       -0.4195522297
 H          3.6733447229        3.5300394317       -1.3738023011
 H          5.1782834934        3.2076132770       -0.5275573604
  37
        -73.92450881
 P          0.3637471176       -2.3874151916       -0.1434540041
 O         -1.1262896377       -0.3549948439        0.9276431296
 O         -2.8986597187        1.7948698105       -1.3103614936
 O         -4.3629082410        0.0926193111       -0.0017934983
 O         -1.1921547810       -2.7917735318       -0.2763220116
 O          0.6045079766       -1.1675624027       -1.1091821069
 O          1.0449662845       -3.5478076496       -0.9812597859
 O          0.8375691593       -2.2625771042        1.2423674228
 O          4.0294435758        1.7041691693        1.2153075556
 N         -0.0286635940        1.4908605575        0.0140190040
 N          1.4445492000        2.7099446516       -1.1140999930
 N          1.3309711863        0.7283769634        1.8711037895
 N          4.1740838633        3.0250774916       -0.6221953600
 C         -2.2101389484        0.6742954917       -0.8697453281
 C         -3.1299768281       -0.4691106401       -0.3653057570
 C         -1.2974566847        0.9224985967        0.3590350008
 C         -2.3732821828       -1.0307749465        0.8647537240
 C         -2.0534554920       -2.5199045114        0.8104124912
 C          1.1587271393        1.3680621609        0.6844528127
 C          0.2145928415        2.3133574853       -1.0601577117
 C          2.0733475618        2.1314820621       -0.0330064172
 C          3.4888807896        2.2665925561        0.2483123369
 H         -1.5769929134        0.3190503771       -1.6879573004
 H         -3.2425603450       -1.2357454827       -1.1346123796
 H         -1.8157518175        1.5826075655        1.0795996211
 H         -2.9571989576       -0.8051564484        1.7686087280
 H         -2.9481927137       -3.1220172236        0.6559336084
 H         -1.5527972367       -2.7957376621        1.7421527824
 H         -3.7580763001        1.8253293344       -0.8492353638
 H         -5.0848740563       -0.5390049694       -0.1197579774
 H         -0.5566988389        2.5998883001       -1.7444127243
 H          2.3176565567        0.6569386444        2.0980712158
 H          0.8232792844       -0.1408263318        1.9746910877
 H          0.8226765081       -1.4600535419       -2.0031419241
 H          1.1720915357       -4.3809941009       -0.5162076548
 H          3.6699773458        3.4550267477       -1.3788598068
 H          5.1609816936        3.1682199776       -0.4957263697
  37
        -73.92437815
 P          0.3911856636       -2.8530794352        0.4146638681
 O         -1.1099566665       -0.5204934285        0.5623722972
 O         -2.7135029830        2.3667082548       -0.8215147976
 O         -4.2596219167        0.3533474071       -0.2129657125
 O         -1.1769053485       -3.2068101351        0.2943820649
 O          0.9999572903       -4.2893869607        0.6803939619
 O          0.6572313233       -2.1465168711        1.7841995488
 O          0.9167109693       -2.1592249293       -0.7715657263
 O          3.6718500773        1.9762379782       -1.5872069112
 N          0.0146268747        1.5375381934        0.5146193570
 N          1.5512446038        3.0061267145        1.1618226992
 N          1.0422017065        0.6416347029       -1.4939060931
 N          4.0526745520        3.5138603802        0.0354285483
 C         -2.0777902167        1.1331677631       -0.7950665729
 C         -3.0498602138       -0.0741947890       -0.7804695067
 C         -1.2515228729        0.8836398513        0.4939028974
 C         -2.3308982136       -1.1062729257        0.1242366073
 C         -1.9750681166       -2.4179709266       -0.5657529155
 C          1.0468684299        1.4337149782       -0.3820551366
 C          0.3899238938        2.4994699928        1.4195221587
 C          1.9970312792        2.3584699551        0.0305712165
 C          3.2935572366        2.5944471557       -0.5790361123
 H         -1.4009705685        1.0838819937       -1.6522668334
 H         -3.1947088401       -0.4675883822       -1.7885147702
 H         -1.8198972565        1.2489128791        1.3656358770
 H         -2.9549334984       -1.3045091605        1.0080027618
 H         -1.4107803508       -2.2008874491       -1.4773873463
 H         -2.8636361110       -3.0097550735       -0.7852559489
 H         -3.5794181845        2.2717092704       -0.3819402215
 H         -5.0064815337       -0.1517553024       -0.5611612662
 H         -0.2353640592        2.7882422948        2.2389896833
 H          1.9505411033        0.6906575826       -1.9480447207
 H          0.7608685538       -0.3201952981       -1.3224137430
 H          1.0879650037       -4.8604219924       -0.0897889351
 H          0.4479738007       -2.6780489029        2.5629084917
 H          3.6779608446        3.9770999867        0.8459097129
 H          4.9668953636        3.7319696994       -0.3217048777
  37
        -73.92425076
 P          0.4960397170       -2.5441161451        0.1177088060
 O         -1.4164974096       -0.5248117092        0.7153385976
 O         -3.5703517111        1.6840122955        1.0848449756
 O         -4.3378592227       -0.0097733034       -0.7741710183
 O         -0.5760460330       -2.6001550887       -1.0849442002
 O          1.3476603622       -3.8240338750       -0.1716535123
 O         -0.2822755083       -2.9689904751        1.4340340304
 O          1.2965353724       -1.3148775362        0.1805612131
 O          4.0045300518        1.9785441510        0.9896794162
 N         -0.0940381486        1.3689715808        0.1301672354
 N          1.2984811319        2.1636161923       -1.4107396087
 N          1.3778500439        1.1970251632        2.0396018693
 N          4.0561522751        2.6311096022       -1.1807808560
 C         -2.5784861410        1.4429557999        0.1367546368
 C         -2.9861074477        0.3288543639       -0.8744349344
 C         -1.2866953600        0.8827625329        0.7756346611
 C         -2.1512658255       -0.8944542762       -0.4465666216
 C         -1.1972979887       -1.4094553588       -1.5242782274
 C          1.1388200532        1.4568389152        0.7235607362
 C          0.0827032884        1.7957175740       -1.1657639615
 C          1.9943010606        1.9688056986       -0.2393301124
 C          3.4209001581        2.1893758613       -0.0851237926
 H         -2.3854415337        2.4029458563       -0.3449249979
 H         -2.7272714946        0.6231821690       -1.8981584018
 H         -1.2193000326        1.1523759601        1.8356376870
 H         -2.8211281904       -1.7113621220       -0.1556441181
 H         -0.4286016993       -0.6594594091       -1.7337988426
 H         -1.7402825718       -1.6720480047       -2.4331949102
 H         -3.9823723451        0.8462976453        1.3542904950
 H         -4.8925349008        0.7243536430       -1.0785038070
 H         -0.7083503842        1.8351296642       -1.8848464428
 H          2.3757986176        1.2492139847        2.2235200810
 H          0.9623178058        0.3424301575        2.3828442889
 H          0.8618125193       -4.6583917088       -0.1817212299
 H         -0.8059254889       -2.2679305418        1.8355028211
 H          3.5257343429        2.7534551323       -2.0263169901
 H          5.0520886355        2.7683113763       -1.1613503157
  37
        -73.92409494
 P          0.6388698048       -2.2919663393       -0.2040829364
 O         -1.3475732122       -0.4410324355        0.7814309253
 O         -3.2419367934        2.2723740712       -0.5391294396
 O         -4.3906176316        0.1467929648        0.6851577334
 O         -0.8312826606       -2.8950766351       -0.4912415715
 O          1.5352671556       -3.5734843739       -0.4429070556
 O          0.7843681640       -2.1044974071        1.3462189047
 O          0.9541001967       -1.1195251463       -1.0296665910
 O          3.8622437613        1.5053720900        1.3329457986
 N         -0.1401194815        1.4078043596       -0.0373636055
 N          1.4672990346        2.3344672660       -1.2556777006
 N          1.0550080246        0.8612003715        1.9849637707
 N          4.1960989908        2.5454785175       -0.6543365406
 C         -2.5566797992        1.0660159013       -0.6137711170
 C         -3.4362105363       -0.1649463498       -0.2891094378
 C         -1.4170789417        0.9343060220        0.4230935337
 C         -2.3948494698       -1.1896245434        0.1649430866
 C         -1.8266805533       -2.0237303340       -0.9849709095
 C          1.0081166672        1.3173773455        0.7026813616
 C          0.2126748708        2.0241494678       -1.2124518452
 C          2.0057060277        1.8977267409       -0.0647859165
 C          3.4142748939        1.9635834216        0.2686124285
 H         -2.1435651156        0.9635097144       -1.6208326194
 H         -3.9977624702       -0.5000135770       -1.1620830275
 H         -1.6622178178        1.5077461189        1.3335519321
 H         -2.7863198640       -1.8686857758        0.9299912657
 H         -1.3807043775       -1.3631854015       -1.7341637001
 H         -2.5964893825       -2.6556329733       -1.4286684725
 H         -4.0453356924        2.1395312292       -0.0007920924
 H         -3.9785461825        0.2167773361        1.5595139844
 H         -0.4876893548        2.2634067976       -1.9844934747
 H          2.0173322772        0.7446270743        2.2848754386
 H          0.4680535580        0.0592322243        2.1691501299
 H          1.7115209481       -3.7977211880       -1.3618429981
 H          0.8156674959       -2.9333532289        1.8417326816
 H          3.7672357519        2.8661698411       -1.5055322204
 H          5.1904449400        2.5940141244       -0.5137856999
  37
        -73.92405044
 P          0.2757102370       -2.4219730050        0.2658945343
 O         -1.2579200696       -0.3673907311        0.9204514827
 O         -3.0598379783        2.0538786327       -0.6983260650
 O         -4.0486588350       -0.3144177406       -1.2895143491
 O         -1.0619471682       -2.8790560249        1.0301645197
 O          1.1418868655       -3.7493139674        0.3491959955
 O          1.1173410203       -1.4769557292        1.1877919902
 O          0.0418188835       -1.9348965002       -1.1055207390
 O          3.7098769460        1.6528218423       -1.5814165621
 N          0.0264635595        1.5418993190        0.5123802456
 N          1.7707150744        2.6742042744        1.3016646409
 N          0.9281648831        0.7469718171       -1.6047007594
 N          4.3285795850        2.9077147932        0.2029540151
 C         -2.0678450158        1.0660360750       -0.8081360892
 C         -2.7074970681       -0.3501622576       -0.9269168275
 C         -1.2907085300        0.9948417395        0.5283935526
 C         -2.4660879596       -0.9508030799        0.4810332302
 C         -2.3219669771       -2.4801889220        0.5251507820
 C          1.0389775780        1.3769340830       -0.4003024415
 C          0.5472069166        2.3217279428        1.5192301054
 C          2.1147787922        2.0998536329        0.0980553491
 C          3.4338921103        2.1994780656       -0.5011081893
 H         -1.3826066633        1.2639343498       -1.6317836506
 H         -2.1749789014       -0.9457263278       -1.6721175272
 H         -1.8697054413        1.5666653103        1.2740709044
 H         -3.2847179021       -0.6275114795        1.1414538359
 H         -2.4596499631       -2.8814008653       -0.4823700680
 H         -3.0507694387       -2.9241200388        1.2032129636
 H         -3.1879501960        2.4994209523       -1.5472608086
 H         -4.4463117445        0.4879035362       -0.9016636672
 H         -0.0287933113        2.6025545181        2.3766015940
 H          1.8386667403        0.7211443540       -2.0570277249
 H          0.4909457696       -0.1703825574       -1.5698711608
 H          0.9230010483       -4.4436523256       -0.2800129969
 H          1.3994897953       -1.8811750173        2.0176582131
 H          4.0345077616        3.3208115124        1.0717284069
 H          5.2678035282        3.0137091381       -0.1400552696
  37
        -73.92392587
 P          0.2014602612       -2.2168918376       -0.3955135936
 O         -1.1711763518       -0.1843731283        1.0869869987
 O         -2.9988629857        1.8527669919       -1.0639949833
 O         -4.3172240700       -0.3375832241       -0.4536024481
 O         -1.2245093623       -2.8701690067       -0.0199527158
 O          0.8559680177       -3.4486238211       -1.1242124507
 O          0.9840813518       -2.0765255717        0.9610832371
 O          0.1612408915       -1.0490526541       -1.2893856099
 O          4.0329920518        1.4866968514        1.3483531281
 N          0.0205020278        1.5355770421        0.0694515447
 N          1.5770735265        2.6700208190       -1.0347112152
 N          1.3854970754        0.4477842845        1.7790555008
 N          4.3278547833        2.8352383001       -0.4519560358
 C         -2.1524055618        0.7593155556       -0.8532267823
 C         -2.9362643523       -0.5308904318       -0.4765057832
 C         -1.2855830753        1.0316783591        0.3936918281
 C         -2.3683981108       -0.9243033835        0.9056949439
 C         -2.0317052225       -2.4021743031        1.0425375360
 C          1.2037338328        1.2849876957        0.7035099263
 C          0.3180753531        2.3756592023       -0.9721045664
 C          2.1683090967        1.9944012410        0.0060963662
 C          3.5788284423        2.0731833658        0.3529651197
 H         -1.4964361849        0.5637189493       -1.7057711459
 H         -2.7296587023       -1.3246772636       -1.1982190499
 H         -1.8167620929        1.7758511041        1.0190778091
 H         -3.0942519408       -0.6473932204        1.6844319214
 H         -2.9446851290       -2.9986468622        1.0042972040
 H         -1.5072287277       -2.5560947463        1.9894081753
 H         -3.4331101858        1.7685687507       -1.9264709400
 H         -4.5014830480        0.5851171258       -0.2006285672
 H         -0.4318574176        2.7648316878       -1.6277169196
 H          2.3252584166        0.5715843157        2.1533841394
 H          0.6432144775        0.4561241072        2.4657176592
 H          0.9496227645       -4.2492163587       -0.5931657116
 H          1.1971902983       -1.1398540844        1.2448368529
 H          3.8863127932        3.2751302993       -1.2416140437
 H          5.3127858227        2.9381928243       -0.2758481207
  37
        -73.92388575
 P          0.1672591580       -2.1641709892       -0.5128313592
 O         -1.1062061610       -0.3070355755        0.9960551738
 O         -3.0446769058        1.8861240847       -0.9758633524
 O         -4.3251367727       -0.3068304597       -0.2989530787
 O         -1.1698821334       -2.9149749526       -0.0170646649
 O          0.8989766894       -3.4138738828       -1.1563270490
 O          1.0709028461       -1.8666361025        0.7384459965
 O         -0.0367537619       -1.0627780418       -1.4659827766
 O          4.0198742986        1.5880825756        1.5392526791
 N          0.0583469812        1.4785858420        0.0573651277
 N          1.6861870308        2.4567446515       -1.0927910723
 N          1.2187682845        0.9148249072        2.1035238268
 N          4.3930190122        2.6915436824       -0.4065876613
 C         -2.1951408485        0.7980766526       -0.8006271726
 C         -2.9538366899       -0.5221189903       -0.4726876754
 C         -1.2362812458        0.9714132222        0.4051382474
 C         -2.3472801699       -0.9732981763        0.8658810238
 C         -2.0742312019       -2.4644186857        0.9721441857
 C          1.1849472853        1.3833129077        0.8289741233
 C          0.4334403514        2.1360171588       -1.0886280045
 C          2.1981027327        1.9907929622        0.0994169985
 C          3.5947582044        2.0721284700        0.4768592890
 H         -1.6067067896        0.6706486167       -1.7100732282
 H         -2.7481189587       -1.2691957104       -1.2436059171
 H         -1.7053351196        1.6559036427        1.1372044572
 H         -3.0301319311       -0.6649468690        1.6717733946
 H         -2.9950278162       -3.0305693805        0.8193167797
 H         -1.6609970278       -2.6751284159        1.9620195800
 H         -3.8438021718        1.7465902135       -0.4329687939
 H         -4.7770468987       -0.3254152123       -1.1553204398
 H         -0.2571172215        2.3858533377       -1.8660175037
 H          2.1734870308        0.7926504037        2.4223865554
 H          0.5898112226        0.1505872374        2.2999563136
 H          0.6520847972       -3.6050103909       -2.0660953340
 H          1.5634363773       -2.6403310956        1.0429447935
 H          3.9808404730        3.0463045528       -1.2524115459
 H          5.3789099820        2.7703078937       -0.2263604191
  37
        -73.92367120
 P         -0.1146291386       -2.7439505028       -0.6604300869
 O         -0.9934629900       -0.7165991857        1.1606091624
 O         -2.3104633787        2.0370154774       -0.6120977700
 O         -3.9970354508        0.0661758534       -0.4210915256
 O         -1.6320705953       -3.1527315242       -0.3059275731
 O          0.2853427974       -4.0131940935       -1.5148612793
 O          0.7404864126       -2.9192036395        0.6445338118
 O          0.0458598857       -1.4714929888       -1.3797953174
 O          2.8940926677        4.3840920125       -0.2207102904
 N          0.5088441722        1.0065267659        0.6877780068
 N          2.7216205539        0.8762972525        0.6736467055
 N          0.1759506948        3.3666911549        0.2790524149
 N          4.5754688014        2.9025832100        0.1309978268
 C         -1.6699760538        0.8019745504       -0.5276285293
 C         -2.6727993957       -0.3854876688       -0.4826691732
 C         -0.8707250447        0.6351858259        0.7971951504
 C         -2.3180996959       -1.1021109057        0.8337563414
 C         -2.3780383650       -2.6184624063        0.7703412779
 C          0.9615485741        2.2659051946        0.3964795595
 C          1.6199811521        0.2182274541        0.8402716969
 C          2.3477893488        2.1743335667        0.3908316888
 C          3.2773281621        3.2411217455        0.0808320868
 H         -0.9823328858        0.7005847866       -1.3713035541
 H         -2.4986970481       -1.0545833250       -1.3265674017
 H         -1.3434299278        1.2743456018        1.5683779982
 H         -3.0117600848       -0.7456411399        1.6109926449
 H         -3.4057750843       -2.9480911371        0.6074863079
 H         -1.9957442967       -3.0120292594        1.7155619585
 H         -3.2289387488        1.9219801139       -0.2953585838
 H         -4.3920889457        0.0876667608       -1.3046386289
 H          1.5448635103       -0.8214010322        1.0707346147
 H          0.6970182710        4.1634679741       -0.0664656787
 H         -0.7508901818        3.2384655188       -0.1054907850
 H          0.0931039345       -3.9513143014       -2.4554007076
 H          0.9264586731       -3.8397051897        0.8738090985
 H          4.8091428392        1.9537477900        0.3681305066
 H          5.2824792703        3.5817545261       -0.0910508005
  37
        -73.92363970
 P          0.2835597538       -2.4398611264        0.2802254327
 O         -1.2577197816       -0.3669514521        0.9101439008
 O         -3.0772723605        2.0721272328       -0.7117228557
 O         -4.0388257204       -0.2977442119       -1.2474127058
 O         -1.0723764601       -2.8776533452        1.0258635930
 O          1.1408232104       -3.7697426099        0.3935308048
 O          1.1147238499       -1.4852845427        1.1999289769
 O          0.0639772883       -1.9705807855       -1.0999373136
 O          3.7071706482        1.6497412118       -1.5781626261
 N          0.0287013361        1.5474931851        0.5252026351
 N          1.7652282575        2.7087236227        1.2894149931
 N          0.9322954778        0.7259009168       -1.5811847455
 N          4.3161876961        2.9488130453        0.1776288804
 C         -2.0784244905        1.0985280632       -0.7926264875
 C         -2.6731430470       -0.3315791608       -0.9552498188
 C         -1.2899337431        1.0048476857        0.5427117550
 C         -2.4550407511       -0.9462331826        0.4422416215
 C         -2.3117555342       -2.4771127657        0.4744990907
 C          1.0379420210        1.3790407227       -0.3895011168
 C          0.5450474085        2.3497396806        1.5158315793
 C          2.1104209087        2.1172697188        0.0942696526
 C          3.4266782853        2.2175829516       -0.5097501424
 H         -1.4017602415        1.3592551215       -1.6105771878
 H         -2.0963072016       -0.8956546665       -1.6920361755
 H         -1.8564594915        1.5656937298        1.3050950909
 H         -3.2924369087       -0.6297513761        1.0817986023
 H         -2.4031704930       -2.8701559728       -0.5411269440
 H         -3.0676253872       -2.9275660863        1.1173530870
 H         -3.9417796212        1.6140331851       -0.7031179580
 H         -4.1781284967       -0.2543037031       -2.2050202194
 H         -0.0310323232        2.6409733425        2.3697469338
 H          1.8429451009        0.6956481007       -2.0325411565
 H          0.4934696256       -0.1894362148       -1.5346715261
 H          0.9298059674       -4.4719552559       -0.2296463860
 H          1.3837095403       -1.8778645847        2.0395083700
 H          4.0174996113        3.3819884397        1.0349457791
 H          5.2517319585        3.0623453634       -0.1729021400
  37
        -73.92362196
 P          0.3351320628       -2.4195830236       -0.0708031840
 O         -1.1154404961       -0.3197309862        0.9015717883
 O         -3.0230704627        1.9164601752       -0.9989741976
 O         -4.4077867787       -0.2344882686       -0.3263052668
 O         -1.2191903765       -2.8310303272       -0.1796279584
 O          0.5741048062       -1.2304558741       -1.0761982953
 O          1.0126150941       -3.6060606951       -0.8723171068
 O          0.8146734069       -2.2456989158        1.3083389755
 O          4.0759739878        1.6604318219        1.1258906598
 N         -0.0060095156        1.5222612600       -0.0080778824
 N          1.4572514492        2.7782663318       -1.1115202528
 N          1.3859663393        0.6900981971        1.7971883649
 N          4.1984016413        3.0493370350       -0.6623726845
 C         -2.2262986422        0.7793505007       -0.8571946870
 C         -3.0459153823       -0.4895338002       -0.4711908012
 C         -1.2780648349        0.9643417528        0.3476915687
 C         -2.3694181346       -0.9766446472        0.8340373601
 C         -2.0894300616       -2.4724034156        0.8743158177
 C          1.1929240067        1.3661214666        0.6362311312
 C          0.2251621176        2.3912731579       -1.0487630756
 C          2.1011958354        2.1494950912       -0.0693236372
 C          3.5229663097        2.2631990883        0.1909640732
 H         -1.6253812988        0.5855419099       -1.7526428036
 H         -2.9582544984       -1.2604601294       -1.2401112909
 H         -1.7737571394        1.6264474284        1.0833970944
 H         -2.9890797860       -0.6950514132        1.6973022245
 H         -3.0065639028       -3.0438943149        0.7321361945
 H         -1.6161536242       -2.7141119408        1.8294171126
 H         -3.6052001001        1.8141540501       -1.7687466310
 H         -4.5356834246        0.6141129729        0.1298059421
 H         -0.5532515521        2.7293037698       -1.6993484835
 H          2.3764670365        0.6099074663        2.0040809596
 H          0.8756632525       -0.1784105004        1.8955059855
 H          0.8109456966       -1.5493327747       -1.9564660718
 H          1.1225304296       -4.4310445706       -0.3885783889
 H          3.6849557744        3.5133951876       -1.3921448976
 H          5.1881989684        3.1818162328       -0.5468387916
  37
        -73.92361458
 P          0.1552389365       -2.0885725167       -0.5765700979
 O         -1.0939606861       -0.3220437117        0.9810905605
 O         -3.1255242915        1.9015825427       -0.7096421362
 O         -4.3496381223       -0.3989593330       -0.3800221140
 O         -1.0886748778       -2.9101723167        0.0293122688
 O          0.9174472731       -3.3172293066       -1.2274969649
 O          1.1419659971       -1.6918934093        0.5821196924
 O         -0.1759384326       -1.0378241344       -1.5515940078
 O          3.9463178510        1.6818834012        1.7020550167
 N          0.0758974962        1.4258492749        0.0085096790
 N          1.7893082837        2.2191857848       -1.1589605888
 N          1.1031763298        1.1025985841        2.1718017447
 N          4.4563468497        2.5144198538       -0.3449073054
 C         -2.2427248145        0.8161234770       -0.7623616287
 C         -2.9654859161       -0.5308467385       -0.4575183245
 C         -1.2245593327        0.9555577383        0.3857196484
 C         -2.3356007042       -0.9905193181        0.8751116776
 C         -2.0530428408       -2.4807376672        0.9703363837
 C          1.1568443134        1.4157449166        0.8508038851
 C          0.5332341908        1.9149703911       -1.1901486439
 C          2.2215944051        1.9123808311        0.1135259339
 C          3.5954757666        2.0269338905        0.5615842008
 H         -1.7218666442        0.7437693811       -1.7167698738
 H         -2.7474456964       -1.2594689840       -1.2412195246
 H         -1.6523290747        1.6538650166        1.1296636912
 H         -2.9966021446       -0.6924610335        1.7026577694
 H         -2.9628279285       -3.0472079677        0.7596024978
 H         -1.6879759076       -2.7128712898        1.9748365141
 H         -3.5712491318        2.0098749091       -1.5628697172
 H         -4.5565251916        0.4874412922       -0.0303803800
 H         -0.0892341803        2.0510134116       -2.0478589108
 H          2.0337157519        1.0205918229        2.5661379043
 H          0.4594815903        0.3647157957        2.4162292040
 H          0.5897136146       -3.5891331094       -2.0898637048
 H          1.6776072701       -2.4337935537        0.8918318365
 H          4.1033084233        2.7563911008       -1.2548199950
 H          5.4315575890        2.6026262583       -0.1169343889
  37
        -73.92333023
 P          0.5775482310       -2.2188273818       -0.3178935635
 O         -1.2932870014       -0.4865366773        0.7310297344
 O         -3.2385738960        2.1898687398       -0.6008669570
 O         -4.3114925343        0.1755755727        0.7741706127
 O         -0.8683076249       -2.9390883590       -0.3258165739
 O          1.5198172092       -3.4643903668       -0.5959505808
 O          0.9612642739       -1.8945957501        1.1674071534
 O          0.6921194767       -1.1200746246       -1.2861154435
 O          3.8191161966        1.6097882273        1.5240084933
 N         -0.1080192492        1.3776135730       -0.0343824703
 N          1.5686296484        2.1640754933       -1.2594049673
 N          0.9784288871        1.0249295122        2.0859726534
 N          4.2625431500        2.4502141960       -0.5350117148
 C         -2.5134415481        1.0007301771       -0.6547017694
 C         -3.4306229766       -0.1739781424       -0.2530415521
 C         -1.3892197026        0.8901569673        0.3931667474
 C         -2.4309126636       -1.2086115063        0.2702392506
 C         -1.9755036941       -2.2035675836       -0.8000142000
 C          1.0029137013        1.3544315596        0.7667882217
 C          0.3135197130        1.8554616043       -1.2515342203
 C          2.0413023890        1.8570103494       -0.0019778422
 C          3.4310829862        1.9600596355        0.3975978668
 H         -2.1050923800        0.8056581623       -1.6531351385
 H         -3.9856949964       -0.5561461606       -1.1196087672
 H         -1.6806679982        1.4462809124        1.3013960872
 H         -2.8462497563       -1.7432712107        1.1310789768
 H         -1.6770134636       -1.6582077943       -1.7003665087
 H         -2.7581511432       -2.9283764558       -1.0233669808
 H         -2.7116602928        2.9354733420       -0.9185959746
 H         -4.6976800327        1.0430479465        0.5667832831
 H         -0.3299992047        1.9760074355       -2.0969524498
 H          1.9193594415        0.9362625256        2.4538547212
 H          0.3636950422        0.2581916255        2.3196831538
 H          1.5766377091       -3.7526265874       -1.5123265614
 H          1.0847790077       -2.6846139732        1.7096229209
 H          3.8839953596        2.6760461097       -1.4388583058
 H          5.2486473213        2.5091490970       -0.3476504571
  37
        -73.92326079
 P          0.3595784243       -2.9505134653        0.5031011269
 O         -1.0991958541       -0.4947620526        0.6087788266
 O         -2.7665623599        2.3770816028       -0.5971874459
 O         -4.2568373254        0.2331175224       -0.3625990679
 O         -1.1820175882       -3.2493055244        0.1486216942
 O          0.9617138169       -4.3879632158        0.6323733146
 O          0.3932131734       -2.4511769450        2.0040549906
 O          1.0479549500       -2.1246516738       -0.4999352135
 O          3.6187254729        2.0262576582       -1.6977329750
 N          0.0449707718        1.5575005581        0.5323224122
 N          1.5707746420        3.0679906652        1.1017071591
 N          1.0270425292        0.6319095579       -1.4837241067
 N          4.0300804810        3.5988766552       -0.1159443905
 C         -2.0441479389        1.1914550338       -0.7548450469
 C         -2.9732569986       -0.0484385084       -0.8379079884
 C         -1.2280295390        0.9110474132        0.5251103725
 C         -2.2713340278       -1.0959666465        0.0557138543
 C         -1.8566848053       -2.3494188662       -0.7057257925
 C          1.0569379178        1.4511368257       -0.3903617342
 C          0.4254695135        2.5505489990        1.4033606071
 C          1.9990177501        2.4018253020       -0.0252079007
 C          3.2698703875        2.6532054183       -0.6852939668
 H         -1.3602553173        1.2172112425       -1.6059528493
 H         -3.0527734256       -0.4176683135       -1.8666185089
 H         -1.7930299141        1.2945723381        1.3903384259
 H         -2.9471798111       -1.3705419230        0.8765715947
 H         -1.1923412736       -2.0716144772       -1.5290693856
 H         -2.7359601671       -2.8759818576       -1.0774088690
 H         -2.8861905267        2.8236380707       -1.4476194863
 H         -4.3030626901        1.1885258082       -0.1617606796
 H         -0.1842141266        2.8501289812        2.2304595135
 H          1.9176091301        0.6872506686       -1.9715844326
 H          0.7811913426       -0.3317721233       -1.2739790376
 H          0.5445381452       -4.9626338495        1.2869864058
 H          0.0983903977       -1.5439753359        2.1261279311
 H          3.6807993406        4.0653718964        0.7041097338
 H          4.9285402286        3.8245880350       -0.5071366485
  37
        -73.92325185
 P          0.2737625564       -2.9709626138        0.7054987684
 O         -1.0587385562       -0.4429019921        0.6573392508
 O         -3.3582497710        1.8767223571        0.3414475223
 O         -3.7487566363        0.1073458000       -1.5888302031
 O         -1.1996120055       -3.1598496702        0.0817711029
 O          0.7751673310       -4.4454903074        0.8520017950
 O          0.0731781805       -2.5477597179        2.2160181256
 O          1.1633590771       -2.1398980036       -0.1193960064
 O          3.4661799663        1.9514858151       -1.9424753559
 N          0.1211562243        1.5935614022        0.6322132602
 N          1.6650675649        3.1575804088        0.9586209325
 N          0.9407171829        0.5367792679       -1.3936667959
 N          4.0028525101        3.6219650758       -0.5052340624
 C         -2.1831841412        1.4565450602       -0.2861519379
 C         -2.4230983532        0.2027087844       -1.1613319990
 C         -1.1613937986        0.9659401986        0.7722907404
 C         -2.0996479484       -0.9325366823       -0.1789395857
 C         -1.6418621143       -2.2111821283       -0.8672703226
 C          1.0440787694        1.4411202315       -0.3718563667
 C          0.5607763329        2.6471355233        1.3966849961
 C          2.0000775228        2.4232925472       -0.1571277445
 C          3.2039273375        2.6392286608       -0.9433468336
 H         -1.7552791850        2.2874907614       -0.8614882672
 H         -1.7038865381        0.1856852946       -1.9843548027
 H         -1.5451136520        1.2326071520        1.7681890457
 H         -2.9867863212       -1.1421922761        0.4356053307
 H         -0.8229900415       -1.9858665995       -1.5558580177
 H         -2.4771308866       -2.6674758800       -1.3997894710
 H         -4.1100628850        1.4375117670       -0.1025948751
 H         -3.8521491478        0.4931387455       -2.4706531004
 H          0.0236392546        2.9921822240        2.2557340735
 H          1.7839044202        0.5819531098       -1.9616364647
 H          0.7687017728       -0.4114862928       -1.0702502910
 H          0.2242163065       -5.0257044227        1.3926260592
 H         -0.1815030073       -1.6291237259        2.3408870784
 H          3.7261040518        4.1355256465        0.3144082382
 H          4.8607161782        3.8258800259       -0.9887459564
  37
        -73.92325056
 P          1.2783269697       -2.0018425186       -0.2050861632
 O         -1.9436299161        0.1061699083        1.2300200352
 O         -3.7601495068        2.1647984141       -0.6422309055
 O         -4.7099981023       -0.2472730357       -0.0127551832
 O         -0.1648883299       -1.8456689400        0.4695186880
 O          1.2917788639       -3.5524338857       -0.5394022102
 O          2.2532902335       -1.8408816945        0.9973887803
 O          1.4824585927       -1.1395855527       -1.3866030407
 O          3.5166624637        0.3791786626        0.9799237964
 N         -0.4657683685        1.5250716209        0.0701421662
 N          1.2601745475        2.2363231890       -1.1349035865
 N          0.6643412201        0.6225615485        1.9973729550
 N          3.9833026547        1.8515554685       -0.6718342653
 C         -2.8114682192        1.1440130167       -0.7165560237
 C         -3.4197292421       -0.2811857251       -0.5369697623
 C         -1.8392780616        1.2881304260        0.4809467926
 C         -2.3929152510       -0.9497559012        0.3950665818
 C         -1.2530248368       -1.5946020380       -0.4061664146
 C          0.6590121079        1.1221377590        0.7402348469
 C         -0.0272960860        2.2020894809       -1.0454792869
 C          1.7345317099        1.5480813334       -0.0400296833
 C          3.1242934125        1.2177860451        0.1269521238
 H         -2.2585128156        1.1812423755       -1.6631007952
 H         -3.4989099491       -0.8090993365       -1.4884466231
 H         -2.1641078791        2.1188768821        1.1239954334
 H         -2.8394935761       -1.6892525836        1.0628906320
 H         -0.9036699963       -0.9369186107       -1.2092933901
 H         -1.5975971877       -2.5347848300       -0.8439815857
 H         -4.4875509204        1.9861835932       -1.2581679911
 H         -4.7177481372        0.2376806333        0.8271872058
 H         -0.6917694785        2.6752876651       -1.7373413107
 H          1.5520672673        0.2446213502        2.2932161421
 H         -0.1575877405        0.1116542045        2.2855298967
 H          1.9915819873       -3.8307019896       -1.1398604824
 H          2.7836719225       -0.9735722507        1.0129520759
 H          3.6080611578        2.4614229139       -1.3796259006
 H          4.9564264965        1.5944920458       -0.6625845305
  37
        -73.92324614
 P          0.5793295304       -2.2338328899       -0.3062478318
 O         -1.2909069508       -0.4853136329        0.7361693976
 O         -3.1422853525        2.2263203638       -0.5665535827
 O         -4.3331085790        0.1999160341        0.7368059223
 O         -0.8679252874       -2.9515784848       -0.3004359873
 O          1.5187268675       -3.4824839949       -0.5789628551
 O          0.9680852944       -1.9008957220        1.1755601103
 O          0.6885312975       -1.1420059584       -1.2829861827
 O          3.8216531599        1.6006481988        1.5013312651
 N         -0.1121152731        1.3780627178       -0.0422398899
 N          1.5507296545        2.2099701284       -1.2546546690
 N          0.9868230165        0.9911471050        2.0671852914
 N          4.2472436308        2.4899757279       -0.5407317977
 C         -2.5065608630        0.9887518878       -0.6670294127
 C         -3.4292188489       -0.1855070166       -0.2592546711
 C         -1.3904562805        0.8856387491        0.3835085806
 C         -2.4294834326       -1.2132241523        0.2830784687
 C         -1.9746670124       -2.2183727222       -0.7784522986
 C          1.0009774016        1.3485541338        0.7547301376
 C          0.2973134247        1.8939259553       -1.2465009004
 C          2.0326703547        1.8739168269       -0.0078359627
 C          3.4238312967        1.9752610977        0.3859491090
 H         -2.0903324272        0.8001671724       -1.6607162627
 H         -3.9802968333       -0.5913153438       -1.1173392004
 H         -1.6894798827        1.4566722448        1.2798093973
 H         -2.8427799850       -1.7405792809        1.1494331874
 H         -1.6755855776       -1.6805924877       -1.6832716758
 H         -2.7583648703       -2.9441750224       -0.9952567839
 H         -3.6435369801        2.4202044605       -1.3729955555
 H         -4.4153113216        1.1715531702        0.7187437892
 H         -0.3579369459        2.0482341088       -2.0766335871
 H          1.9309051191        0.8980047837        2.4260107325
 H          0.3763966211        0.2175745247        2.2890973016
 H          1.5745599724       -3.7763955424       -1.4935873433
 H          1.1012103207       -2.6886209976        1.7187662633
 H          3.8598121194        2.7403025381       -1.4342703730
 H          5.2335730822        2.5545722863       -0.3567440033
  37
        -73.92316419
 P          0.6588226737       -2.2725090107       -0.1886000956
 O         -1.3558942341       -0.4385923861        0.7578321033
 O         -3.2723516190        2.3048637764       -0.1608486362
 O         -4.5075698514        0.0075978793        0.5043615630
 O         -0.8049505346       -2.8718202651       -0.5089330711
 O          1.5544389925       -3.5609785186       -0.3962350918
 O          0.7778120183       -2.0680137093        1.3616728173
 O          0.9997382365       -1.1099971648       -1.0181559305
 O          3.8436109254        1.5394661285        1.3604815054
 N         -0.1398058534        1.3977639734       -0.0600972126
 N          1.4949122920        2.2348584914       -1.3084340165
 N          1.0266876580        0.9394560939        1.9993514991
 N          4.2199267435        2.4535816632       -0.6800267579
 C         -2.5925602237        1.1458733949       -0.5360487472
 C         -3.4335800510       -0.1498430842       -0.3713095462
 C         -1.4138756457        0.9403402263        0.4306873665
 C         -2.3893619091       -1.1721655054        0.1096728439
 C         -1.7865391866       -1.9981632131       -1.0274301715
 C          0.9997418218        1.3365265025        0.6971344294
 C          0.2376980999        1.9355064477       -1.2656916360
 C          2.0125768175        1.8666504612       -0.0861527798
 C          3.4170826827        1.9376373907        0.2638426363
 H         -2.2285709442        1.2025922196       -1.5678323866
 H         -3.8753692399       -0.4658372978       -1.3185324476
 H         -1.6130259496        1.4989653696        1.3609943313
 H         -2.8123128194       -1.8510777866        0.8579648190
 H         -1.3176626045       -1.3298199615       -1.7563558775
 H         -2.5406818611       -2.6280946315       -1.4997135306
 H         -4.0443217583        2.4404279392       -0.7312682080
 H         -4.2248013458        0.4591535740        1.3139127330
 H         -0.4391525456        2.1207717718       -2.0725392201
 H          0.4365042784        0.1467459197        2.2110939771
 H          1.9842333923        0.8373922737        2.3193566368
 H          1.7405971333       -3.7992788187       -1.3098317892
 H          0.7897442603       -2.8900832106        1.8690569603
 H          3.8098330487        2.7219277908       -1.5580633228
 H          5.2128153705        2.4952408144       -0.5271979954
  37
        -73.92305605
 P          0.5027771697       -2.5410565234        0.1212907553
 O         -1.4047966823       -0.5274893782        0.7041923125
 O         -3.5428313755        1.5351446618        1.1709537905
 O         -4.3481633491        0.1643510485       -0.8626514648
 O         -0.6186689098       -2.6434365423       -1.0335254828
 O          1.3466742697       -3.8304987473       -0.1504932153
 O         -0.2180109870       -2.9163141871        1.4840635736
 O          1.3020559205       -1.3098385429        0.0946623455
 O          4.0067518528        1.9549858235        0.9811552139
 N         -0.0984724191        1.3776511298        0.1314122475
 N          1.2886899825        2.1997900457       -1.4003578329
 N          1.3855624420        1.1660813138        2.0283461488
 N          4.0487432689        2.6575473857       -1.1736708602
 C         -2.5859700727        1.4252794805        0.1595839542
 C         -2.9638546508        0.3497261992       -0.8918252526
 C         -1.2864392656        0.8794592243        0.7752174021
 C         -2.1704395976       -0.9013140878       -0.4380728623
 C         -1.2326585538       -1.4626151152       -1.5084936779
 C          1.1372539442        1.4516845749        0.7206048344
 C          0.0735077959        1.8294924782       -1.1565304719
 C          1.9897300632        1.9803432264       -0.2364056054
 C          3.4175427880        2.1927977462       -0.0850240824
 H         -2.4236177240        2.4076871962       -0.3014511538
 H         -2.6250557174        0.6648015023       -1.8835354669
 H         -1.2288571143        1.1416509314        1.8372528185
 H         -2.8547328036       -1.6911463260       -0.1085318133
 H         -0.4587018598       -0.7245980713       -1.7425989318
 H         -1.7751346091       -1.7515154765       -2.4094435582
 H         -4.4001831498        1.2391177357        0.8150147061
 H         -4.6660053260       -0.2448154329       -1.6786885394
 H         -0.7212308724        1.8884887782       -1.8698320292
 H          2.3853709764        1.1989763454        2.2055053953
 H          0.9502162472        0.3216509101        2.3708982349
 H          0.8681294768       -4.6671876614       -0.0918048903
 H         -0.7724164107       -2.2199353840        1.8516339472
 H          3.5139698180        2.8039956105       -2.0125363503
 H          5.0449486284        2.7928616564       -1.1553866188
  37
        -73.92274199
 P          0.0636386309       -2.8899941136       -0.4499414253
 O         -0.9877868145       -0.7236105010        1.0909620725
 O         -2.4116022589        2.0450256840       -0.5967256498
 O         -4.0868731232        0.0959958288       -0.2232322821
 O         -1.5418519504       -3.0266864953       -0.4786070362
 O          0.4048071289       -1.5827572256       -1.2619886535
 O          0.4750141863       -4.0016657461       -1.4986738483
 O          0.6551514890       -3.0365865084        0.8868203273
 O          2.8007313309        4.4266975627       -0.3268384071
 N          0.4479977288        1.0395490931        0.6284539015
 N          2.6620597457        0.9320384026        0.6228515029
 N          0.0947599103        3.3891623819        0.1770371742
 N          4.4957566774        2.9631429853        0.0369122976
 C         -1.7749257100        0.8093635733       -0.5189578445
 C         -2.7825980308       -0.3753592891       -0.4221004431
 C         -0.9223492837        0.6425779846        0.7727167081
 C         -2.3133859044       -1.1483931193        0.8291309639
 C         -2.2849935198       -2.6609655688        0.6654203743
 C          0.8877565912        2.2996368052        0.3191902853
 C          1.5689097845        0.2648725324        0.8055566710
 C          2.2752455819        2.2201062297        0.3126660347
 C          3.1948524301        3.2912710695       -0.0110918353
 H         -1.1203411159        0.7057798672       -1.3883065598
 H         -2.7059698868       -1.0188546551       -1.2996259713
 H         -1.3843682239        1.2443499394        1.5791827124
 H         -2.9694308185       -0.8787449103        1.6701062007
 H         -3.2895325500       -3.0587476796        0.5210951964
 H         -1.8140299823       -3.0880718341        1.5544225744
 H         -3.3014653265        1.9519268399       -0.2018507786
 H         -4.5946750221        0.0637720149       -1.0465712325
 H          1.5025604036       -0.7704249259        1.0651149376
 H          0.6047783695        4.1878378547       -0.1787988567
 H         -0.8431090999        3.2516790110       -0.1751464380
 H          0.6222642971       -1.7757140729       -2.1831435483
 H          0.5129481433       -4.9010300675       -1.1570509179
 H          4.7387302585        2.0251735476        0.3059003563
 H          5.1978067079        3.6513927879       -0.1723678611
  37
        -73.92273313
 P          0.2690467319       -2.9792793848        0.6932838074
 O         -1.0557290336       -0.4412863584        0.6658940961
 O         -3.4174436581        1.7798449492        0.3605162510
 O         -3.6931377270        0.1432316186       -1.7034368491
 O         -1.2072744744       -3.1629194149        0.0765457866
 O          0.7696875562       -4.4550431796        0.8313375009
 O          0.0742710158       -2.5627703094        2.2072559996
 O          1.1582926475       -2.1428887356       -0.1263339290
 O          3.4724156416        1.9461697646       -1.9454730711
 N          0.1244459115        1.5985311346        0.6278681898
 N          1.6753818330        3.1571320278        0.9552790732
 N          0.9429634049        0.5421990085       -1.3973456802
 N          4.0075944374        3.6230713399       -0.5151720065
 C         -2.2004392222        1.4588274558       -0.2567182439
 C         -2.4249708853        0.2146413896       -1.1461532250
 C         -1.1554881051        0.9665569547        0.7847066926
 C         -2.1041775491       -0.9300571780       -0.1649208834
 C         -1.6540427607       -2.2044637559       -0.8617153315
 C          1.0478876719        1.4422992753       -0.3754494605
 C          0.5711055859        2.6488992849        1.3951846017
 C          2.0061659438        2.4238277912       -0.1616018212
 C          3.2096481239        2.6371311138       -0.9488385431
 H         -1.7975954801        2.2933024973       -0.8341107545
 H         -1.6995009546        0.2053079536       -1.9642664384
 H         -1.5164077590        1.2199191351        1.7932706913
 H         -2.9824367070       -1.1410307123        0.4620034500
 H         -0.8414117755       -1.9760308634       -1.5562445640
 H         -2.4931239249       -2.6510283258       -1.3962301372
 H         -3.5110953379        2.7340536034        0.4823888263
 H         -4.3318110658        0.4969603373       -1.0579812428
 H          0.0453091989        2.9896056289        2.2628875118
 H          1.7852319145        0.5795136325       -1.9662835913
 H          0.7478448124       -0.4045578625       -1.0852515301
 H          0.2107143360       -5.0411754465        1.3571831001
 H         -0.1754909670       -1.6429845576        2.3346500550
 H          3.7336437306        4.1372325064        0.3049785193
 H          4.8664349418        3.8232864089       -0.9983946433
  37
        -73.92265764
 P          0.1407782211       -3.2163057638       -0.7588609739
 O         -0.9159465169       -0.8309553860        0.3582030850
 O         -2.4314490069        2.3943797597        0.3443795591
 O         -4.0563013187        0.4150145137        0.6343014926
 O         -1.4470777593       -3.3524929806       -0.5018000982
 O          0.5359047760       -4.7371247343       -0.9567904317
 O          0.8501565000       -2.8857730864        0.5953971901
 O          0.4684301033       -2.3209962195       -1.8776976806
 O          2.7854937595        4.5071836501        1.1062311513
 N          0.4567022401        1.0514231071        0.3720307133
 N          2.5270934536        1.2194871894       -0.3963257291
 N          0.2277352105        3.1122177474        1.6088477104
 N          4.3170393994        3.3540709415       -0.1065698146
 C         -1.9639729328        1.2040565581       -0.2028337996
 C         -3.0414230879        0.0928512334       -0.2765570919
 C         -0.8523091199        0.5389568617        0.6538218095
 C         -2.2760954250       -1.1877688285        0.1382928131
 C         -2.2812690349       -2.2905003880       -0.9151838943
 C          0.9247728009        2.2641070982        0.8036829778
 C          1.4680612079        0.4757295296       -0.3549670487
 C          2.2233468464        2.3565710897        0.3242229319
 C          3.1189498367        3.4861253395        0.4826678656
 H         -1.5546409610        1.4153124851       -1.1969751555
 H         -3.4282261860        0.0010533721       -1.2938833448
 H         -1.0661294139        0.7185554408        1.7232245627
 H         -2.6947790683       -1.5664251460        1.0820792696
 H         -1.8966467488       -1.8842255787       -1.8556852674
 H         -3.2770842147       -2.7147688379       -1.0452654424
 H         -3.2522515937        2.1923404128        0.8358158519
 H         -4.9062550129        0.0468745197        0.3581322264
 H          1.3608735989       -0.4832663160       -0.8167366922
 H          0.7116993946        3.9972255367        1.7105057734
 H         -0.7633749120        3.1874561587        1.4151021217
 H          0.3359366848       -5.1152284665       -1.8192291784
 H          0.7560485376       -3.5614161256        1.2787265893
 H          4.5123670452        2.4993781059       -0.5992992050
 H          4.9905188687        4.0985156536       -0.0517512151
  37
        -73.92264740
 P          0.0969748113       -3.2533279831       -0.7084395325
 O         -0.8720715644       -0.8096079418        0.2394817239
 O         -2.5202597383        2.2376926182        0.8289753229
 O         -4.1653228919        0.3152019315        0.2026412538
 O         -1.4987557263       -3.3438298897       -0.4739849855
 O          0.4553539711       -4.7893283112       -0.8594768563
 O          0.7895509948       -2.9100621404        0.6522093791
 O          0.4727887721       -2.3990049205       -1.8437428425
 O          2.8168667350        4.5170821460        1.1335776909
 N          0.5087349709        1.0574936901        0.3642118801
 N          2.5280541132        1.3004364612       -0.5104384076
 N          0.3256386010        3.0459547528        1.7204895790
 N          4.3008008816        3.4507227313       -0.2108829407
 C         -1.9412169153        1.2967980565       -0.0188305026
 C         -2.9322463049        0.1709450518       -0.4415078447
 C         -0.7831356811        0.5200740830        0.6760975462
 C         -2.2409674468       -1.1183628614        0.0473421936
 C         -2.3000961408       -2.2777098544       -0.9381579016
 C          0.9812944979        2.2553297920        0.8303667712
 C          1.4859482353        0.5350067477       -0.4459455738
 C          2.2483448997        2.3960092696        0.2808028768
 C          3.1333638356        3.5326021211        0.4454372804
 H         -1.5448604209        1.8242137805       -0.8927439164
 H         -3.0374573104        0.1456594448       -1.5281438000
 H         -0.9256763666        0.5801624596        1.7708598697
 H         -2.6916259302       -1.4137428367        1.0069429846
 H         -1.9123985453       -1.9402374237       -1.9041678089
 H         -3.3150945571       -2.6648598731       -1.0299619571
 H         -3.3236198263        1.8391843646        1.2197303203
 H         -4.8047990057        0.7614439387       -0.3717094379
 H          1.3670718521       -0.4059937482       -0.9418241159
 H          0.7871410206        3.9406010655        1.8344410611
 H         -0.6827689140        3.0788180238        1.6504700921
 H          0.2561581936       -5.1852863997       -1.7140328843
 H          0.6688720809       -3.5722230368        1.3447598958
 H          4.4863415951        2.6225786627       -0.7504686676
 H          4.9661983504        4.2019890803       -0.1508455824
  37
        -73.92262773
 P         -0.3752736399       -3.3154831881       -1.0848633832
 O         -1.2686829899        0.4613288607        1.5435747273
 O         -3.4911422528        1.2805752114       -0.2293839350
 O         -2.9613249450       -1.1400772270       -1.0743481555
 O         -0.4927315555       -2.9479366579        0.4849683504
 O         -1.8501689678       -3.6013230708       -1.5649549124
 O          0.2586127634       -4.7437396908       -1.0712892340
 O          0.4010935450       -2.3274090507       -1.8503630700
 O          3.5769088963        3.4411983140        2.0898450843
 N          0.1190839082        1.8483351789        0.2432227304
 N          2.0296887468        2.0424888952       -0.8713152319
 N          0.7111418646        2.8267130654        2.3645167335
 N          4.4808120012        3.0662527902        0.0429918610
 C         -2.1358592158        1.1098918126       -0.5376255579
 C         -1.8712822951       -0.4114284307       -0.5996629615
 C         -1.2370843237        1.5382183420        0.6326321717
 C         -1.4735283211       -0.7646114804        0.8544463126
 C         -0.2151486037       -1.6365681084        0.9238894407
 C          1.0228218824        2.4102231445        1.1110962477
 C          0.8041773227        1.6347054007       -0.9318920370
 C          2.2074055690        2.5387982979        0.4015808083
 C          3.4638748758        3.0530435531        0.9163022675
 H         -1.8680411784        1.6139860314       -1.4695163848
 H         -1.0327992197       -0.6218199793       -1.2684160266
 H         -1.6378417149        2.4070462280        1.1685004222
 H         -2.2930224877       -1.2943526241        1.3549444586
 H          0.1177140935       -1.7173901172        1.9610794012
 H          0.5813243902       -1.1994825655        0.3123897316
 H         -3.7675932087        2.1976990112       -0.3632770084
 H         -3.7785235531       -0.7090365548       -0.7607019254
 H          0.3697121896        1.1798128909       -1.7969666483
 H          1.5358529214        3.1114762527        2.8799132654
 H          0.0471268636        2.2632569123        2.8746488002
 H         -2.4371094635       -2.8233819496       -1.5854043556
 H         -0.2617462635       -5.4242261464       -0.6240389339
 H          4.3219721411        2.7105235988       -0.8842730788
 H          5.3895689443        3.3833851760        0.3340050897
  37
        -73.92262701
 P          0.0817559736       -2.8870150495       -0.4761971262
 O         -0.9981618625       -0.7221812060        1.1107274096
 O         -2.3389714456        2.0058415576       -0.7404006202
 O         -4.0788378604        0.2305703617       -0.0885378674
 O         -1.5263147413       -2.9926830547       -0.5096850172
 O          0.4473841353       -1.5793086353       -1.2744091295
 O          0.4813937344       -3.9980668244       -1.5302447611
 O          0.6621017732       -3.0497464299        0.8633366211
 O          2.7930751001        4.4207032514       -0.3207188905
 N          0.4290648338        1.0376925680        0.6265383209
 N          2.6434854717        0.9332052506        0.6529940174
 N          0.0775707820        3.3819260039        0.1496524852
 N          4.4829459497        2.9607447505        0.0793878609
 C         -1.7761877578        0.7489138299       -0.5449093065
 C         -2.8401264738       -0.3690030779       -0.3598176213
 C         -0.9411742457        0.6366010212        0.7620907169
 C         -2.3211497204       -1.1694940861        0.8605738280
 C         -2.2557695979       -2.6772903639        0.6583002613
 C          0.8717226324        2.2956883024        0.3132635585
 C          1.5484874197        0.2661189772        0.8248993725
 C          2.2591658884        2.2183024512        0.3275931088
 C          3.1826352103        3.2877754581        0.0092325429
 H         -1.1179221367        0.5276283924       -1.3900933796
 H         -2.8780437881       -1.0094103397       -1.2421274927
 H         -1.4193009811        1.2562693980        1.5447343000
 H         -2.9588718597       -0.9377162487        1.7266744208
 H         -3.2486002456       -3.1067797103        0.5267972641
 H         -1.7519836394       -3.1106876651        1.5262272374
 H         -3.2616306971        1.9750832996       -0.4173042969
 H         -4.7998536224       -0.2286326114       -0.5388640280
 H          1.4806958339       -0.7676401713        1.0902339634
 H          0.5927256151        4.1772086843       -0.2068799197
 H         -0.8469829402        3.2312503178       -0.2333372010
 H          0.6442512899       -1.7621051790       -2.2022217240
 H          0.5057716413       -4.9004426389       -1.1949668710
 H          4.7219364550        2.0241167776        0.3565537794
 H          5.1878143134        3.6467998003       -0.1276218795
  37
        -73.92261469
 P         -0.1854930516       -2.7963505718       -0.7567428395
 O         -0.9202276277       -0.7561953260        1.1211349503
 O         -2.2385923948        2.0384158600       -0.5235358069
 O         -4.0034980174        0.0731647948       -0.3960999672
 O         -1.6824857513       -3.1820203759       -0.3113999093
 O          0.1500816027       -4.0759176190       -1.6230508008
 O          0.7476852645       -2.9692947883        0.4948125068
 O         -0.0463883684       -1.5308672863       -1.4927351633
 O          2.8569480368        4.5079626514        0.1494320641
 N          0.5600168037        0.9876352865        0.6304692876
 N          2.7643119134        0.8951253440        0.4260545314
 N          0.1853315282        3.3740780220        0.6483656340
 N          4.5654206158        3.0164626987        0.0891447505
 C         -1.6438960268        0.7709420832       -0.5264793465
 C         -2.6856028962       -0.3783636538       -0.4232729142
 C         -0.8100968743        0.5978962568        0.7663226439
 C         -2.2698465366       -1.1192325829        0.8699165188
 C         -2.3655024736       -2.6332203737        0.7985913962
 C          0.9876322518        2.2855074866        0.5281018078
 C          1.6806011873        0.2004247802        0.5566472486
 C          2.3684758956        2.2171525829        0.4024536070
 C          3.2681061056        3.3371957884        0.2109914847
 H         -0.9910353051        0.6213739143       -1.3920298357
 H         -2.5986373300       -1.0497034522       -1.2793396627
 H         -1.2675880302        1.2308374889        1.5510753243
 H         -2.9020469768       -0.7670837475        1.7000284273
 H         -3.4086375933       -2.9317672183        0.6766205018
 H         -1.9534982289       -3.0463063213        1.7231505791
 H         -2.7062777002        2.1782825851       -1.3615984478
 H         -4.0627139339        0.8690869955        0.1598027731
 H          1.6248165387       -0.8643963083        0.6067928310
 H          0.6742727574        4.2295461748        0.4143918898
 H         -0.7616062454        3.2892685699        0.3045675133
 H         -0.0960896711       -4.0166377716       -2.5509267466
 H          0.9148538434       -3.8885663854        0.7420123414
 H          4.8208943383        2.0450088584        0.1363773624
 H          5.2506243847        3.7361232902       -0.0630258206
  37
        -73.92240904
 P          0.4476018241       -2.3011257315       -0.0153453510
 O         -1.1690396397       -0.2855701696        0.8301575480
 O         -3.5940532039        1.8195291740        0.0385483693
 O         -4.2825468827       -0.5303624123       -0.9204919632
 O         -1.0681058223       -2.7218057248       -0.3681234019
 O          0.8212831266       -1.1045635582       -0.9681152898
 O          1.2455382667       -3.4772500358       -0.7212272284
 O          0.7312605496       -2.1387526878        1.4174816787
 O          3.9908973336        1.6446018081        1.2331150873
 N         -0.0438528212        1.5326847465       -0.0694308563
 N          1.5569057818        2.4038383624       -1.3383025212
 N          1.1933176162        0.9797218695        1.9296776758
 N          4.2947799905        2.5903676308       -0.8056826144
 C         -2.5122674848        1.1411053084       -0.5408320981
 C         -2.9250191758       -0.3445669162       -0.7031741165
 C         -1.3084996654        1.0733783862        0.4358052896
 C         -2.3931946533       -0.9559494144        0.6084210766
 C         -2.0987294269       -2.4475860863        0.5572705660
 C          1.1212848887        1.4310692460        0.6484541373
 C          0.2981992541        2.1153343142       -1.2662798908
 C          2.1112816984        1.9859795341       -0.1497268130
 C          3.5276163697        2.0597340414        0.1589201626
 H         -2.2386740725        1.5759223859       -1.5017389772
 H         -2.3903480876       -0.7992066242       -1.5422392418
 H         -1.5536998438        1.6634160482        1.3371360936
 H         -3.0974763393       -0.7488286248        1.4267589321
 H         -2.9771576580       -2.9962083975        0.2159549437
 H         -1.7863536248       -2.7766393909        1.5516752716
 H         -3.5557677913        2.7670814103       -0.1502979699
 H         -4.7705375382        0.1450893113       -0.4160067681
 H         -0.3985421670        2.3274042565       -2.0487326046
 H          2.1618283642        0.8832407634        2.2177846944
 H          0.6372252559        0.1556086210        2.1209731607
 H          1.0562172651       -1.4207336721       -1.8498479410
 H          1.3064104195       -4.2992154370       -0.2244165358
 H          3.8500686203        2.9059280159       -1.6508654003
 H          5.2881928950        2.6681905105       -0.6719777516
  37
        -73.92234643
 P          1.2596422586       -1.8368276264       -0.3975129675
 O         -1.9201656363        0.2317317123        1.4336233242
 O         -4.2018523132        1.6051152642        0.2389052407
 O         -4.0241130388       -0.6862048675       -1.1563620875
 O         -0.2130331775       -1.2416836059       -0.5052449273
 O          0.9716530134       -3.3945076383       -0.5089531730
 O          1.7221222282       -1.6573808234        1.0993080297
 O          2.1553162890       -1.2831694156       -1.4214265249
 O          3.4136874665        0.2772225047        1.0440616803
 N         -0.5021463169        1.6258887245        0.1890523920
 N          1.1716679183        1.9259938279       -1.2414810242
 N          0.6850652324        0.9620985072        2.1680552748
 N          3.9137627481        1.4499722347       -0.8292018376
 C         -2.9383007981        1.3864934273       -0.3160663852
 C         -2.8310201695       -0.0998919063       -0.7415402939
 C         -1.8313788507        1.4577089056        0.7530330642
 C         -2.3496486537       -0.7952546268        0.5468418602
 C         -1.2439688230       -1.8217619309        0.2994256199
 C          0.6405812129        1.2453946070        0.8444032601
 C         -0.1051684835        2.0122481798       -1.0705298319
 C          1.6805818747        1.4237932726       -0.0642186112
 C          3.0514506161        1.0046192657        0.0849790577
 H         -2.7532334844        2.0641961440       -1.1542247867
 H         -2.0494343668       -0.1886431197       -1.5112693350
 H         -2.0096555875        2.2424506340        1.4992894666
 H         -3.1982485583       -1.3033287684        1.0179719839
 H         -1.6577937253       -2.6819087965       -0.2298100856
 H         -0.8213539784       -2.1459727398        1.2523622847
 H         -4.3304715374        2.5438369299        0.4378851172
 H         -4.4057306970       -0.1875990819       -1.8934408671
 H         -0.7783697196        2.3704504452       -1.8196095827
 H          1.5637752902        0.5695411229        2.4736207998
 H         -0.1467089937        0.5470678430        2.5633397695
 H          1.7543953103       -3.9397737110       -0.6419308801
 H          2.4445583556       -0.9598263842        1.1760123208
 H          3.5297069670        1.9097118748       -1.6388916489
 H          4.8411707057        1.0586264445       -0.8580413674
  37
        -73.92222124
 P         -0.2998975206       -3.4481495868       -0.6889884946
 O         -1.6407815038        0.4177696444        1.6157318734
 O         -1.8892581294        1.3360218500       -1.7574815963
 O         -3.5651799106       -0.2897383085       -0.5547950846
 O         -0.8079676423       -3.0683138261        0.7979250483
 O         -1.5932713027       -3.8755225478       -1.4633881675
 O          0.4428766139       -4.8222238862       -0.4825127914
 O          0.4636411759       -2.3629568677       -1.3210923454
 O          3.1627750891        4.0962549657       -0.9468599029
 N          0.1713097835        1.6887146573        0.8265120779
 N          2.1956169333        1.8430031823        1.7203918529
 N          0.3450888382        3.2563596397       -1.0014109498
 N          4.3853887110        3.3379769674        0.8065924812
 C         -1.3526373190        0.5364041549       -0.7545450233
 C         -2.2280876682       -0.6754234844       -0.3811357112
 C         -1.1992581818        1.2810022310        0.6049692141
 C         -1.8621618058       -0.8885843563        1.0946722315
 C         -0.6088463835       -1.7567193878        1.2790385456
 C          0.8699138383        2.5607825640        0.0365151476
 C          1.0275735256        1.2942407742        1.8226456020
 C          2.1371692915        2.6492920539        0.6035241078
 C          3.2523761667        3.4197850816        0.0912396144
 H         -0.3721555287        0.1875555179       -1.0973360365
 H         -1.9765462019       -1.5415281734       -0.9977751653
 H         -1.8286860808        2.1835876674        0.6158176984
 H         -2.6931985997       -1.3127752830        1.6645155775
 H         -0.3810877317       -1.8385797186        2.3440149178
 H          0.2331623150       -1.2959081057        0.7551096233
 H         -2.8610820359        1.2852258081       -1.7027734656
 H         -4.1503161743       -1.0588178839       -0.5317666065
 H          0.7235938346        0.6207940227        2.5956555004
 H          1.0556916047        3.7417056879       -1.5345963412
 H         -0.4026961299        2.8296176181       -1.5305349832
 H         -1.9886658259       -4.7100592709       -1.1777608747
 H          1.3545476343       -4.7796386882       -0.1741261309
 H          4.3881463175        2.7674448847        1.6345059696
 H          5.2048839450        3.8381060413        0.5085924403
  37
        -73.92217895
 P          0.4168416411       -2.6090261214        0.1728405971
 O         -1.3549690323       -0.5173451641        0.6881721938
 O         -3.5719866539        1.5918879502        1.1215511531
 O         -4.2809208186       -0.0614785135       -0.8048792427
 O         -0.3880531476       -2.4763323738       -1.1967709580
 O          1.2108298757       -3.9481411962       -0.1084154568
 O         -0.6708149260       -3.0885966799        1.2033992529
 O          1.2814249936       -1.4770761512        0.5573603053
 O          4.0364535903        1.9870478790        0.9318201600
 N         -0.0850823292        1.4170471400        0.1312027884
 N          1.2740694179        2.3044528267       -1.3885457168
 N          1.4218037657        1.1239946106        1.9937566802
 N          4.0310590608        2.7634873595       -1.1981106992
 C         -2.5744508682        1.4233168479        0.1637824630
 C         -2.9417839678        0.3279526148       -0.8831188856
 C         -1.2615339754        0.8885484667        0.7788245478
 C         -2.0611522090       -0.8758626906       -0.4891778644
 C         -1.0740798948       -1.2986125746       -1.5753208163
 C          1.1602247915        1.4700675438        0.7032243621
 C          0.0628183524        1.9227022853       -1.1398334435
 C          1.9959578471        2.0376038015       -0.2469309606
 C          3.4247201352        2.2600116153       -0.1125578143
 H         -2.4258262250        2.4069843315       -0.2841916076
 H         -2.6892913601        0.6635618710       -1.8965854697
 H         -1.1870787878        1.1342388288        1.8441693008
 H         -2.6886424754       -1.7359672653       -0.2311209271
 H         -0.3470250697       -0.4990076925       -1.7489167095
 H         -1.5963035595       -1.5502778558       -2.5001480361
 H         -3.8842604690        0.7258098552        1.4296485042
 H         -4.8608696009        0.6808100904       -1.0347472462
 H         -0.7439392333        2.0063994076       -1.8372697923
 H          2.4226837611        1.1582610379        2.1640125675
 H          1.0091409187        0.2436675674        2.2717027491
 H          2.0433564133       -3.8418599620       -0.5789801472
 H         -0.3601216807       -3.2195589277        2.1046822508
 H          3.4730823403        2.9665651706       -2.0097156647
 H          5.0204437573        2.9420635628       -1.1824998603
  37
        -73.92215043
 P          0.0505972882       -2.7991929542        0.1614758136
 O         -1.1106597634       -0.2569187932        1.0624215554
 O         -2.7950178377        1.9383324297       -1.0228978913
 O         -3.9058317130       -0.4179558152       -1.1385587446
 O         -1.5134934213       -3.0730426440        0.2401364627
 O          0.5689923410       -4.2067977796       -0.3144186583
 O          0.4751898511       -2.6411643098        1.6796678483
 O          0.5193976566       -1.7581901656       -0.7649903854
 O          3.8590858398        2.0721254453       -1.5064332868
 N          0.1417086292        1.6630412627        0.4954370127
 N          1.7286940500        3.0232714036        1.2624934939
 N          1.1993193431        0.8616576167       -1.5508602150
 N          4.2712192509        3.4923673766        0.2128871853
 C         -1.8480829037        0.9109589929       -0.8797447575
 C         -2.5673050841       -0.4668163536       -0.7654359163
 C         -1.1442013157        1.0449882796        0.4951982702
 C         -2.3640921172       -0.8249258830        0.7249571506
 C         -2.3844122727       -2.3061189117        1.0509028710
 C          1.1938245240        1.5657544627       -0.3834901330
 C          0.5435311637        2.5528978628        1.4670582861
 C          2.1699779318        2.4269699711        0.1023838289
 C          3.4875464924        2.6452355097       -0.4695194161
 H         -1.1164904925        0.9078882927       -1.6845648853
 H         -2.0639498486       -1.2147990743       -1.3847039379
 H         -1.7978084424        1.6777439053        1.1228867318
 H         -3.1563152239       -0.3348369598        1.3136653003
 H         -3.3827652372       -2.7031133044        0.8591007335
 H         -2.1057263966       -2.4369591687        2.0991821152
 H         -2.6658583691        2.4156514380       -1.8531429266
 H         -4.2081882657        0.5055163225       -1.0359559237
 H         -0.0853557137        2.8145071851        2.2927693420
 H          2.1217760456        0.9149099411       -1.9758166121
 H          0.8621620422       -0.0937851301       -1.4737320220
 H          0.2615208964       -4.9721185104        0.1868487250
 H          1.3254826410       -2.2186161096        1.8294021740
 H          3.9016794688        3.9221949721        1.0439693607
 H          5.2000412920        3.6936232202       -0.1153788899
  37
        -73.92214804
 P          0.3020495348       -3.0140720902        0.5769627020
 O         -0.9683627073       -0.4652628140        0.4508021329
 O         -3.0125336573        2.2954568974       -0.1013505835
 O         -4.2097129935        0.0671201305       -0.8121356562
 O         -1.2035470411       -3.2617144262        0.1073786814
 O          0.8369404953       -4.4898660279        0.7346925656
 O          0.1432813336       -2.4754992891        2.0596848678
 O          1.1390409388       -2.2199494492       -0.3330491038
 O          3.6600522415        2.0136899972       -1.7144788983
 N          0.0864577936        1.6158334624        0.5274715840
 N          1.5844678418        3.1799171426        1.0153163874
 N          1.0789857157        0.6040796098       -1.4366849249
 N          4.0359809654        3.6858478356       -0.2290785210
 C         -2.1159097720        1.3392971584       -0.5875379129
 C         -2.8279896125        0.0085567922       -0.9726950707
 C         -1.1643142684        0.9254426537        0.5624327411
 C         -2.1633391873       -1.0428226051       -0.0477810433
 C         -1.8058542450       -2.3307170609       -0.7718710470
 C          1.0948839282        1.4807244095       -0.3926109840
 C          0.4491442622        2.6571719733        1.3466039452
 C          2.0231026091        2.4646444241       -0.0777468093
 C          3.2927369068        2.6959745990       -0.7448831035
 H         -1.5206248917        1.7170652798       -1.4235890790
 H         -2.6388414576       -0.2446027019       -2.0187899042
 H         -1.6543868608        1.1753934038        1.5181990468
 H         -2.8348393215       -1.2695750843        0.7932473436
 H         -1.1083774245       -2.1025653780       -1.5829897237
 H         -2.7061934097       -2.8113517778       -1.1563291183
 H         -3.3881411199        2.8097975203       -0.8313481398
 H         -4.4161093155        0.6986781281       -0.0988622688
 H         -0.1660669672        2.9856607013        2.1584171297
 H          1.9770210742        0.6120876974       -1.9117619229
 H          0.7791013484       -0.3336998054       -1.1911233896
 H          0.2758278684       -5.0916926089        1.2399322369
 H          0.9350749948       -2.0765005247        2.4323417082
 H          3.6730592306        4.1970464898        0.5575139398
 H          4.9326539854        3.9019558006       -0.6293514066
  37
        -73.92212698
 P         -1.4592358352       -3.9623458678       -0.7975030386
 O         -0.4387757801       -0.2938696166        1.4049667856
 O         -1.9448359711        1.8830551486       -0.9251501792
 O         -3.0206229867       -0.4388003989       -0.3972338054
 O         -0.1635704782       -3.0544205442       -1.0176984878
 O         -1.1162672563       -4.7331999064        0.5456054511
 O         -1.3273615478       -4.9691621132       -1.9876473703
 O         -2.7638130301       -3.2801268914       -0.7884269499
 O          2.6316124837        5.3200593918       -0.0312094895
 N          0.7930662984        1.6231967128        0.8905595463
 N          2.9785874238        1.9074374585        1.1337659126
 N          0.0968479366        3.8348531114        0.2252643310
 N          4.4956125987        4.2094757794        0.6302984577
 C         -1.0428847915        0.8776102869       -0.5942170114
 C         -1.6445726101       -0.5404528779       -0.6382434367
 C         -0.5083029012        0.9959005867        0.8613789738
 C         -0.8967538530       -1.2754631448        0.4849730866
 C          0.2668055565       -2.1137701639       -0.0503373165
 C          1.0472388505        2.9229914418        0.5450969783
 C          1.9993593266        1.0664955993        1.2321394000
 C          2.4191126459        3.0910508213        0.7010618589
 C          3.1744654531        4.2933627295        0.4091656778
 H         -0.1963201924        0.9510138825       -1.2868687950
 H         -1.4603242989       -1.0222753623       -1.6044312873
 H         -1.1957268005        1.6098732301        1.4644478748
 H         -1.5825079438       -1.9308568855        1.0318320316
 H          0.7450407082       -2.6345703648        0.7830739749
 H          0.9984836900       -1.4781640126       -0.5558455769
 H         -2.8446388913        1.5577509608       -0.7400561890
 H         -3.4165718710       -1.3146132596       -0.5369030860
 H          2.0809114663        0.0505892342        1.5561797913
 H          0.4946656496        4.6973140804       -0.1248528973
 H         -0.7375281857        3.5031071326       -0.2389211420
 H         -1.8536566810       -5.1905297627        0.9647498574
 H         -0.4763860787       -5.4155551732       -2.0891615681
 H          4.8660087538        3.3473553191        0.9917860781
 H          5.0868787981        5.0024943439        0.4512757861
  37
        -73.92209003
 P          0.8700160524       -1.9648429478       -0.0419112988
 O         -1.7148087183       -0.1387056740        1.2542505020
 O         -3.8137522316        1.8812140620        0.3940756750
 O         -4.3650502316       -0.3337013063       -0.9554249081
 O         -0.5462747878       -1.7939444309       -0.7651663360
 O          1.8579016964       -1.4584554102       -1.1438109408
 O          1.0139739175       -3.5539605747        0.0007799077
 O          1.0435321606       -1.3422689476        1.2746290844
 O          3.8186310655        1.6651756990        1.1655536363
 N         -0.2483146710        1.2641251424        0.0427231907
 N          1.3593617002        1.4303292279       -1.4815997385
 N          1.0038509274        1.5389421626        2.0834935009
 N          4.1165990486        1.6603055024       -1.0820104742
 C         -2.7149657523        1.3423608973       -0.2829348776
 C         -3.0002036155       -0.1026207267       -0.7629584241
 C         -1.5364137203        1.1380515589        0.6839974620
 C         -2.5032996703       -0.9687239302        0.4120224213
 C         -1.7060386575       -2.1908667240       -0.0429330080
 C          0.9275399671        1.4149094629        0.7295741942
 C          0.0918019398        1.2588991180       -1.2885150103
 C          1.9221100274        1.5304376600       -0.2289741254
 C          3.3481501623        1.6260158243        0.0175379730
 H         -2.4416430730        2.0235997424       -1.0956640592
 H         -2.4098122371       -0.3310627898       -1.6556104099
 H         -1.5719953336        1.8640053038        1.5058205555
 H         -3.3661796885       -1.3160935355        0.9944958737
 H         -2.3129659697       -2.8019343390       -0.7139525677
 H         -1.4140282962       -2.7700966384        0.8342983482
 H         -4.5537036751        1.2471776275        0.3306344003
 H         -4.6413432639       -0.0387579151       -1.8362722633
 H         -0.6198354549        1.1466718497       -2.0786825566
 H          1.9732167815        1.5020728982        2.3829047079
 H          0.4076003789        0.8986658022        2.5908314279
 H          1.8332509289       -1.9507782176       -1.9753771556
 H          1.5770444730       -3.8873279899        0.7072261159
 H          3.6649732242        1.5982316462       -1.9782119616
 H          5.1178580464        1.6873961903       -0.9952258947
  37
        -73.92205433
 P         -1.7196392933       -4.0046644886       -0.7723995905
 O          0.0166316066       -0.4676767906        1.1934080627
 O         -1.8428777059        1.8794993035       -0.7268793488
 O         -2.9038941926       -0.4291354676       -0.1556096766
 O         -0.4145602217       -3.2022473229       -1.2210018829
 O         -1.2240605986       -4.7864454301        0.5151601661
 O         -1.8625532543       -5.0304422422       -1.9447302829
 O         -2.9498534919       -3.2210795207       -0.5691936443
 O          2.4513256308        5.5413711520        0.3020199240
 N          1.0090402718        1.5938568300        0.7901747335
 N          3.1829829088        2.0291417022        0.8047069789
 N          0.0785025684        3.8105434498        0.5900112346
 N          4.4590261201        4.5041923282        0.5022760996
 C         -0.9337398553        0.8400266640       -0.5602141191
 C         -1.5788376333       -0.5587999951       -0.5923262996
 C         -0.2327085273        0.8631297115        0.8253193331
 C         -0.7103929392       -1.3781477834        0.3775172812
 C          0.2585171425       -2.3126009436       -0.3489450901
 C          1.1257092020        2.9492051085        0.6391981108
 C          2.2855055266        1.0991921226        0.8782465539
 C          2.4908808470        3.2118422733        0.6524445648
 C          3.1171138979        4.5077907298        0.4782875143
 H         -0.1721614525        0.9313703129       -1.3430728215
 H         -1.5485610857       -0.9930645318       -1.5978383430
 H         -0.8948061555        1.3458744031        1.5633102328
 H         -1.3539781563       -1.9760519788        1.0335204043
 H          0.8271435125       -2.8802277702        0.3916950818
 H          0.9432664535       -1.7374876508       -0.9771398734
 H         -2.7225038865        1.5548818841       -0.4593125102
 H         -3.3416900274       -1.2918344472       -0.2571912688
 H          2.4783053810        0.0557126052        1.0106782446
 H          0.3730084678        4.7490401609        0.3491252381
 H         -0.7661828377        3.4820604354        0.1403195215
 H         -1.9154445173       -5.1823104821        1.0573870321
 H         -1.0740603846       -5.5387210499       -2.1764134005
 H          4.9321329749        3.6294864688        0.6525311268
 H          4.9663880105        5.3645404031        0.3880418587
  37
        -73.92202786
 P         -1.8733778150       -4.0210368499       -0.7256948762
 O          0.3296160880       -0.5778245821        0.9379525789
 O         -1.8201136221        1.8821391054       -0.5024325895
 O         -2.8140054595       -0.4458684601        0.0653091736
 O         -0.6384386109       -3.2494200061       -1.3787201722
 O         -1.1918563118       -4.8454467437        0.4442254911
 O         -2.2547533500       -5.0146100028       -1.8714483007
 O         -3.0218959446       -3.2022574070       -0.3010234738
 O          2.3494660938        5.6282098242        0.5525629348
 N          1.1524543442        1.5718127762        0.6837017694
 N          3.2926575828        2.1300723084        0.5284919197
 N          0.1033898592        3.7369181288        0.8568031181
 N          4.4124750916        4.6948995094        0.4137730265
 C         -0.9025000196        0.8367058626       -0.5151948155
 C         -1.5572480069       -0.5583523328       -0.5446821205
 C         -0.0368547006        0.7672571862        0.7715634515
 C         -0.5805757045       -1.4362138023        0.2606826184
 C          0.2081679783       -2.4084123873       -0.6168132661
 C          1.1894428866        2.9401045557        0.6922568205
 C          2.4526037296        1.1466141544        0.5769898619
 C          2.5341146200        3.2795252372        0.5982903085
 C          3.0771086423        4.6220196943        0.5270739199
 H         -0.2412109442        0.9751840411       -1.3780405005
 H         -1.6614313838       -0.9355184701       -1.5685846021
 H         -0.6332554574        1.1206566294        1.6304471544
 H         -1.1424628414       -2.0079054032        1.0101259885
 H          0.8572834619       -3.0138806278        0.0202985854
 H          0.8133812841       -1.8573467453       -1.3405781949
 H         -2.6659545701        1.5321026387       -0.1656790677
 H         -3.2569337834       -1.3115785825        0.0114998051
 H          2.7058125552        0.1080094207        0.5560450996
 H          0.3266051731        4.7133559619        0.7067216929
 H         -0.7638340409        3.4142605306        0.4466945814
 H         -1.7909707415       -5.2170187104        1.1010595914
 H         -1.5378749247       -5.5407546842       -2.2493341760
 H          4.9379788006        3.8376228539        0.4023714196
 H          4.8648857558        5.5908684077        0.3578551058
  37
        -73.92201125
 P         -0.4587417188       -3.6096395114       -0.7514580713
 O         -1.4722639319        0.3313926563        1.6324521072
 O         -1.8200571422        1.3935465521       -1.6992153078
 O         -3.4641732249       -0.2857912074       -0.5266304013
 O         -0.7632196949       -3.1665182250        0.7721019421
 O         -1.8618873049       -3.9095613091       -1.3846906554
 O          0.1539076089       -5.0504108408       -0.5872787582
 O          0.3413457106       -2.6164325221       -1.4822130622
 O          3.0510334940        4.4144656257       -0.8198583952
 N          0.2663836310        1.7014644190        0.8472870738
 N          2.3204009300        1.8804362722        1.6639430918
 N          0.2752765547        3.4268590573       -0.8395450858
 N          4.3878854046        3.5678277501        0.8054709481
 C         -1.2608309871        0.5597558025       -0.7375712626
 C         -2.1218996955       -0.6723310719       -0.3977718800
 C         -1.0930414029        1.2512801458        0.6468879055
 C         -1.7240416696       -0.9476853093        1.0595967411
 C         -0.4841140292       -1.8448051733        1.1791036000
 C          0.8842638153        2.6756201054        0.1110002810
 C          1.1866988957        1.2631982936        1.7642575966
 C          2.1702715775        2.7801723562        0.6301104324
 C          3.2214988470        3.6530892102        0.1466596260
 H         -0.2817355259        0.2364310798       -1.1080709435
 H         -1.8801078986       -1.5106074156       -1.0549267861
 H         -1.7526239581        2.1301513419        0.7117486530
 H         -2.5469496759       -1.3867260520        1.6310059486
 H         -0.1783661832       -1.8950488733        2.2263674673
 H          0.3291497240       -1.4353395300        0.5733286886
 H         -2.7903621024        1.3243050343       -1.6351294691
 H         -4.0405280368       -1.0599611293       -0.5737168781
 H          0.9534387651        0.5061120913        2.4823859550
 H          0.9341967087        3.9982980287       -1.3535845507
 H         -0.4610852743        2.9949329397       -1.3812352337
 H         -2.2969882122       -4.7084226847       -1.0574391120
 H          1.0851880781       -5.0974558323       -0.3460116407
 H          4.4550524557        2.9271420321        1.5775486925
 H          5.1666077314        4.1384799978        0.5251011324
  37
        -73.92198034
 P          0.6454307345       -2.0090013227       -1.0860611730
 O         -1.8188662996        0.4093934575        1.5139794597
 O         -3.8835776977        1.6721828092       -0.2792647283
 O         -3.9528581992       -0.8992679497       -0.7738184274
 O          0.1553250712       -1.3746568899        0.3186238513
 O          0.8815958049       -3.5385453709       -0.8109118379
 O          2.0830055883       -1.4195367543       -1.2587830863
 O         -0.3156148674       -1.7995257382       -2.1825763446
 O          3.4654294434        1.6637035235        2.1363035128
 N         -0.2638942959        1.5105301359        0.1650731375
 N          1.6250924856        1.1826509973       -0.9488332694
 N          0.5787185661        2.0165793679        2.3639720770
 N          4.2711150714        1.2190653682        0.0668124083
 C         -2.6248721928        1.1361232062       -0.5676386942
 C         -2.6517065861       -0.4165802028       -0.5692988364
 C         -1.6503999277        1.4465910826        0.5774767325
 C         -2.1883092412       -0.7951038557        0.8532825330
 C         -1.0629180626       -1.8380006064        0.8923723386
 C          0.7556440064        1.6605802508        1.0730948180
 C          0.3275552679        1.2038782963       -1.0290739549
 C          1.9334470475        1.4684192296        0.3655907341
 C          3.2722111808        1.4672795681        0.9268398896
 H         -2.2785660548        1.5544201231       -1.5179027996
 H         -1.9512712575       -0.8092393760       -1.3072579226
 H         -1.9173788878        2.3841651598        1.0791657992
 H         -3.0388965855       -1.2159794540        1.4034410428
 H         -1.4019979008       -2.7395659272        0.3760374016
 H         -0.8383720336       -2.0660221648        1.9371820937
 H         -4.5225083946        0.9334697743       -0.2417958726
 H         -4.0958288246       -1.1049802916       -1.7078148756
 H         -0.2132860620        1.0176895892       -1.9329674955
 H          1.4342422777        1.9499570203        2.9025195934
 H         -0.2695958819        1.7062694273        2.8125750374
 H          1.6681280240       -3.7556175886       -0.2931337834
 H          2.0836324025       -0.4356792208       -1.3628607956
 H          4.0634314167        1.0847073265       -0.9070155021
 H          5.2197808720        1.2031593623        0.4003567684
  37
        -73.92194721
 P         -0.2484652490       -3.3774485177       -0.6674902046
 O         -1.7251700776        0.4614016989        1.5908252095
 O         -1.9678420647        1.3284655063       -1.7699254686
 O         -3.6228854231       -0.3852873144       -0.5625344384
 O         -0.7596525132       -3.0071443452        0.8209295958
 O         -1.5262868558       -3.8390414568       -1.4449253338
 O          0.5323829630       -4.7295610739       -0.4567283982
 O          0.4861465930       -2.2730291084       -1.3011957864
 O          3.2188872500        3.9503046415       -0.9833128595
 N          0.1388140444        1.6763031489        0.8133521210
 N          2.1489350404        1.8149708193        1.7404647628
 N          0.3818649934        3.1833126679       -1.0573125485
 N          4.3901264065        3.2263789376        0.8194172604
 C         -1.3954578371        0.5405692353       -0.7739629245
 C         -2.2652150604       -0.6728969871       -0.3764799535
 C         -1.2375407498        1.3012078964        0.5770368552
 C         -1.8887452103       -0.8656431532        1.0939503180
 C         -0.6057727514       -1.6854155838        1.2888253484
 C          0.8724387060        2.5050204220        0.0080592691
 C          0.9664089550        1.2982339501        1.8403283706
 C          2.1310442917        2.5819648143        0.5954045674
 C          3.2737397292        3.3085119129        0.0788010440
 H         -0.4154595045        0.1926839874       -1.1214525151
 H         -2.0422748040       -1.5406862612       -0.9965571861
 H         -1.8378059457        2.2235405600        0.5684364369
 H         -2.7009504080       -1.3243464668        1.6647344512
 H         -0.3779397312       -1.7505134050        2.3550899928
 H          0.2223965860       -1.2037266814        0.7618171310
 H         -2.9052010949        1.0728087725       -1.8665351116
 H         -3.9437426794        0.1796524548        0.1585898668
 H          0.6323337337        0.6627093477        2.6325959119
 H          1.1117443132        3.6337410945       -1.5948875866
 H         -0.3765205268        2.7716868737       -1.5818298305
 H         -1.9383825247       -4.6536109572       -1.1275717007
 H          1.4403030761       -4.6606346186       -0.1418977638
 H          4.3631272657        2.6860627379        1.6670557774
 H          5.2270365302        3.6966092931        0.5209659727
  37
        -73.92192129
 P          0.1120766689       -3.2234548973       -0.7328010161
 O         -0.8939714343       -0.8093187783        0.2794550192
 O         -2.4710592833        2.2746696455        0.7232932129
 O         -4.2176405337        0.3351916670        0.2519704306
 O         -1.4726833465       -3.3532334083       -0.4508266575
 O          0.5041042749       -4.7484543926       -0.9073293170
 O          0.8358217668       -2.8716096701        0.6093582087
 O          0.4330687348       -2.3508606977       -1.8711872503
 O          2.8665977833        4.4433595667        1.2169195706
 N          0.4757106737        1.0687549021        0.3377926502
 N          2.4827059498        1.3113733916       -0.5654790806
 N          0.3618368793        2.9968370074        1.7854812019
 N          4.3080976344        3.4078410270       -0.1965027079
 C         -1.9655721452        1.2657339166       -0.1007058311
 C         -2.9932301327        0.1288888080       -0.3771088356
 C         -0.8193979262        0.5413335589        0.6475116698
 C         -2.2610660125       -1.1487052277        0.1046109209
 C         -2.3111048412       -2.3034622997       -0.8869729777
 C          0.9835033362        2.2335038529        0.8497149534
 C          1.4263431115        0.5653736491       -0.5166430409
 C          2.2414667992        2.3746277261        0.2806845506
 C          3.1528267373        3.4845673347        0.4809941913
 H         -1.5767213329        1.6710953130       -1.0432028506
 H         -3.2127827720        0.0554106732       -1.4445136095
 H         -0.9848884654        0.6600551581        1.7341325345
 H         -2.6790401531       -1.4714816816        1.0698231583
 H         -1.9565177585       -1.9501866706       -1.8597118054
 H         -3.3192938519       -2.7118823163       -0.9594309185
 H         -3.1807898905        2.7517051037        0.2647432640
 H         -4.0758041926        0.6290909280        1.1673585030
 H          1.2807637210       -0.3511342786       -1.0497464369
 H          0.8432619255        3.8756327427        1.9334200861
 H         -0.6468391699        3.0431847756        1.7459379993
 H          0.2870594931       -5.1436299531       -1.7578994679
 H          0.7484291445       -3.5381906855        1.3027485003
 H          4.4668138558        2.6017119461       -0.7765205249
 H          4.9901323880        4.1419880382       -0.1151738218
  37
        -73.92191683
 P         -0.0367891479       -2.7113862317       -0.5423610364
 O         -1.0961456318       -0.5745958278        1.2612666229
 O         -2.3532220330        1.9810128521       -0.8316156132
 O         -4.0021853734       -0.0127593434       -0.5458384506
 O         -1.5446969078       -3.1094842286       -0.2152199445
 O          0.3493315760       -3.8948573348       -1.5076444733
 O          0.7150965921       -2.9758343078        0.8317674967
 O          0.2195699300       -1.4174470154       -1.1890830196
 O          2.9960955902        4.1152553549       -0.7077555879
 N          0.3920066516        1.1224343078        0.7612216732
 N          2.5890863363        0.9585586070        1.0246001839
 N          0.2143508056        3.3130902508       -0.2493139631
 N          4.5731475633        2.7457231742        0.1758317339
 C         -1.6927827217        0.7792271732       -0.5859033683
 C         -2.6658623553       -0.4322938451       -0.5149760232
 C         -0.9917554907        0.7490546873        0.8012544503
 C         -2.3616685592       -1.0658968026        0.8557344512
 C         -2.3061452211       -2.5852924068        0.8577067753
 C          0.9242214078        2.2573166645        0.2128767953
 C          1.4479910595        0.3855505386        1.2323460386
 C          2.3013858691        2.1435106312        0.3799667821
 C          3.3000253388        3.0799972158       -0.0907756815
 H         -0.9421464972        0.6231189707       -1.3650164189
 H         -2.4347664808       -1.1415094637       -1.3116623331
 H         -1.5335168130        1.4324261738        1.4837983057
 H         -3.1340944469       -0.7307756522        1.5649263806
 H         -3.3066477851       -3.0018724552        0.7308800853
 H         -1.8678421656       -2.9085929439        1.8046038800
 H         -3.2803506202        1.8845487188       -0.5367491128
 H         -4.3514422882       -0.0556945355       -1.4475564954
 H          1.2934366751       -0.5450833723        1.7335718558
 H          0.7945747371        3.9840674626       -0.7364874311
 H         -0.7108194696        3.1474301454       -0.6195421168
 H          0.1570294999       -4.7882156832       -1.1943413070
 H          1.6455821695       -2.7324288129        0.8156744685
 H          4.7475903474        1.8867634060        0.6682826364
 H          5.3236380956        3.3374354023       -0.1355287242
  37
        -73.92190890
 P          1.0922775172       -2.2726348927        0.1692222151
 O         -1.8330678785        0.2839751254        1.3501980137
 O         -4.1383576900        1.6002036305        0.1436053682
 O         -3.8381269168       -0.5300519955       -1.4786424509
 O         -0.2216336331       -1.4769402226       -0.2827683815
 O          2.2333614706       -1.5713874345       -0.6240045340
 O          0.8912084981       -3.6611144483       -0.5672246556
 O          1.2489862288       -2.3959247289        1.6329980990
 O          3.5473232752        0.3890048351        0.3671647193
 N         -0.4479031468        1.7643460889        0.1321165455
 N          1.1334174163        2.5300711218       -1.2323203607
 N          0.8934674573        0.6124983422        1.7701085803
 N          3.9151913237        2.1149359062       -1.0535136242
 C         -2.8556751092        1.4490170306       -0.3964418704
 C         -2.7167418130       -0.0230432689       -0.8375894401
 C         -1.7688180365        1.5251929599        0.6947503088
 C         -2.3826263418       -0.7208145787        0.4997347470
 C         -1.4296231872       -1.9016556558        0.3423731379
 C          0.7360680253        1.2493521095        0.5899993877
 C         -0.1305962247        2.5301351887       -0.9694694838
 C          1.7172804509        1.7204773265       -0.2842269372
 C          3.1135644870        1.3674920921       -0.2964096989
 H         -2.6864183297        2.1382073573       -1.2250899923
 H         -1.8704583930       -0.1336167045       -1.5226355591
 H         -1.9829164368        2.2917541256        1.4519241309
 H         -3.3031072534       -1.0868138996        0.9712427726
 H         -1.9042417028       -2.6641472802       -0.2799732919
 H         -1.1901183413       -2.3206968540        1.3238238773
 H         -4.3436168872        2.5339898710        0.2917463313
 H         -4.6306106239       -0.2031880775       -1.0178099101
 H         -0.8517933421        3.0855036691       -1.5295387330
 H          1.7707526288        0.1244284849        1.8785553998
 H          0.0837425321        0.1457225369        2.1516474384
 H          2.7778917465       -0.8811211233       -0.1309861134
 H          1.4503155129       -4.3725713275       -0.2361512150
 H          3.5047024864        2.8500091487       -1.6055620881
 H          4.8855550732        1.8651093242       -1.1510269138
  37
        -73.92190135
 P          0.1119904210       -3.3682997374       -0.7166063275
 O         -0.8800645542       -0.8139899646        0.4379222360
 O         -2.4184148812        2.4107318428        0.3392030434
 O         -3.9087920438        0.3501037327        0.8506980281
 O         -1.4906174365       -3.3148672425       -0.8796456959
 O          0.4182066593       -4.8632263116       -1.0531829110
 O          0.4108624391       -3.3057352408        0.8381266707
 O          0.8192566522       -2.4056586410       -1.5709314403
 O          2.7444763939        4.5969828589        1.0762905152
 N          0.4684533955        1.1007449022        0.3667422283
 N          2.5090511982        1.3270953490       -0.4655805091
 N          0.2300767543        3.1456621899        1.6286257404
 N          4.2614010411        3.4966372683       -0.2023835682
 C         -1.9525496903        1.2075911768       -0.1794540380
 C         -3.0179850364        0.0916773149       -0.2006343852
 C         -0.8299648218        0.5716388652        0.6795410283
 C         -2.1980665328       -1.1953291175        0.0290923946
 C         -2.0903089298       -2.0801581651       -1.2111286702
 C          0.9226860394        2.3210482035        0.7945321484
 C          1.4688992164        0.5586231418       -0.4023366863
 C          2.2033562584        2.4476331081        0.2774072834
 C          3.0802173955        3.5940879153        0.4255657484
 H         -1.5620342972        1.3934790838       -1.1857945262
 H         -3.5342043103        0.0626504181       -1.1634823940
 H         -1.0286001793        0.7817938978        1.7452421286
 H         -2.6415650551       -1.7807828091        0.8449423424
 H         -1.4810777980       -1.5748216841       -1.9665280411
 H         -3.0770686475       -2.3245255579       -1.6064143307
 H         -3.1893797055        2.2101446874        0.9047449639
 H         -4.7499070390       -0.1076543302        0.7166685783
 H          1.3784802512       -0.3966979181       -0.8765189774
 H         -0.7623617098        3.2217152529        1.4413092127
 H          0.7073331522        4.0341239632        1.7348054788
 H         -0.0089850473       -5.5192438690       -0.4871254893
 H          0.4316179711       -2.4135611488        1.1975379700
 H          4.4615583454        2.6539984929       -0.7138033289
 H          4.9214206197        4.2535768055       -0.1545293990
  37
        -73.92188152
 P          0.2901587288       -2.9611821065        0.5974718827
 O         -0.9743545048       -0.4753496863        0.4513553114
 O         -3.1337520824        2.2204657139        0.0263898576
 O         -4.1209039466        0.0324634134       -1.0037906838
 O         -1.2165841975       -3.2207803200        0.1419308925
 O          0.8036330788       -4.4266772305        0.8981387662
 O          0.1620611894       -2.3686781401        2.0459243002
 O          1.1055183480       -2.2281246524       -0.3917621874
 O          3.6332146201        1.9887646922       -1.7496469411
 N          0.1052082468        1.5895555975        0.5648422262
 N          1.6143543930        3.1525743248        1.0231938685
 N          1.0602258592        0.5787608180       -1.4209870480
 N          4.0386335673        3.6590069915       -0.2702230306
 C         -2.1458863390        1.3844050783       -0.4878748792
 C         -2.7249042483        0.0546108507       -1.0546957348
 C         -1.1536377701        0.9136111179        0.6194874239
 C         -2.1609183007       -1.0128990628       -0.0982968225
 C         -1.8064480443       -2.3244435052       -0.7813851876
 C          1.0927668665        1.4562577596       -0.3772460817
 C          0.4855655017        2.6295878098        1.3766161170
 C          2.0289923753        2.4384154355       -0.0800006724
 C          3.2843097769        2.6702575915       -0.7723529121
 H         -1.5927919514        1.9401550397       -1.2514817794
 H         -2.3449257661       -0.1207532742       -2.0641720865
 H         -1.6005401986        1.1290624036        1.6035898021
 H         -2.8909090087       -1.1973975309        0.7039781221
 H         -1.0949366574       -2.1244661848       -1.5881854925
 H         -2.7026217575       -2.8177306386       -1.1586292968
 H         -3.9518763691        1.6954662891        0.1325115730
 H         -4.4963983050        0.3856419054       -1.8241308856
 H         -0.1127893099        2.9575388154        2.2012006339
 H          1.9490329294        0.5967995112       -1.9134096714
 H          0.7804307297       -0.3630379902       -1.1640422177
 H          1.1121309701       -4.9262715088        0.1348376262
 H          0.9925355294       -2.2550959474        2.5197596822
 H          3.6885009360        4.1729492614        0.5203068873
 H          4.9241882041        3.8797193655       -0.6920843696
  37
        -73.92175462
 P          0.4739718473       -2.5347287502       -0.0171475165
 O         -1.3862455495       -0.6947896752        0.9134138203
 O         -2.5697679108        2.2814623274       -0.7097971182
 O         -4.2130461807        0.4913810766        0.4072374985
 O         -1.0199324649       -3.0994079936       -0.2715736694
 O          1.3272660488       -3.8459728445       -0.2912629808
 O          0.6722172854       -2.3787271292        1.5277127015
 O          0.8174686258       -1.3829281133       -0.8613545109
 O          3.0423184272        3.3471299323       -1.3843594998
 N          0.0847469543        1.0930807365        0.6423281156
 N          2.2059564242        1.0800407210        1.3139273406
 N          0.2700156314        2.5225192476       -1.3300636392
 N          4.3756691612        2.4564796291        0.2191576077
 C         -2.1156728153        0.9748276668       -0.5825076911
 C         -3.2420482673       -0.0666484493       -0.4370325372
 C         -1.2970261329        0.7029541163        0.6967896107
 C         -2.4925701900       -1.2470405704        0.1990459462
 C         -1.9657004908       -2.2293252256       -0.8528490268
 C          0.7706210342        1.8806256571       -0.2443810587
 C          1.0138219805        0.6444256509        1.5521560795
 C          2.0935345033        1.8662792919        0.1873223585
 C          3.1917410538        2.6049455801       -0.3973891266
 H         -1.4940971131        0.7415244714       -1.4507894508
 H         -3.6647012840       -0.3362870741       -1.4091349375
 H         -1.7720213313        1.2164982082        1.5541420608
 H         -3.1038274412       -1.7817128877        0.9346198502
 H         -1.4830628743       -1.6696126345       -1.6593803454
 H         -2.7665916134       -2.8599368098       -1.2402991380
 H         -3.3600399150        2.3912157668       -0.1516463043
 H         -5.0283806685       -0.0288058029        0.3812945259
 H          0.7396210527       -0.0037026737        2.3569614269
 H          0.9574822081        3.1517670278       -1.7302539521
 H         -0.6796222126        2.8642797915       -1.2872692074
 H          1.5150574946       -4.0346342196       -1.2158567074
 H          0.6045506744       -3.2098458437        2.0162127400
 H          4.4251242748        1.8293874325        1.0035535193
 H          5.1892358426        2.9316648584       -0.1312905299
  37
        -73.92175117
 P          0.2159925360       -2.4361979993       -0.8308733049
 O         -2.0349726154        0.2203158563        1.6438734565
 O         -2.1983380890        1.5085832266       -1.6017863619
 O         -4.0640011539       -0.0187722886       -0.5927518556
 O         -0.2140533677       -1.7737934735        0.5556846468
 O          1.2613226379       -3.5641532156       -0.4774251691
 O          1.0355081585       -1.2317584420       -1.4447478402
 O         -0.8969865932       -2.9553994936       -1.6373595131
 O          3.3728635569        3.0139711506       -0.8191942383
 N         -0.0441763350        1.2383510082        0.9353856203
 N          1.9757093525        0.9367567702        1.8007777971
 N          0.4426950187        2.8002633622       -0.8436247940
 N          4.4233329126        1.9383454441        0.8795135401
 C         -1.7593218661        0.5365833031       -0.7081204252
 C         -2.7859011781       -0.5819668503       -0.4449067816
 C         -1.4673317849        1.0973101197        0.7143054183
 C         -2.4845724417       -0.9746335900        1.0104885844
 C         -1.4665800890       -2.1155602537        1.1332668972
 C          0.8132999265        1.9669238671        0.1582374748
 C          0.7199217138        0.6417636915        1.9042556862
 C          2.0769841113        1.7695611402        0.7056777387
 C          3.3240604876        2.2982641708        0.1958532091
 H         -0.8414472313        0.1044569655       -1.1140253917
 H         -2.6330905021       -1.4224944362       -1.1263664175
 H         -1.9357646583        2.0864862198        0.8356901733
 H         -3.3937087176       -1.2713438686        1.5420314216
 H         -1.8691100467       -3.0070039983        0.6457887846
 H         -1.2755370238       -2.3134724415        2.1901310005
 H         -3.1686685490        1.5700652451       -1.5351625650
 H         -4.7307060897       -0.7105455021       -0.6969474918
 H          0.2891686384        0.0188516544        2.6590123466
 H          1.2340086038        3.1397394494       -1.3751686622
 H         -0.4007830798        2.5935852845       -1.3585202728
 H          1.9836980533       -3.3170908950        0.1145212436
 H          1.4568588575       -1.4147585114       -2.2925211595
 H          4.3064428118        1.3828389791        1.7094730674
 H          5.3241316727        2.2872052052        0.6015624983
  37
        -73.92173112
 P          0.0160401238       -2.7951521787        0.1381325665
 O         -1.1037445574       -0.2719871762        1.0560910802
 O         -2.6949423043        1.9353313257       -1.1454437432
 O         -3.9140503334       -0.3675754420       -1.0615633704
 O         -1.5516830141       -3.1042277004        0.2721817670
 O          0.5633909093       -4.2108590303       -0.2303602491
 O          0.5511159164       -2.5414229597        1.6075444617
 O          0.3741622402       -1.8045892836       -0.8878841561
 O          3.9217869273        2.0446923010       -1.4145936385
 N          0.1562951916        1.6517678831        0.4975484907
 N          1.6918136782        3.0846959742        1.2416867149
 N          1.2968240819        0.7905599244       -1.4802685049
 N          4.2524784505        3.5624791462        0.2376443152
 C         -1.8117664752        0.8810046345       -0.9062457703
 C         -2.5510699604       -0.4860581606       -0.7761739901
 C         -1.1268627006        1.0315771307        0.4792579114
 C         -2.3619000672       -0.8277904539        0.7130152313
 C         -2.4161259889       -2.3052906776        1.0574186627
 C          1.2322151418        1.5432758806       -0.3517970880
 C          0.5114765870        2.5994432763        1.4345818838
 C          2.1782606834        2.4455384863        0.1232254041
 C          3.5059772707        2.6636814207       -0.4211645320
 H         -1.0638680074        0.8686597937       -1.7011433939
 H         -2.0552837603       -1.2447505719       -1.3855673335
 H         -1.7865010940        1.6661552577        1.0968300456
 H         -3.1550526214       -0.3161393347        1.2809688974
 H         -3.4213962379       -2.6828317380        0.8611162936
 H         -2.1628164040       -2.4281034674        2.1137354166
 H         -3.6049641105        1.5952241760       -1.0285215757
 H         -4.0784821660       -0.5408607581       -1.9996609533
 H         -0.1457764465        2.8868757646        2.2290530991
 H          0.9212614570       -0.1506360902       -1.4174626338
 H          2.2315865957        0.8316500034       -1.8761803573
 H          0.3827664252       -4.9212804632        0.3977693458
 H          0.6303002850       -1.6159271211        1.8538308846
 H          3.8484348457        4.0307407949        1.0309060065
 H          5.1845021480        3.7694213509       -0.0775422092
  37
        -73.92171573
 P          1.3129341931       -2.1635448626       -0.3916199514
 O         -1.9656994567        0.0258928956        1.2396307834
 O         -3.8166555221        2.1794178786       -0.6294579775
 O         -4.6569574735       -0.2261543382        0.0972993992
 O         -0.0057951962       -1.5110390271        0.2455736012
 O          2.3311894669       -2.0668611074        0.7762740973
 O          1.7376984942       -1.1118215658       -1.5111357783
 O          1.0922135097       -3.5181046620       -0.9255750475
 O          3.3989917261        0.2610068966        1.1072805893
 N         -0.5147222559        1.5833136609        0.2449335789
 N          1.2266560070        2.2880741425       -0.9445331903
 N          0.6107654035        0.5654499887        2.1237394156
 N          3.9542862841        1.7721369290       -0.4839388857
 C         -2.8318042645        1.1979296271       -0.6360084433
 C         -3.4124073523       -0.2436810040       -0.5386287753
 C         -1.8886488448        1.2802352854        0.6047200775
 C         -2.3339103336       -0.9586989253        0.2831575725
 C         -1.1478719131       -1.4080730249       -0.5872129275
 C          0.6017902089        1.1257457243        0.8934760133
 C         -0.0616308813        2.2882851663       -0.8486689629
 C          1.6850819099        1.5443865985        0.1216323623
 C          3.0599997184        1.1530794086        0.2876288516
 H         -2.2507953376        1.3018226157       -1.5562537517
 H         -3.5701240747       -0.6879404131       -1.5213581870
 H         -2.2490877402        2.0366321374        1.3153815434
 H         -2.7133337924       -1.8060528386        0.8571246525
 H         -0.9397815856       -0.6788883506       -1.3761144926
 H         -1.3564538643       -2.3775941549       -1.0478287005
 H         -4.6613079747        1.7639704464       -0.3671515281
 H         -4.5382663184       -0.1188948664        1.0546558636
 H         -0.7167201916        2.8104852773       -1.5142320773
 H          1.4948485882        0.1390292343        2.3643521728
 H         -0.2137568146        0.0444929635        2.3843858305
 H          2.7549752483       -1.1624615119        0.9448616607
 H          2.0823341831       -1.5271852798       -2.3094873436
 H          3.6230010110        2.4501975168       -1.1498394621
 H          4.9208461161        1.4933737023       -0.4534472158
  37
        -73.92171432
 P          0.0409218391       -2.8292964891        0.1525719845
 O         -1.0990384317       -0.2461947972        1.0562219589
 O         -2.7567399929        1.9506343800       -1.0951799128
 O         -3.8990323757       -0.3958791285       -1.0749692376
 O         -1.5271794352       -3.0855642182        0.2446695221
 O          0.5432745138       -4.2484289442       -0.3027728174
 O          0.4777972592       -2.6489112374        1.6637509807
 O          0.4984021963       -1.8054851076       -0.7980451281
 O          3.8909554837        2.0574161960       -1.4502831933
 N          0.1411022014        1.6859878194        0.4971560055
 N          1.6970869335        3.0978651125        1.2359562269
 N          1.2484844078        0.8226376981       -1.4969887002
 N          4.2519954170        3.5574121725        0.2116907834
 C         -1.8389914678        0.9185017952       -0.8881953104
 C         -2.5360723994       -0.4716268903       -0.7776370969
 C         -1.1397802355        1.0600497023        0.4923792658
 C         -2.3464040245       -0.8179939865        0.7104375654
 C         -2.3782781259       -2.2958094780        1.0543215663
 C          1.2066562544        1.5722894393       -0.3626130782
 C          0.5145891422        2.6201283279        1.4381613279
 C          2.1655485576        2.4628541552        0.1071854075
 C          3.4901722047        2.6725148387       -0.4483409910
 H         -1.1009896044        0.9475425541       -1.6921022817
 H         -2.0099834127       -1.2102652026       -1.3875553639
 H         -1.7943740468        1.6877294915        1.1229181857
 H         -3.1489168728       -0.3209312150        1.2793772685
 H         -3.3834241212       -2.6856829491        0.8848451943
 H         -2.0882101386       -2.4107706456        2.1010703445
 H         -3.6552066638        1.5829523537       -0.9746767784
 H         -4.0452315853       -0.5371854684       -2.0216603191
 H         -0.1314375057        2.9060853439        2.2423550586
 H          2.1788824573        0.8623370794       -1.9041753906
 H          0.8889902981       -0.1230777159       -1.4127170953
 H          0.2624622542       -4.9994095514        0.2348757077
 H          1.3139223961       -2.1961017455        1.8026071930
 H          3.8583198310        4.0241688822        1.0110558464
 H          5.1821867076        3.7600825273       -0.1116118933
  37
        -73.92170467
 P          0.2540513207       -2.9834701913        0.6521674878
 O         -0.9693869084       -0.4576360300        0.4957631344
 O         -3.2747451167        2.0183128860        0.2702521866
 O         -3.9491598201        0.0486488752       -1.3336481755
 O         -1.2207027076       -3.1989102792        0.0837802816
 O          0.7196537593       -4.4668608056        0.9417478931
 O          0.0375060520       -2.4314656680        2.1057026401
 O          1.1484543769       -2.2351945284       -0.2543121543
 O          3.6084086090        1.9663172593       -1.7937643561
 N          0.1206597963        1.6076435796        0.5863117505
 N          1.6167295886        3.2047934011        0.9659182089
 N          1.0634126647        0.5379387128       -1.3769803858
 N          4.0168435500        3.6914189076       -0.3794205447
 C         -2.1781223538        1.4288909161       -0.3596483635
 C         -2.5717148016        0.1376888781       -1.1264857305
 C         -1.1378559509        0.9308364541        0.6880593747
 C         -2.1123084240       -0.9692775898       -0.1623982622
 C         -1.7239882470       -2.2656134592       -0.8544568778
 C          1.0961077251        1.4530283795       -0.3650303226
 C          0.4999306385        2.6809903539        1.3545810364
 C          2.0239842062        2.4566004702       -0.1169350579
 C          3.2667970018        2.6775848476       -0.8353570761
 H         -1.7096028490        2.1697893284       -1.0176485359
 H         -1.9991766457        0.0673456160       -2.0551456487
 H         -1.5402723634        1.1327558326        1.6935396572
 H         -2.9064694437       -1.1667732585        0.5727749178
 H         -0.9512397556       -2.0561475308       -1.5999545648
 H         -2.5971829808       -2.7303940456       -1.3132951965
 H         -4.0616194170        1.4682657886        0.0852162552
 H         -4.1938109625        0.4551625102       -2.1786361175
 H         -0.0906966156        3.0299149332        2.1761402819
 H          1.9458961343        0.5557209529       -1.8813891562
 H          0.8118053181       -0.3993949354       -1.0769270639
 H          1.0505688501       -4.9579813770        0.1823952133
 H          0.8387658682       -2.3199014352        2.6283180437
 H          3.6742706640        4.2261664537        0.4005834917
 H          4.8950943518        3.9052608765       -0.8198045136
  37
        -73.92169296
 P         -0.0622892056       -2.7706520951       -0.0560350761
 O         -1.0654383524       -0.1508474822        1.0470041016
 O         -2.4722280684        1.7057157690       -1.6311371864
 O         -4.0108798154       -0.2390091663       -0.7930425837
 O         -1.5502395988       -3.0797461571        0.4422689015
 O          0.4086148565       -4.2128195332       -0.4443376501
 O          0.7610643238       -2.3753560949        1.2320007227
 O          0.0383858803       -1.8569476902       -1.2098415299
 O          4.2499244826        1.5480612649       -0.3369801393
 N          0.0774409450        1.7829903871        0.3114302084
 N          1.3637133702        3.5951687385        0.4319231851
 N          1.7653755552        0.0707423164       -0.0781721495
 N          4.1334071430        3.7791405773        0.0562268113
 C         -1.7565715089        0.6674785948       -1.0453077525
 C         -2.6516479235       -0.5518524808       -0.6611804528
 C         -1.1539960345        1.0629499492        0.3332806780
 C         -2.3212547972       -0.7731913887        0.8310114439
 C         -2.2746330015       -2.2172047080        1.3002692696
 C          1.3600426782        1.3630751799        0.0744466121
 C          0.1568009473        3.1419373703        0.5172988056
 C          2.1526900420        2.5011041098        0.1602714077
 C          3.5874033295        2.5606409641       -0.0568613731
 H         -0.9604243174        0.3670225144       -1.7303854225
 H         -2.3679864247       -1.4288355325       -1.2438916998
 H         -1.8867762501        1.7237712402        0.8304211396
 H         -3.0909805796       -0.2460277979        1.4175678704
 H         -3.2849720032       -2.6279682488        1.3339103026
 H         -1.8195363167       -2.2321823775        2.2940329564
 H         -3.4022651634        1.6294418181       -1.3384631741
 H         -4.3528547804       -0.5638588385       -1.6375608452
 H         -0.7091837195        3.7397928031        0.7123154773
 H          2.7466427008        0.0481853734       -0.3440803304
 H          1.1687123124       -0.5206217841       -0.6495588166
 H          0.4084001851       -4.8726434835        0.2607671198
 H          1.1792049315       -1.5014343121        1.1899028653
 H          3.5307499849        4.5551293473        0.2720469770
 H          5.1193152092        3.9051439420       -0.0963535807
  37
        -73.92163817
 P          0.1500606502       -2.2312300378       -0.4967821826
 O         -1.1053867214       -0.2720558991        1.0167298826
 O         -3.0177065474        1.8698177773       -1.0336881887
 O         -4.2961618556       -0.3206762204       -0.3504202140
 O         -1.2006215137       -2.9365657602        0.0254688440
 O          0.7956975106       -3.4758091975       -1.2247391395
 O          1.0647400631       -1.9413538330        0.7614651587
 O          0.0071731606       -1.0922609904       -1.4084467068
 O          4.0455179200        1.5885261323        1.4822646616
 N          0.0593546962        1.5123598938        0.0687158769
 N          1.6591412582        2.5516713799       -1.0679567282
 N          1.2629264343        0.8737718104        2.0686278097
 N          4.3751370767        2.7812787643       -0.4181253418
 C         -2.1635195695        0.7920505402       -0.8209623868
 C         -2.9192272307       -0.5279422790       -0.4879260055
 C         -1.2344836445        0.9940996146        0.4045387026
 C         -2.3401430599       -0.9480472016        0.8725345582
 C         -2.0729737137       -2.4355806106        1.0207236418
 C          1.1994920513        1.3937020237        0.8158351075
 C          0.4088627429        2.2212745372       -1.0546734028
 C          2.1951556064        2.0397864662        0.0942877813
 C          3.5974550743        2.1152940779        0.4498893849
 H         -1.5508101204        0.6539317761       -1.7133652438
 H         -2.6886013002       -1.2856436901       -1.2411194939
 H         -1.7276470060        1.6866728055        1.1134652220
 H         -3.0417328316       -0.6226622321        1.6558678185
 H         -3.0027570206       -2.9972487364        0.9123522049
 H         -1.6353494303       -2.6113060653        2.0067129080
 H         -3.8371817987        1.7186325241       -0.5244317232
 H         -4.7296192413       -0.3695160246       -1.2152063100
 H         -0.2994304212        2.4961710436       -1.8076511587
 H          2.2248059712        0.7414152015        2.3608208206
 H          0.6365728279        0.1034772269        2.2484662286
 H          0.4504762019       -4.3491937920       -0.9997930540
 H          1.5616830723       -2.6947771091        1.1046685609
 H          3.9464248137        3.1633811082       -1.2435072035
 H          5.3643025220        2.8552530927       -0.2546210456
  37
        -73.92161540
 P          0.0836131458       -2.6632854013       -0.9028756630
 O         -1.9417463100        0.2174442002        1.6781990052
 O         -2.1583954607        1.5644545043       -1.5375204200
 O         -3.9742357859       -0.0567395184       -0.6113537522
 O         -0.2004610416       -1.8731744834        0.4558822060
 O          1.2924230636       -3.6277871139       -0.5994940803
 O          0.6589040969       -1.4856120229       -1.7901879117
 O         -1.0754894495       -3.3806584875       -1.4510066814
 O          3.3259194011        3.3443761998       -0.6918459036
 N          0.0246862623        1.2823768610        0.9681599536
 N          2.0754990312        0.9828829873        1.7560214639
 N          0.4023653364        3.0016411559       -0.6846342835
 N          4.4603188176        2.1596036048        0.8752597997
 C         -1.6863888690        0.5828415008       -0.6710838986
 C         -2.6810126586       -0.5714566338       -0.4301518260
 C         -1.3979967000        1.1196852821        0.7606012751
 C         -2.4030198600       -0.9651907218        1.0300105139
 C         -1.4098389654       -2.1252189768        1.1572337310
 C          0.8347448344        2.1089141725        0.2392577477
 C          0.8339603524        0.6310265416        1.8610017328
 C          2.1180139120        1.9142268043        0.7391328057
 C          3.3315636215        2.5367850117        0.2525498956
 H         -0.7565945740        0.1904392078       -1.0909093587
 H         -2.4819545634       -1.4082742575       -1.1053996852
 H         -1.8779253743        2.1002927293        0.9040558243
 H         -3.3231570881       -1.2495927903        1.5497476299
 H         -1.8741735452       -3.0342178314        0.7664048800
 H         -1.1441473546       -2.2570782196        2.2080966437
 H         -3.1309275970        1.5842443261       -1.4775514731
 H         -4.6116410714       -0.7718433065       -0.7390016473
 H          0.4467582276       -0.0743258205        2.5649082040
 H          1.1655474920        3.4217923714       -1.1996506719
 H         -0.4325299207        2.7817035071       -1.2088151428
 H          2.0595835804       -3.2444642074       -0.1553311626
 H          0.8719789196       -1.7296452183       -2.6985109150
 H          4.3870823291        1.5203508256        1.6479660382
 H          5.3409942236        2.5630974723        0.6069524160
  37
        -73.92158968
 P          0.0207190166       -2.7490578341       -0.9191407666
 O         -1.8986020288        0.2240769129        1.6901911629
 O         -2.1388159361        1.5673071112       -1.5248171202
 O         -3.9335609942       -0.0814335631       -0.6123026640
 O         -0.1878059619       -1.9178986784        0.4297558690
 O          1.3169040304       -3.6132396639       -0.6888720280
 O          0.4307622207       -1.5872399577       -1.9151420558
 O         -1.1343017250       -3.5622508079       -1.3226290456
 O          3.3166119706        3.4490658435       -0.6640159953
 N          0.0546175980        1.3069581133        0.9728835838
 N          2.1132723147        1.0251056538        1.7459429612
 N          0.3967452785        3.0568920776       -0.6542389927
 N          4.4752155939        2.2558631101        0.8790251814
 C         -1.6537611604        0.5901325812       -0.6605081999
 C         -2.6350554488       -0.5758620372       -0.4178025418
 C         -1.3669486717        1.1303125115        0.7699078469
 C         -2.3616687124       -0.9599877540        1.0457731755
 C         -1.3746893431       -2.1239124279        1.1824362651
 C          0.8485459076        2.1581826044        0.2545586217
 C          0.8777025984        0.6524854338        1.8505734068
 C          2.1368232183        1.9748294294        0.7455676926
 C          3.3386820396        2.6256714036        0.2662962334
 H         -0.7206579501        0.2085228158       -1.0834565486
 H         -2.4199061402       -1.4151988643       -1.0856698846
 H         -1.8546016231        2.1069971617        0.9137260086
 H         -3.2842687450       -1.2382486655        1.5647611769
 H         -1.8604897118       -3.0426881242        0.8436265803
 H         -1.0740170488       -2.2187508109        2.2277277440
 H         -3.1116224792        1.5726039019       -1.4670031167
 H         -4.5604368698       -0.8062734500       -0.7372755874
 H          0.5052777150       -0.0713836386        2.5435639119
 H         -0.4340170649        2.8270295133       -1.1808614091
 H          1.1503472561        3.4992582808       -1.1647015270
 H          2.0932326652       -3.1548254702       -0.3431347918
 H          0.5696933302       -1.8647773678       -2.8282519715
 H          4.4144314483        1.6042117124        1.6424365458
 H          5.3481581227        2.6795809367        0.6166440164
  37
        -73.92154301
 P          1.1055354587       -2.3167330211        0.1469698884
 O         -1.8570891643        0.3492637229        1.3643802768
 O         -4.0874708937        1.7643642844       -0.0524254855
 O         -3.9418445917       -0.6238782826       -1.2551020403
 O         -0.2442401394       -1.5103506344       -0.2525187255
 O          2.2092890287       -1.5645917246       -0.6524982875
 O          0.9640772120       -3.7048444838       -0.5955942558
 O          1.2545591567       -2.4803520155        1.6006448415
 O          3.5280034548        0.3766099899        0.3523755098
 N         -0.4490969974        1.8033773813        0.1441171867
 N          1.1539458115        2.6259115749       -1.1616365974
 N          0.8711396970        0.5602053312        1.7341151180
 N          3.9277869775        2.1593999681       -0.9867829840
 C         -2.8123006556        1.4065621728       -0.4993367892
 C         -2.7237489715       -0.1061348782       -0.8075553936
 C         -1.7921177746        1.5529401387        0.6466407322
 C         -2.3789983663       -0.7084324577        0.5654687585
 C         -1.4082550162       -1.8838183058        0.4733535611
 C          0.7240932884        1.2554963959        0.5887811247
 C         -0.1119392448        2.6296546513       -0.9069685331
 C          1.7187862716        1.7564525050       -0.2555643212
 C          3.1101973901        1.3894671552       -0.2702238563
 H         -2.5465646687        2.0188793776       -1.3668053558
 H         -1.8993199456       -0.2974034526       -1.5017051133
 H         -2.0858660661        2.3607501950        1.3304822211
 H         -3.2979633954       -1.0678665164        1.0452898359
 H         -1.9041309122       -2.7137226871       -0.0371598134
 H         -1.1136211536       -2.2048470069        1.4761647597
 H         -4.7034718795        1.0437760884       -0.2840468438
 H         -4.0126044160       -0.5484765186       -2.2179406851
 H         -0.8255146621        3.2331290517       -1.4264637595
 H          1.7420707863        0.0614427595        1.8371376758
 H          0.0498709068        0.1264312242        2.1271176421
 H          2.7489221449       -0.8666182268       -0.1596823309
 H          1.0945726325       -3.6718887326       -1.5518768608
 H          3.5340952129        2.9329581346       -1.4966921043
 H          4.8997252267        1.9120715530       -1.0734283906
  37
        -73.92153677
 P          0.1612887162       -2.3390516512       -0.5065562450
 O         -1.0805243317       -0.2768649400        1.0156144158
 O         -2.9063025327        1.8315141423       -1.1895022334
 O         -4.3064180583       -0.1497684794       -0.1607794167
 O         -1.2817674420       -2.8969375837       -0.1190917671
 O          0.7276341781       -3.5753495336       -1.3062347679
 O          0.9264382269       -2.3109757623        0.8879193856
 O          0.2470613860       -1.1289735123       -1.3341289543
 O          4.0397037462        1.6767784142        1.4513888476
 N          0.0492795182        1.5324804578        0.0700983617
 N          1.6091493653        2.6389394119       -1.0569105671
 N          1.2868768709        0.8703425830        2.0381023771
 N          4.3213591152        2.9473957899       -0.4065779077
 C         -2.1293789921        0.7339110883       -0.8380464551
 C         -2.9727710780       -0.5019394634       -0.4086350317
 C         -1.2318315670        0.9833748629        0.3991001351
 C         -2.3202248502       -0.9552870346        0.9107071574
 C         -2.0371302389       -2.4461944762        0.9913914364
 C          1.1972723676        1.4278562486        0.8053046375
 C          0.3690833347        2.2728573529       -1.0420256625
 C          2.1689876969        2.1178992236        0.0902090240
 C          3.5700349385        2.2274547173        0.4405107234
 H         -1.4891548259        0.4772498657       -1.6848812425
 H         -2.8898922365       -1.2922976754       -1.1584158416
 H         -1.7550281141        1.6672341658        1.0951980610
 H         -2.9802804218       -0.6564055915        1.7387282366
 H         -2.9676216255       -3.0149331952        0.9654038862
 H         -1.4839778510       -2.6491743893        1.9107268389
 H         -3.7111414195        1.8237894836       -0.6371797481
 H         -4.8341129261       -0.2411665233       -0.9671767121
 H         -0.3552476661        2.5336509711       -1.7849213743
 H          2.2478497714        0.7746038859        2.3427381385
 H          0.6590758594        0.1054514964        2.2323869677
 H          0.6306298290       -4.4421311505       -0.8914270771
 H          1.8416598003       -2.0258417997        0.8177369292
 H          3.8766413483        3.3455542733       -1.2157619712
 H          5.3081023664        3.0492752119       -0.2435895331
  37
        -73.92151949
 P         -0.2467046182       -3.2283795214       -1.1502785182
 O         -1.3861306724        0.4397464563        1.5561537165
 O         -3.3970331676        1.5636794273       -0.5606811557
 O         -3.4091069712       -1.0520426316       -0.5627358979
 O         -0.3639693952       -2.8878603191        0.4228511712
 O         -1.6975386364       -3.5429852248       -1.6481773118
 O          0.4293839890       -4.6504234212       -1.1366889789
 O          0.4299869503       -2.1708963048       -1.9172344775
 O          3.4595198481        3.6227183348        2.0432157848
 N          0.1241285104        1.7160845313        0.2725735280
 N          2.1099317369        1.7129123356       -0.7227606082
 N          0.5880685442        3.0523631878        2.2277005174
 N          4.5039587813        2.8807629202        0.1712444477
 C         -2.1104277703        1.0279268253       -0.6121046687
 C         -2.1136096110       -0.5263169532       -0.5003330488
 C         -1.2599481006        1.4663946592        0.5977244522
 C         -1.5361083662       -0.8105157279        0.9005987404
 C         -0.1977044805       -1.5582820449        0.8633469628
 C          0.9703845039        2.4254372553        1.0875945333
 C          0.8864822860        1.2994918209       -0.7966683715
 C          2.2030137397        2.4289613490        0.4506890617
 C          3.4249939357        3.0299432343        0.9529809162
 H         -1.6726583018        1.3808552891       -1.5469503967
 H         -1.4732218157       -0.9646086738       -1.2718142968
 H         -1.6656249961        2.3803788641        1.0477175206
 H         -2.2562150045       -1.3993458325        1.4791081240
 H          0.2097286603       -1.6103523682        1.8756634778
 H          0.5063472696       -1.0381162449        0.2067267547
 H         -3.9346807043        1.0550516081        0.0699483152
 H         -3.7649563108       -0.9507901814       -1.4579129072
 H          0.5077140087        0.6905359347       -1.5917400178
 H          1.3814186349        3.4308880836        2.7319419023
 H         -0.1166696274        2.5974025626        2.7876890305
 H         -2.0883924576       -4.3558320600       -1.3019044320
 H          1.3778989652       -4.6738552266       -0.9713217723
 H          4.4010618091        2.3879700596       -0.6993598717
 H          5.3875974631        3.2680197605        0.4547292322
  37
        -73.92151869
 P         -0.0238545994       -2.6169048797       -0.4761506556
 O         -1.1074465022       -0.6370378557        1.2049196647
 O         -2.4356417206        2.0409700580       -0.5634438837
 O         -4.0546699107       -0.0314838721       -0.6569251182
 O         -1.5369372839       -3.1048363123       -0.2140311401
 O          0.4990744860       -3.8825242689       -1.2696138783
 O          0.7532912016       -2.7236331358        0.8842701893
 O          0.1217260861       -1.3571586986       -1.2205406768
 O          3.0122969525        4.0842989067       -0.6744653588
 N          0.4184378175        1.0337109377        0.6869898971
 N          2.6088641984        0.9077510147        1.0225300025
 N          0.2773426946        3.0820704202       -0.6010856659
 N          4.5845008245        2.7478749615        0.2674685028
 C         -1.7458199104        0.8207539922       -0.5542328292
 C         -2.7157974081       -0.3936680150       -0.5251652325
 C         -0.9724474306        0.6952718829        0.7779895910
 C         -2.4031575760       -1.0733388467        0.8264718358
 C         -2.3999057867       -2.5917610060        0.7810620438
 C          0.9588956891        2.1427746381        0.0938943129
 C          1.4687849461        0.3340113592        1.2285863373
 C          2.3301401178        2.0550903501        0.3095430205
 C          3.3199710905        3.0366546446       -0.0797192939
 H         -1.0422450982        0.7358227850       -1.3864424300
 H         -2.4893091209       -1.0785890002       -1.3441357068
 H         -1.4615961867        1.3680421502        1.5122710157
 H         -3.1373394955       -0.7411731797        1.5764427837
 H         -3.3962675200       -2.9578771085        0.5253069477
 H         -2.0926878742       -2.9670849273        1.7607944678
 H         -2.8393097708        2.1702189522       -1.4356981371
 H         -4.2199242278        0.7781665213       -0.1427705982
 H          1.3199840251       -0.5835607353        1.7543552356
 H          0.8401286229        3.8957218586       -0.8128022608
 H         -0.7034326872        3.2145533017       -0.4030102532
 H          0.3319182334       -3.8670731395       -2.2167990379
 H          1.0073706133       -3.6262682997        1.1194643505
 H          4.7601625906        1.8819584895        0.7473509658
 H          5.3276905823        3.3836972116        0.0356891981
  37
        -73.92147857
 P         -0.0876133072       -2.8780710792       -0.9828754245
 O         -1.7792708336        0.1731236295        1.6866829070
 O         -2.0001772228        1.5358581943       -1.5481468477
 O         -3.9004284367        0.0524954801       -0.5517558542
 O         -0.2539443697       -2.0505774052        0.3864740452
 O          1.0188608251       -3.9670824926       -0.6874487787
 O          0.6537151648       -1.8654732478       -1.9177407988
 O         -1.3674997205       -3.3971157442       -1.4904455472
 O          3.2628015254        3.7491851464       -0.5100555882
 N          0.1350213098        1.3025603572        0.9503465849
 N          2.2103162022        1.0710358803        1.6929140771
 N          0.3656320783        3.1857913329       -0.5390335729
 N          4.4976412267        2.4939786285        0.9200859999
 C         -1.5815553571        0.5439585029       -0.6664609292
 C         -2.6386659698       -0.5474155778       -0.4065445098
 C         -1.2805248052        1.0901081579        0.7574238115
 C         -2.3495483222       -0.9655077228        1.0446443479
 C         -1.4437880207       -2.1980387084        1.1457581154
 C          0.8770387606        2.2510549604        0.3017323385
 C          0.9975858022        0.6236827411        1.7695747621
 C          2.1756468486        2.1004283940        0.7749232976
 C          3.3378810973        2.8522894828        0.3462919137
 H         -0.6728272442        0.0933949585       -1.0784332106
 H         -2.5104130687       -1.3881552379       -1.0923024425
 H         -1.7871034481        2.0583713978        0.9002692179
 H         -3.2761467494       -1.1830731547        1.5858337375
 H         -2.0026515391       -3.0663717571        0.7890252094
 H         -1.1432607208       -2.3367688956        2.1862618963
 H         -2.9724150707        1.5930756117       -1.4975735301
 H         -4.5823428797       -0.6173936033       -0.6935924104
 H          0.6702401480       -0.1777525797        2.3966985496
 H          1.0919098537        3.7104051296       -1.0105225164
 H         -0.4295288974        2.9192007383       -1.1039347092
 H          0.7001907529       -4.8496369704       -0.4691407068
 H          1.6171776870       -1.9067794780       -1.8787132445
 H          4.4826165374        1.7650138310        1.6126145497
 H          5.3469256415        2.9748068301        0.6793812874
  37
        -73.92146494
 P          0.0609496032       -2.7071229256       -0.9311395425
 O         -1.8822473198        0.1786632670        1.6511527620
 O         -2.0543324234        1.5071343511       -1.5985079304
 O         -3.9806005290        0.0815701735       -0.5427445294
 O         -0.2370844447       -1.9184512174        0.4252214520
 O          0.6139082282       -4.1045845599       -0.4245672439
 O          1.2848395836       -1.9176646299       -1.5074907280
 O         -1.0816141034       -2.8173758353       -1.8508003284
 O          3.2885044827        3.5395315942       -0.6016045005
 N          0.0629598381        1.2650635192        0.9250972063
 N          2.1124167856        1.0340008282        1.7374447926
 N          0.3809928521        3.0536751706       -0.6639528970
 N          4.4548673539        2.3408516440        0.9310269877
 C         -1.6551374351        0.5203708710       -0.7028705499
 C         -2.7298703581       -0.5494331996       -0.4326429713
 C         -1.3542611106        1.0762630910        0.7180548092
 C         -2.4177186829       -0.9777699805        1.0109187471
 C         -1.4615531122       -2.1736120396        1.1023469291
 C          0.8442795255        2.1540011745        0.2395728340
 C          0.8876036185        0.6203579176        1.8087983451
 C          2.1267299545        2.0025809993        0.7551590887
 C          3.3183699343        2.6955316816        0.3096242665
 H         -0.7535820856        0.0456758204       -1.1071917832
 H         -2.6320477853       -1.3809062904       -1.1331958481
 H         -1.8469513173        2.0535288912        0.8464437947
 H         -3.3310392792       -1.2288651308        1.5592345175
 H         -1.9481646242       -3.0541862284        0.6782677405
 H         -1.2094274325       -2.3514013086        2.1500330581
 H         -3.0241412962        1.5922689906       -1.5406429769
 H         -4.6823359673       -0.5720746769       -0.6639823519
 H          0.5233195582       -0.1279434350        2.4796533838
 H          1.1325191399        3.5257327439       -1.1510464185
 H         -0.4186415103        2.7891252708       -1.2230802312
 H          0.4026574195       -4.8576816914       -0.9876844135
 H          2.1223724754       -2.0577152313       -1.0490104033
 H          4.4005496391        1.6687631463        1.6770464166
 H          5.3204838477        2.7913243661        0.6897056790
  37
        -73.92143918
 P         -0.0213551726       -2.8617408743       -0.9759501944
 O         -1.8126703479        0.1751398370        1.6620268675
 O         -2.0106415703        1.5269715678       -1.5817725357
 O         -3.9269456994        0.0821604964       -0.5357409111
 O         -0.2289172446       -1.9703695218        0.3350140449
 O          0.5426193734       -4.2274676593       -0.3998989177
 O          1.1720891703       -2.1379043749       -1.6843608360
 O         -1.2206746180       -3.0178215140       -1.8131280230
 O          3.2522412238        3.7262831346       -0.5286226390
 N          0.1025232899        1.3103539936        0.9368094276
 N          2.1632337661        1.1081300218        1.7278147381
 N          0.3582702849        3.1567449721       -0.5949603981
 N          4.4626642182        2.5105173076        0.9554315704
 C         -1.6047394553        0.5393843846       -0.6901299049
 C         -2.6718633325       -0.5401133232       -0.4254203173
 C         -1.3104747982        1.0916990940        0.7331537441
 C         -2.3582248173       -0.9735527721        1.0162259847
 C         -1.4122215234       -2.1777722429        1.0968843258
 C          0.8543052022        2.2436216959        0.2775753419
 C          0.9506281914        0.6585520985        1.7924130051
 C          2.1439682072        2.1103873995        0.7799939784
 C          3.3127028759        2.8523367337        0.3522862558
 H         -0.6977196013        0.0751013924       -1.0939061933
 H         -2.5683088723       -1.3703386224       -1.1268197169
 H         -1.8233277025        2.0574973759        0.8698861898
 H         -3.2713886976       -1.2215066442        1.5664240898
 H         -1.9356465822       -3.0653389569        0.7359202873
 H         -1.1026137652       -2.3208081883        2.1344089158
 H         -2.9814682809        1.6017666198       -1.5263267840
 H         -4.6227587924       -0.5754715558       -0.6684703887
 H          0.6123711365       -0.1237705328        2.4376558117
 H          1.0924992397        3.6682052522       -1.0685641862
 H         -0.4314572066        2.8802533786       -1.1627086128
 H          0.2902061837       -5.0153419928       -0.8940460612
 H          2.0320552079       -2.2236396957       -1.2541709856
 H          4.4352204430        1.8037721872        1.6702755508
 H          5.3149373839        2.9883501355        0.7193195664
  37
        -73.92142233
 P          0.9729779093       -2.0837596518       -0.4515148682
 O         -2.1687930717        0.0424614033        1.6286272953
 O         -2.8085310126        1.8918911335       -1.2212327784
 O         -4.4572944166        0.0056370031       -0.3239137174
 O         -0.4845067076       -1.4741008703       -0.2962030836
 O          0.6492435888       -3.5429096451       -0.9672274495
 O          1.5493302535       -2.3691051132        0.9988261689
 O          1.8021857711       -1.2450847104       -1.3247016166
 O          3.0357644697        2.7025081704       -1.2594551623
 N         -0.2474766424        1.1484944224        0.8744902607
 N          1.8231694888        0.5144908574        1.3612809357
 N          0.1741831088        2.8580656099       -0.7798381797
 N          4.2252978780        1.3863399089        0.1499571837
 C         -2.1855181392        0.7916111746       -0.6360312522
 C         -3.1297074397       -0.4209129132       -0.4469700305
 C         -1.6927408392        1.0793482019        0.8143984250
 C         -2.5808710439       -1.0674660169        0.8311840074
 C         -1.4555996249       -2.0740811761        0.5604754965
 C          0.5749264989        1.8631781493        0.0475386136
 C          0.5645584308        0.3598661154        1.6403783991
 C          1.8694492079        1.4631990536        0.3630816901
 C          3.0729280007        1.8950650139       -0.3167635426
 H         -1.3294074222        0.4960530892       -1.2520477621
 H         -3.0952576777       -1.0920830097       -1.3049913660
 H         -2.1049535915        2.0299241290        1.1833710381
 H         -3.3608949812       -1.5786240099        1.4017862837
 H         -1.8643743850       -2.9594910431        0.0692281331
 H         -0.9819886717       -2.3668428371        1.5002286318
 H         -3.7726544824        1.7351560420       -1.2235714249
 H         -4.6096427878        0.3701309736        0.5621530199
 H          0.1706177678       -0.2758675834        2.4066429840
 H          0.9132811259        3.1542170107       -1.4057299198
 H         -0.7588842416        2.8237800424       -1.1623132197
 H          1.4114524558       -4.0640322777       -1.2424198008
 H          2.0732515207       -1.6315491348        1.3412787390
 H          4.1846367103        0.6870100015        0.8700527352
 H          5.0834799354        1.5771368823       -0.3382786164
  37
        -73.92139262
 P          1.3123006972       -2.1677547330       -0.3850490893
 O         -1.9510535538        0.0172552237        1.2421005512
 O         -3.7936838175        2.1820420548       -0.6632910517
 O         -4.6381802786       -0.1654956430        0.1035087703
 O         -0.0077505668       -1.5258149842        0.2586559770
 O          2.3390051591       -2.0622106486        0.7743970843
 O          1.7203423868       -1.1147381688       -1.5100199432
 O          1.0986860191       -3.5249435176       -0.9163003072
 O          3.4022771197        0.2675082170        1.0939394417
 N         -0.5181536001        1.5921847356        0.2587190475
 N          1.2174729504        2.3057934900       -0.9345457172
 N          0.6162639766        0.5632717651        2.1251409694
 N          3.9465990044        1.7861367197       -0.4936623604
 C         -2.8251990852        1.1891813795       -0.6339524815
 C         -3.4039583726       -0.2493076051       -0.5508312887
 C         -1.8913449210        1.2716688105        0.6149664400
 C         -2.3370815192       -0.9654472525        0.2957451940
 C         -1.1547031860       -1.4400906679       -0.5692471001
 C          0.6014559720        1.1309710196        0.8988519213
 C         -0.0705165547        2.3047591999       -0.8318934455
 C          1.6814121888        1.5548683316        0.1244825193
 C          3.0569354756        1.1633071645        0.2806691909
 H         -2.2337930314        1.2916793658       -1.5467272665
 H         -3.5039831337       -0.6953166235       -1.5448161991
 H         -2.2645405997        2.0193972087        1.3277823476
 H         -2.7292006318       -1.7948063366        0.8864921080
 H         -0.9496242197       -0.7280596513       -1.3748237914
 H         -1.3637650113       -2.4199597548       -1.0075737094
 H         -4.5652315579        1.8745483676       -0.1544950898
 H         -5.1187080587       -1.0020400907        0.0414973469
 H         -0.7295680783        2.8313543328       -1.4901927527
 H          1.4992342503        0.1316575127        2.3597983823
 H         -0.2117658533        0.0497887103        2.3897628573
 H          2.7596948025       -1.1548575532        0.9380336827
 H          2.0725997674       -1.5285862653       -2.3058784221
 H          3.6110238158        2.4681152176       -1.1533465380
 H          4.9136308089        1.5085933562       -0.4691088938
  37
        -73.92138189
 P          0.9608662176       -2.1090417275       -0.4476884821
 O         -2.1368551865        0.0069632845        1.6303447145
 O         -2.7751376151        1.9019730611       -1.2145054238
 O         -4.4238556069        0.0867630278       -0.2936303786
 O         -0.4985700180       -1.5024430983       -0.3066220867
 O          0.6429647679       -3.5658863047       -0.9768296374
 O          1.5187247717       -2.4036151651        1.0082028191
 O          1.8018019832       -1.2678216187       -1.3068315921
 O          3.0174489837        2.7599056769       -1.2541518726
 N         -0.2376183437        1.1419697202        0.8761868217
 N          1.8429527141        0.5251015401        1.3451010149
 N          0.1574456689        2.8769422478       -0.7589158080
 N          4.2295485868        1.4520749831        0.1433983638
 C         -2.1810753903        0.7919870016       -0.6239546661
 C         -3.1260777322       -0.4174714661       -0.4551523658
 C         -1.6842517677        1.0595813067        0.8290061682
 C         -2.5845446582       -1.0794289589        0.8249725926
 C         -1.4780663286       -2.1040006616        0.5400783922
 C          0.5723198195        1.8769885011        0.0553487410
 C          0.5874472971        0.3515862129        1.6265526554
 C          1.8732090775        1.4879094749        0.3595262463
 C          3.0682430783        1.9455079483       -0.3177534136
 H         -1.3265662481        0.4993839118       -1.2421300277
 H         -3.0565202559       -1.0883577550       -1.3157530290
 H         -2.1054040524        1.9984277534        1.2165146961
 H         -3.3724186248       -1.5688680907        1.4031112755
 H         -1.8957173567       -2.9772896557        0.0345616655
 H         -1.0094838356       -2.4159574562        1.4759181258
 H         -3.7210732316        1.9062401448       -0.9808078832
 H         -5.0784062738       -0.6216042593       -0.3634595604
 H          0.2026205628       -0.2975464698        2.3862201686
 H          0.8905650793        3.1879419202       -1.3845772776
 H         -0.7776775984        2.8372698334       -1.1365684702
 H          1.4078890960       -4.0785440823       -1.2606066693
 H          2.0711054925       -1.6876183344        1.3479781127
 H          4.2002212360        0.7489869130        0.8601958948
 H          5.0845244424        1.6623981022       -0.3423019503
  37
        -73.92136283
 P          0.0251378172       -2.9223279485       -0.5013954335
 O         -0.9548507114       -0.7285194511        1.0958204202
 O         -2.3714250013        2.0479213119       -0.5055637937
 O         -4.0951644900        0.0583293710       -0.3010620674
 O         -1.5796724633       -3.0482502091       -0.4602078590
 O          0.3396536597       -1.6225821514       -1.3365556724
 O          0.3871658674       -4.0435460153       -1.5572062494
 O          0.6742916630       -3.0550549952        0.8099022380
 O          2.7810639439        4.4964009796       -0.1647609514
 N          0.4746407544        1.0360849582        0.6098618177
 N          2.6860109476        0.9347637292        0.5023812191
 N          0.1036097303        3.4106795039        0.3634030438
 N          4.4932252018        3.0160250787       -0.0076070126
 C         -1.7546667405        0.7934191327       -0.5090521854
 C         -2.7749900686       -0.3772243915       -0.3871648191
 C         -0.8918181100        0.6344167881        0.7668193142
 C         -2.2891307523       -1.1507404848        0.8634698663
 C         -2.2775263106       -2.6646459906        0.7056241417
 C          0.9028586435        2.3186344768        0.3874354848
 C          1.6015703133        0.2515226174        0.6755726400
 C          2.2883165603        2.2430949439        0.3139505016
 C          3.1915863333        3.3408487447        0.0363729028
 H         -1.1120147710        0.6617232153       -1.3874358054
 H         -2.7297601344       -1.0278948508       -1.2626565320
 H         -1.3479344690        1.2463962279        1.5689219084
 H         -2.9164131703       -0.8858279491        1.7277928155
 H         -3.2924898443       -3.0471926463        0.5939424497
 H         -1.7832909737       -3.0947070774        1.5807452497
 H         -2.9780995791        2.1126957037       -1.2607729247
 H         -4.1770951113        0.7470055982        0.3786464464
 H          1.5457157352       -0.8002311980        0.8603119353
 H          0.5919072588        4.2414226078        0.0550387859
 H         -0.8553678257        3.2944679060        0.0675083217
 H          0.4986346716       -1.8228101968       -2.2680773329
 H          0.4191007637       -4.9437051935       -1.2168698667
 H          4.7506205033        2.0607147611        0.1721166156
 H          5.1834465673        3.7233609179       -0.1911367460
  37
        -73.92131858
 P         -1.6613208931       -3.9134467135       -0.8046014452
 O         -0.4095052010       -0.2081968998        1.4611884804
 O         -1.5372766400        1.6813578756       -1.3296642261
 O         -2.8904264352       -0.3993244558       -0.5310900701
 O         -0.4242109883       -3.6187883381        0.1815782420
 O         -1.7139511122       -5.4777053960       -0.7231792517
 O         -1.1636133997       -3.6242984674       -2.2667402949
 O         -2.9064466172       -3.2015847503       -0.4705650900
 O          2.7470388104        5.3076022518       -0.1175448254
 N          0.8459280385        1.6599264001        0.8792870756
 N          2.9819617996        2.0089500143        1.3608876213
 N          0.2147004118        3.7898234823       -0.0615733028
 N          4.5260530124        4.2879461105        0.8533698094
 C         -0.7849595604        0.6854800062       -0.7163713150
 C         -1.5179869863       -0.6645413917       -0.6062676081
 C         -0.4342813862        1.0059424077        0.7615177923
 C         -0.9576088078       -1.2742190252        0.6897319765
 C          0.1150779549       -2.3382224322        0.4437427829
 C          1.1279695677        2.9304250129        0.4553373321
 C          2.0070463746        1.1588733181        1.4106613219
 C          2.4675412583        3.1399926524        0.7633319373
 C          3.2413328423        4.3296982916        0.4672349806
 H          0.1468333812        0.5736144051       -1.2827243864
 H         -1.3005442652       -1.3054736769       -1.4683370404
 H         -1.2011854935        1.6743804636        1.1868017407
 H         -1.7670228717       -1.7253382717        1.2750196942
 H          0.7081525280       -2.4523577741        1.3546884197
 H          0.7678027557       -2.0308815282       -0.3793976138
 H         -2.4797849496        1.4590953650       -1.2163323196
 H         -3.3594183235       -1.2511957831       -0.5506231447
 H          2.0587365266        0.1750272736        1.8260332092
 H          0.6484363545        4.6276302569       -0.4291846143
 H         -0.5304949539        3.3927114680       -0.6185107866
 H         -2.1304851006       -5.8454318277        0.0635478015
 H         -0.5708598011       -4.2881501132       -2.6427835257
 H          4.8558536749        3.4636020470        1.3256667202
 H          5.1283946730        5.0747552666        0.6842661088
  37
        -73.92131824
 P          0.3355408359       -2.1047822441       -0.3992311814
 O         -1.2809827889       -0.4492683415        0.8874195399
 O         -3.4811761175        1.8382680725        0.4207385186
 O         -4.2281470400       -0.2466068478       -1.0732568448
 O         -0.8856471521       -2.8952632317        0.2924824292
 O          1.2847191047       -3.3200639997       -0.7919034816
 O          1.1921226133       -1.4515439111        0.7419828000
 O         -0.0493485489       -1.2558604261       -1.5364448566
 O          3.9501920246        1.8967850716        1.5622739253
 N          0.0236463250        1.3249809177        0.0925412363
 N          1.6995052860        1.8214180785       -1.2766992423
 N          1.1310905703        1.4058149961        2.2362670069
 N          4.3931401378        2.2753980014       -0.6293759749
 C         -2.4480558039        1.2511643748       -0.3205711015
 C         -2.8571710488       -0.1530465451       -0.8236072617
 C         -1.2588584995        0.9508634677        0.6094141540
 C         -2.4701463975       -1.0228093186        0.3838349024
 C         -2.2226874523       -2.5065289325        0.0555690863
 C          1.1388483720        1.4673014144        0.8778647526
 C          0.4437028467        1.5270935089       -1.2002763795
 C          2.1750838012        1.7933444714        0.0180351840
 C          3.5632394869        1.9943212233        0.3862819220
 H         -2.1540207431        1.9257470760       -1.1322925555
 H         -2.2390674853       -0.4345760960       -1.6801349986
 H         -1.4076000852        1.4933797907        1.5559207315
 H         -3.2659414062       -0.9321969147        1.1369760059
 H         -2.4805815954       -2.6905628237       -0.9906801029
 H         -2.8197489279       -3.1512204163        0.7013060873
 H         -4.3224889625        1.4304616472        0.1390441632
 H         -4.4193357560       -0.0450083566       -2.0005247284
 H         -0.2027687700        1.4400964227       -2.0470014245
 H          2.0754570251        1.4283515242        2.6055682324
 H          0.5311805211        0.7020641935        2.6399419682
 H          1.0921697955       -3.7518921869       -1.6301990579
 H          1.6347555322       -2.1183771262        1.2821288120
 H          4.0106427408        2.3190567772       -1.5583605826
 H          5.3756753093        2.4012286167       -0.4564753721
  37
        -73.92131823
 P          0.2270983991       -2.3476886909       -0.5768819900
 O         -1.0816571842       -0.3223967951        1.0350392860
 O         -2.7888289141        1.7295579320       -1.3570785787
 O         -4.2754467790        0.2113552418        0.1720282582
 O         -1.2886387263       -2.7915314687       -0.3441968692
 O          0.7523544391       -3.5477994132       -1.4578516631
 O          0.8734478145       -2.5219829138        0.8648269723
 O          0.4812600237       -1.0783972403       -1.2680623500
 O          3.9534547202        1.8362707500        1.5662956063
 N          0.0225942122        1.4869969010        0.0585256414
 N          1.6080089093        2.5027954793       -1.1144241431
 N          1.1795848768        1.0412641171        2.1282466537
 N          4.2904033674        2.9175093760       -0.3991739751
 C         -2.1432017447        0.6251007227       -0.8194818402
 C         -3.1033146411       -0.4419932031       -0.2410829903
 C         -1.2490733916        0.9309782950        0.4028198475
 C         -2.3189459578       -1.0225775845        0.9596799191
 C         -2.0003229846       -2.5067656225        0.8485093281
 C          1.1417782228        1.4779384268        0.8431247847
 C          0.3751656854        2.1125851215       -1.1112295656
 C          2.1297833179        2.1120089903        0.1014939178
 C          3.5155556071        2.2752466488        0.4886839291
 H         -1.5063675288        0.1820454771       -1.5909331439
 H         -3.3080713003       -1.2137587178       -0.9859501824
 H         -1.7775936759        1.6189737600        1.0896008093
 H         -2.8906760313       -0.8336632712        1.8799262948
 H         -2.9133914902       -3.1007064846        0.7945518327
 H         -1.3985995448       -2.8019938487        1.7099681634
 H         -3.6283436713        1.8535851928       -0.8752660573
 H         -5.0372175024       -0.3826486756        0.1316395929
 H         -0.3235961479        2.2754989725       -1.9047017414
 H          2.1273048732        0.9883954984        2.4815699918
 H          0.5655050758        0.2717326374        2.3490818257
 H          0.5616669789       -4.4393658098       -1.1391472655
 H          1.8147473144       -2.3276337675        0.8927218806
 H          3.8735073454        3.2147689242       -1.2645979616
 H          5.2721916216        3.0364294591       -0.2183090929
  37
        -73.92131535
 P          0.0925647191       -3.3445778668       -0.6907349918
 O         -0.8528273621       -0.7979293703        0.3093471916
 O         -2.5053541895        2.2871431550        0.7492915128
 O         -4.1183945013        0.2881605945        0.3434604721
 O         -1.5189185700       -3.3555250933       -0.6197080428
 O          0.4197249201       -4.8463271509       -0.9821831803
 O          0.6061330529       -3.1860555788        0.7994452405
 O          0.6339937053       -2.4187052009       -1.6939247384
 O          2.8123887510        4.5543120276        1.1350509529
 N          0.5050815956        1.0964740140        0.3529190961
 N          2.5026563408        1.3692059956       -0.5627551888
 N          0.3331522045        3.0645588913        1.7387522040
 N          4.2760830694        3.5167899734       -0.2537219571
 C         -1.9389038208        1.2957565175       -0.0465921743
 C         -2.9389413694        0.1573195337       -0.3996307794
 C         -0.7829441318        0.5557525939        0.6826461766
 C         -2.2058556370       -1.1322373641        0.0233659866
 C         -2.2092417048       -2.2055633276       -1.0593586217
 C          0.9796161624        2.2922442834        0.8247365200
 C          1.4664687920        0.5965048341       -0.4918526035
 C          2.2344204636        2.4481425809        0.2529774338
 C          3.1200250159        3.5847504182        0.4228612024
 H         -1.5459491395        1.7699239423       -0.9516473155
 H         -3.1339294609        0.1406898568       -1.4734588291
 H         -0.9272060094        0.6657493493        1.7723872239
 H         -2.6812566670       -1.5214617290        0.9351556320
 H         -1.7120522998       -1.8133672818       -1.9518620842
 H         -3.2279717485       -2.5237908144       -1.2831716455
 H         -3.2844691789        1.9019034648        1.1990162337
 H         -4.8280223783        0.6654928213       -0.1952201093
 H          1.3471857807       -0.3330130657       -1.0099762150
 H          0.8009898141        3.9545147216        1.8658735492
 H         -0.6740888457        3.1156478491        1.6580753560
 H          0.1134480011       -5.4762809469       -0.3174712727
 H          0.5798451238       -2.2826877781        1.1271459116
 H          4.4537638877        2.7013664813       -0.8151001659
 H          4.9396912914        4.2696814886       -0.1937864763
  37
        -73.92131205
 P         -1.6348620089       -4.0010617549       -0.7650167076
 O         -0.0962113023       -0.4420136414        1.2347245409
 O         -1.9015458378        1.8923251598       -0.7371638486
 O         -2.9428252709       -0.4369196149       -0.1930446373
 O         -0.2931922611       -3.2080674375       -1.1825520100
 O         -1.3605597698       -4.6718854539        0.6256083198
 O         -1.5979375473       -5.1846786773       -1.7931509478
 O         -2.8564665433       -3.1784491492       -0.7783177802
 O          2.4713228108        5.5009088116        0.2457852348
 N          0.9510345413        1.5932692484        0.8087426051
 N          3.1316069212        1.9919046246        0.8586461575
 N          0.0649748979        3.8193291718        0.5285470720
 N          4.4562788428        4.4384033506        0.5240226369
 C         -0.9842280727        0.8624070678       -0.5583145447
 C         -1.6108746997       -0.5438592888       -0.6124653534
 C         -0.3066053485        0.8869872315        0.8390371248
 C         -0.7412006152       -1.3582519499        0.3582260391
 C          0.2983199651       -2.2158845079       -0.3651122045
 C          1.0947245733        2.9417748922        0.6235776132
 C          2.2163821503        1.0798971508        0.9386334666
 C          2.4639002682        3.1815296209        0.6589461946
 C          3.1155704416        4.4620892135        0.4660323604
 H         -0.2102113018        0.9682366843       -1.3271628889
 H         -1.5597725932       -0.9676348884       -1.6213745725
 H         -0.9664254973        1.3941433074        1.5619094485
 H         -1.3702475695       -2.0148015151        0.9717457732
 H          0.9420216458       -2.6840976896        0.3847273754
 H          0.9085144113       -1.5993261124       -1.0307939872
 H         -2.7800308845        1.5621619143       -0.4735374016
 H         -3.3646410041       -1.3047887633       -0.3147809812
 H          2.3882276821        0.0373225804        1.1029949146
 H          0.3790673560        4.7456437963        0.2669558256
 H         -0.7821061536        3.4930277171        0.0824039779
 H         -0.8087307420       -5.4648760600        0.6107679965
 H         -1.9251375822       -4.9874954254       -2.6773825248
 H          4.9113169421        3.5609405470        0.7095824071
 H          4.9800266521        5.2879216224        0.4027699544
  37
        -73.92129418
 P          1.1141353482       -2.3063133789        0.1245536473
 O         -1.8732268400        0.3565836822        1.3766389449
 O         -4.0793426744        1.8577666978       -0.1776443914
 O         -4.0085693097       -0.6733043428       -1.1518807743
 O         -0.2367475608       -1.4872552451       -0.2456212962
 O          2.2155283067       -1.5450113616       -0.6689236201
 O          0.9597204666       -3.6803490772       -0.6406218665
 O          1.2755086512       -2.4953228410        1.5740540762
 O          3.5387644685        0.3733423945        0.3710494002
 N         -0.4447746429        1.7781263486        0.1319217379
 N          1.1642603836        2.6070210272       -1.1618102967
 N          0.8685235628        0.5500164734        1.7392499591
 N          3.9395329582        2.1649277838       -0.9563584132
 C         -2.8122092392        1.3887302275       -0.5208650737
 C         -2.7746346866       -0.1390859375       -0.7765941824
 C         -1.7910788254        1.5434171063        0.6327770060
 C         -2.3809305124       -0.7195838145        0.5922540139
 C         -1.3893319641       -1.8765159947        0.4893269516
 C          0.7274207044        1.2387413059        0.5884271618
 C         -0.1037422980        2.6037790920       -0.9184935094
 C          1.7263051652        1.7435766474       -0.2485697787
 C          3.1204331688        1.3862702401       -0.2513126689
 H         -2.5134761275        1.9561510686       -1.4019887955
 H         -1.9857529937       -0.3671683183       -1.5050221559
 H         -2.0728329477        2.3696060018        1.3006657192
 H         -3.2769718372       -1.1052268701        1.0948601774
 H         -1.8787701791       -2.7131877075       -0.0165820216
 H         -1.0806784228       -2.1950663917        1.4889946243
 H         -4.5328363781        1.2239528663        0.3989589829
 H         -4.2602131185       -0.3535443968       -2.0309380314
 H         -0.8162208861        3.2018485706       -1.4457899280
 H          1.7387447558        0.0511158817        1.8478404476
 H          0.0458381375        0.1142446803        2.1270623806
 H          2.7593558283       -0.8593353212       -0.1630229811
 H          1.0771682689       -3.6316433918       -1.5979529115
 H          3.5446443486        2.9351010470       -1.4705417184
 H          4.9133055191        1.9227773529       -1.0371946497
  37
        -73.92121343
 P          0.8781570257       -1.9673743246       -0.0421932129
 O         -1.7090205382       -0.1236420355        1.2604666250
 O         -3.8113150861        1.8332606319        0.4498767637
 O         -4.3412926867       -0.2592569963       -1.0566409469
 O         -0.5545347606       -1.8101961693       -0.7361195995
 O          1.8377155343       -1.4354927982       -1.1565608127
 O          1.0447802362       -3.5547898445       -0.0202131932
 O          1.0612116196       -1.3566997500        1.2783801322
 O          3.8111785235        1.6325805836        1.1621674513
 N         -0.2593995416        1.2806364588        0.0353468506
 N          1.3479766970        1.4664836682       -1.4866774075
 N          0.9949302374        1.5148747339        2.0796038666
 N          4.1069504280        1.6722056779       -1.0852266137
 C         -2.7291033798        1.3282128618       -0.2779085423
 C         -2.9832405270       -0.1150065232       -0.7617544150
 C         -1.5456619019        1.1494074233        0.6791234001
 C         -2.5047225939       -0.9696290352        0.4357413668
 C         -1.6954748680       -2.1992671187        0.0203118136
 C          0.9175748164        1.4125843766        0.7243157976
 C          0.0793077485        1.3001912946       -1.2962219340
 C          1.9124185714        1.5385825474       -0.2328235545
 C          3.3392215379        1.6204712358        0.0141934695
 H         -2.4865189098        2.0084433735       -1.1035705393
 H         -2.3513873766       -0.3273337692       -1.6317910891
 H         -1.5908263119        1.8827389345        1.4938238078
 H         -3.3665803649       -1.2932865537        1.0332553290
 H         -2.2905508466       -2.8597923641       -0.6127744179
 H         -1.3776629368       -2.7295890385        0.9196736456
 H         -4.6308762171        1.5122314212        0.0344851480
 H         -4.5058115494       -1.0845130018       -1.5320872049
 H         -0.6350660242        1.2111724640       -2.0870420566
 H          1.9630700557        1.4604261890        2.3798979434
 H          0.3872910833        0.8785170408        2.5781338398
 H          1.8131835185       -1.9260761361       -1.9892039575
 H          1.6216255970       -3.8888961231        0.6745706700
 H          3.6540011862        1.6363918224       -1.9821725253
 H          5.1083131897        1.6962570598       -0.9987524606
  37
        -73.92119571
 P          1.0829402763       -2.2841076305       -0.1049469587
 O         -1.6501608044       -0.2565442941        0.8889887510
 O         -3.9091198586        2.0596212740       -0.2137243512
 O         -4.4035636979       -0.4940030381       -0.0579214137
 O          0.3866256537       -0.9794685235       -0.7133799284
 O          0.5706255086       -2.3262078808        1.4008277636
 O          2.5956219912       -1.9104945766       -0.0770135850
 O          0.7783723559       -3.5135618180       -0.8564412639
 O          3.4520007317        0.4054380904        0.7977981311
 N         -0.4920422578        1.6754884956        0.2784065157
 N          1.1545614125        2.6193964308       -0.8848984741
 N          0.7755784877        0.5216856659        1.9772017474
 N          3.9466188069        2.1173317176       -0.6023398926
 C         -2.8379298687        1.2362752536       -0.5314449410
 C         -3.2429969781       -0.2396828221       -0.7981911979
 C         -1.7911737770        1.1178789923        0.6173600194
 C         -2.0223082632       -1.0034214788       -0.2544908446
 C         -0.8920069748       -1.0917482094       -1.3050880794
 C          0.6777509999        1.2227666989        0.8275213750
 C         -0.1268262626        2.5208977430       -0.7464264683
 C          1.7020483821        1.7930211209        0.0742125195
 C          3.0853398834        1.4008636489        0.1225533529
 H         -2.3688414363        1.6530367507       -1.4246027581
 H         -3.3993101074       -0.4234929532       -1.8653556484
 H         -2.1627303337        1.6000655958        1.5311543643
 H         -2.2666271763       -1.9996884834        0.1191504686
 H         -0.9501935422       -0.2623077904       -2.0142538133
 H         -0.9589460487       -2.0436348266       -1.8388725532
 H         -4.5810261986        1.5268707609        0.2487411070
 H         -4.7926451907       -1.3415549988       -0.3117409129
 H         -0.8346999500        3.0739042177       -1.3276827819
 H          1.7014469805        0.1445898328        2.1307984818
 H          0.0111837885       -0.0990870891        2.1992882880
 H          0.6128103940       -3.2014959959        1.8002567810
 H          2.9003201574       -1.0440435666        0.3244781580
 H          3.5906103424        2.8754038085       -1.1600144484
 H          4.9099866612        1.8319985586       -0.6613166725
  37
        -73.92118783
 P         -0.0749376040       -2.7739299593       -0.0482978322
 O         -1.0647099764       -0.1608881046        1.0475550469
 O         -2.4675249499        1.7272715657       -1.5601851723
 O         -4.0206732326       -0.2602002280       -0.8463718851
 O         -1.5647666211       -3.0823999222        0.4383122322
 O          0.3924717471       -4.2105629687       -0.4593547285
 O          0.7435200925       -2.4081374486        1.2528325141
 O          0.0462800301       -1.8404438580       -1.1844675660
 O          4.2620706904        1.5546658647       -0.3085519774
 N          0.0817471534        1.7695547109        0.2968112131
 N          1.3535155670        3.5936756290        0.3953836268
 N          1.7861456694        0.0649041416       -0.0470422589
 N          4.1248074541        3.7924782074        0.0372176907
 C         -1.7447626960        0.6466267895       -1.0469239196
 C         -2.6691313972       -0.5466835264       -0.6557653792
 C         -1.1475934560        1.0453903512        0.3247674768
 C         -2.3284158573       -0.7762060128        0.8398400209
 C         -2.2887825466       -2.2227885956        1.2995222159
 C          1.3706893687        1.3544444470        0.0811987336
 C          0.1495119532        3.1337777324        0.4789293121
 C          2.1534408953        2.5007938419        0.1518271727
 C          3.5896180816        2.5672939914       -0.0535881589
 H         -0.9503833807        0.3107328837       -1.7165551196
 H         -2.4211922183       -1.4374770377       -1.2381252462
 H         -1.8854637706        1.7127167506        0.8059660127
 H         -3.0857691119       -0.2500982235        1.4424691822
 H         -3.3026330630       -2.6256799281        1.3209257693
 H         -1.8389511582       -2.2513380609        2.2956518480
 H         -2.5415696136        1.6596027433       -2.5230645382
 H         -4.1159514529        0.7065291811       -0.9466017188
 H         -0.7235908867        3.7274036833        0.6541819825
 H          2.7697745002        0.0407884453       -0.3022727152
 H          1.1940559412       -0.5457011237       -0.6026921418
 H          0.3750472267       -4.8851782695        0.2311443472
 H          1.1636226131       -1.5355208105        1.2388104138
 H          3.5163188494        4.5669179993        0.2418343037
 H          5.1125313910        3.9216970040       -0.1000225869
  37
        -73.92113873
 P          0.8314963686       -1.9570732840       -0.3799903980
 O         -1.6870798865        0.0999971212        1.4171888956
 O         -3.2288955703        1.6232789682       -1.3598427739
 O         -4.5677248893        0.0650881691        0.3743589485
 O         -0.7566604151       -1.8168220064       -0.5579288574
 O          1.3694401016       -1.1579027499       -1.6103090049
 O          1.0866632451       -3.4931912558       -0.7117949650
 O          1.3433383063       -1.5490046097        0.9330254315
 O          3.7332041962        1.4373511231        1.4753560650
 N         -0.2330191313        1.2937518643       -0.0123553116
 N          1.4669942414        1.8869048687       -1.3142569294
 N          0.8741260098        1.1276317507        2.1317978002
 N          4.1838606898        1.9701453370       -0.6818080860
 C         -2.4952843571        0.5984464117       -0.7708579559
 C         -3.3745447470       -0.4868198598       -0.1090338092
 C         -1.6005065627        1.0770058345        0.4032512609
 C         -2.4577403237       -1.0240194478        0.9938328720
 C         -1.5660584426       -2.1887580600        0.5501970765
 C          0.8797750033        1.2933562474        0.7844988668
 C          0.1920028218        1.6770964869       -1.2633639058
 C          1.9391618623        1.6448172499       -0.0433889700
 C          3.3398816771        1.6761692606        0.3217238566
 H         -1.8605524798        0.1347889357       -1.5312889874
 H         -3.6646453805       -1.2578699254       -0.8230637825
 H         -1.9815778168        2.0264609905        0.8151412396
 H         -3.0298102870       -1.3570054798        1.8658541577
 H         -2.1827963624       -3.0387024734        0.2514219610
 H         -0.9208721607       -2.4673350189        1.3871423042
 H         -4.1448130862        1.5770733643       -1.0249660995
 H         -4.4045469894        0.5698381794        1.1856939102
 H         -0.4825680568        1.8216942542       -2.0812070762
 H          1.8098531263        0.9523616814        2.4801164905
 H          0.1634879880        0.5027007202        2.4849965247
 H          1.2537195261       -1.5899513790       -2.4672048690
 H          1.7568437952       -3.9222873961       -0.1694224980
 H          3.7955788530        2.1468551418       -1.5923170286
 H          5.1745181345        1.9973507498       -0.5138975332
  37
        -73.92112945
 P          0.3512073858       -2.9811093069        0.4894615285
 O         -1.1101953217       -0.5076771354        0.6375570630
 O         -2.6398670217        2.3801372650       -0.8563944657
 O         -4.1597031330        0.3904950008       -0.0288127541
 O         -1.1256634688       -3.2665540165       -0.0741046517
 O          0.9013286581       -4.4357898209        0.6854934339
 O          0.2279505650       -2.5827720788        2.0038184371
 O          1.1439310831       -2.1018844132       -0.3927291857
 O          3.6382398179        2.0429129147       -1.6382831577
 N          0.0304767739        1.5578151217        0.5327255372
 N          1.4994052266        3.1364039388        1.0724655920
 N          1.0879544562        0.5852420608       -1.4243321830
 N          3.9711463343        3.6868799888       -0.1127296207
 C         -2.0367600459        1.1331346542       -0.7843487107
 C         -3.0298488005       -0.0465683909       -0.7374079352
 C         -1.2361244590        0.9001093047        0.5203885903
 C         -2.2472111423       -1.1331237034        0.0314326311
 C         -1.7599407019       -2.2741165076       -0.8563446596
 C          1.0609204370        1.4512309989       -0.3681828090
 C          0.3635268376        2.5958760994        1.3696214518
 C          1.9692825500        2.4410116294       -0.0198515892
 C          3.2466420641        2.7010447005       -0.6613023317
 H         -1.3536576434        1.0406014313       -1.6329913030
 H         -3.2925109261       -0.3819236359       -1.7432649283
 H         -1.8118536836        1.2934622948        1.3738477825
 H         -2.8675337022       -1.5460016061        0.8375392506
 H         -1.0518609427       -1.8839096373       -1.5928526487
 H         -2.5958719078       -2.7730698169       -1.3475136210
 H         -3.4838535695        2.3392338307       -0.3704100387
 H         -4.9265269492       -0.1655285417       -0.2232174242
 H         -0.2697998903        2.9073597358        2.1744577383
 H          1.9850923440        0.6611737565       -1.8972218652
 H          0.8827854980       -0.3790398510       -1.1738654608
 H          1.2296020155       -4.8631116222       -0.1131627631
 H          0.0606172591       -1.6469865775        2.1513874574
 H          3.5867657477        4.1835486472        0.6729166773
 H          4.8676149926        3.9266631993       -0.4999100944
  37
        -73.92110978
 P          0.5056931357       -2.3249667355       -0.4819277637
 O         -2.1055190551        0.4071482626        1.5979204262
 O         -2.3425021023        1.1645487143       -1.7864273136
 O         -4.1463892430       -0.2937045760       -0.4898338606
 O         -0.1477678526       -1.5192124021        0.7113643446
 O         -0.7343597835       -2.9090740468       -1.2664544211
 O          1.1540396977       -3.6286178045        0.1511569195
 O          1.4336497075       -1.4747384353       -1.2389321813
 O          3.2829438001        2.7989735770       -1.2948828058
 N         -0.1275058146        1.3490651916        0.7421504787
 N          1.8861782427        1.2506487268        1.6686946354
 N          0.3586339236        2.5641322688       -1.2912571087
 N          4.3324545769        2.0843965462        0.5840091062
 C         -1.8322734693        0.3550779014       -0.7734582732
 C         -2.8281530291       -0.7326458497       -0.3076166066
 C         -1.5445616278        1.1398454572        0.5418539831
 C         -2.4539893719       -0.9103435724        1.1672698620
 C         -1.3249218333       -1.9228182605        1.4029124394
 C          0.7302701054        1.9272322149       -0.1516804647
 C          0.6330743393        0.9632755699        1.8150918265
 C          1.9886035343        1.8595665200        0.4357692074
 C          3.2348047794        2.2857244951       -0.1641199878
 H         -0.9027949479       -0.1040552547       -1.1285934394
 H         -2.7273099430       -1.6506587937       -0.8855198835
 H         -2.0305128352        2.1277199156        0.5075262491
 H         -3.3130574144       -1.2143898823        1.7721941277
 H         -1.6418850395       -2.9131161350        1.0757166132
 H         -1.0744905137       -1.9381527114        2.4660539619
 H         -3.3068050960        1.0159047467       -1.8419833646
 H         -4.3822139474        0.3482702990        0.1978656727
 H          0.2021863483        0.4963258617        2.6752212211
 H          1.1561337398        2.7857376001       -1.8747591613
 H         -0.4673573768        2.2390431574       -1.7723019335
 H         -0.5028146835       -3.4746191315       -2.0126502018
 H          2.0798252524       -3.5370270466        0.3979270899
 H          4.2229476645        1.6410533337        1.4796699277
 H          5.2387584054        2.3209961884        0.2192681083
  37
        -73.92110037
 P          0.8976202506       -2.1996896985       -0.4712684410
 O         -2.1018739549        0.0308616601        1.6428393225
 O         -2.7555025606        1.8782790467       -1.2163601372
 O         -4.4521224178        0.0761838333       -0.2424295953
 O         -0.5370667901       -1.5498843851       -0.2956568470
 O          0.6277187596       -3.6275476153       -1.1298092297
 O          1.3159478686       -2.5760721547        0.9988758416
 O          1.7821623063       -1.3365309607       -1.2622444729
 O          3.0448329984        2.9217840698       -1.2046491527
 N         -0.1772458418        1.1057296547        0.8298600491
 N          1.9225520989        0.5980608473        1.3373174268
 N          0.1548058022        2.8893824958       -0.7682363654
 N          4.2743597436        1.6203585722        0.1872482897
 C         -2.1606389089        0.7636683131       -0.6281561300
 C         -3.1473809041       -0.4067762660       -0.3999801674
 C         -1.6231389327        1.0487125778        0.8066354708
 C         -2.5894006009       -1.0643473052        0.8681265944
 C         -1.5134887460       -2.1158007002        0.5774301961
 C          0.6077601628        1.8952886605        0.0366202106
 C          0.6775428336        0.3470292744        1.5865196566
 C          1.9200686819        1.5687029812        0.3597919083
 C          3.1069498209        2.0884253492       -0.2846769154
 H         -1.3282355828        0.4324635632       -1.2580189650
 H         -3.1687180131       -1.0864359092       -1.2517334420
 H         -2.0078771088        2.0113980850        1.1767674204
 H         -3.3732017944       -1.5363677870        1.4668603445
 H         -1.9640126394       -2.9867314322        0.0958776647
 H         -1.0356846085       -2.4187073405        1.5102176519
 H         -3.7252508413        1.7664404012       -1.1785757139
 H         -4.5615764713        0.4564454580        0.6431157671
 H          0.3218343240       -0.3379639121        2.3276572768
 H          0.8830760491        3.2477488369       -1.3735895045
 H         -0.7658607753        2.8019536918       -1.1722474537
 H          0.8486271636       -3.6803551089       -2.0649262447
 H          2.2025602345       -2.9407535411        1.0920810010
 H          4.2440390162        0.8954540786        0.8829765741
 H          5.1335347515        1.8701521613       -0.2715200458
  37
        -73.92107726
 P          0.2458688979       -2.3763911544       -0.8166670621
 O         -2.0868271590        0.2634101658        1.6273733448
 O         -2.2422519948        1.4871906112       -1.6196121139
 O         -4.1109743663       -0.1045608379       -0.6117986012
 O         -0.1957304440       -1.7037924104        0.5624565457
 O          1.2346939724       -3.5480104326       -0.4410404752
 O          1.1274448034       -1.1982865659       -1.3929390797
 O         -0.8613508460       -2.8472696753       -1.6591288781
 O          3.3964828075        2.8986260388       -0.8516911816
 N         -0.0621108105        1.2319346279        0.9233665014
 N          1.9432529314        0.9284239693        1.8202362762
 N          0.4658188983        2.7359910653       -0.8928899888
 N          4.4163523275        1.8622796029        0.8896049566
 C         -1.7764007623        0.5250285837       -0.7250792490
 C         -2.8075402530       -0.5878049678       -0.4351729723
 C         -1.4831335767        1.1104600592        0.6875376991
 C         -2.4907419370       -0.9619996174        1.0159194754
 C         -1.4372105119       -2.0690016069        1.1486534162
 C          0.8144650833        1.9231740744        0.1335282949
 C          0.6824400876        0.6558674459        1.9198792280
 C          2.0689554464        1.7236951379        0.7002304025
 C          3.3287724115        2.2164032227        0.1850582862
 H         -0.8600938987        0.0834729901       -1.1276009959
 H         -2.6910814605       -1.4298517741       -1.1184594481
 H         -1.9295359352        2.1126698331        0.7837699702
 H         -3.3853846192       -1.2941311003        1.5512222193
 H         -1.8215699812       -2.9758380642        0.6752783019
 H         -1.2375462259       -2.2484608059        2.2074974845
 H         -3.1984817820        1.3423160880       -1.7552623097
 H         -4.3637485802        0.4561803569        0.1386388446
 H          0.2350582080        0.0661421580        2.6914056810
 H          1.2671371487        3.0470031860       -1.4269640274
 H         -0.3766032355        2.5324255951       -1.4096287475
 H          1.9585992153       -3.3287949532        0.1599732202
 H          1.5393641887       -1.3814525341       -2.2455172894
 H          4.2849179938        1.3318031811        1.7336232736
 H          5.3254787070        2.1839232176        0.6059417068
  37
        -73.92102510
 P          0.1909990391       -2.6574331216        0.4385339612
 O         -0.9254333959       -0.4716849691       -0.3540387677
 O         -3.2157865877        1.7338267385        0.8996819607
 O         -4.4730794468       -0.1049724728       -0.4467403547
 O         -1.0655379090       -3.1619529602       -0.4343846552
 O          1.2457144285       -1.9597491064       -0.4938629752
 O          0.8592107536       -4.0766178594        0.6600298203
 O         -0.0853494005       -1.9418223990        1.6977314209
 O          4.1567953994        1.9138940394        0.9055519252
 N          0.0730877421        1.5980144804       -0.1715022841
 N          1.4788888060        2.8501987711       -1.3470271215
 N          1.5140017513        0.8056486936        1.5959149199
 N          4.2130752773        3.2811564922       -0.9030868085
 C         -2.4683579386        1.3232028217       -0.2094397840
 C         -3.1393334624        0.0406068203       -0.7943442016
 C         -1.0573247708        0.8195534112        0.2142554908
 C         -2.2031481021       -1.0605302653       -0.2499744673
 C         -2.1110569960       -2.3761281546       -0.9872402363
 C          1.2967344290        1.4862257726        0.4428026831
 C          0.2656113913        2.4113695817       -1.2645381830
 C          2.1602934651        2.2915278465       -0.2872737203
 C          3.5784007474        2.4764024679       -0.0378118986
 H         -2.4059899919        2.1101353392       -0.9629296726
 H         -3.0821452812        0.0463027492       -1.8872844440
 H         -1.0531605833        0.7274505847        1.3145114788
 H         -2.4333641741       -1.2525702512        0.8096452840
 H         -1.8878761044       -2.1944994411       -2.0425926554
 H         -3.0325648709       -2.9518199673       -0.8858832130
 H         -3.0704334617        2.6691583860        1.0957287886
 H         -4.6179572685        0.3273011408        0.4142235250
 H         -0.5111621334        2.6563278186       -1.9576912341
 H          2.5024318525        0.7627190457        1.8168049335
 H          1.0170055727       -0.0695724235        1.7143236530
 H          1.6459183326       -2.5434586884       -1.1496659341
 H          0.4666754428       -4.6146630908        1.3540521195
 H          3.6825706035        3.6953029097       -1.6503935450
 H          5.1997803522        3.4468850692       -0.8033484859
  37
        -73.92102438
 P          0.4898502779       -2.3612568238       -0.4864678887
 O         -2.0616517174        0.3648194224        1.6166375126
 O         -2.2918929504        1.1764334016       -1.7804031796
 O         -4.1115662790       -0.1862910086       -0.4829446780
 O         -0.1692964332       -1.5737674533        0.7149994879
 O         -0.7454813291       -2.9418554955       -1.2822902504
 O          1.1404816955       -3.6718172945        0.1308851550
 O          1.4177647775       -1.5011600615       -1.2322078347
 O          3.2579355398        2.8939247914       -1.2817709614
 N         -0.1130179870        1.3429623862        0.7505830204
 N          1.9121280939        1.2485701444        1.6528878689
 N          0.3343165686        2.6139619690       -1.2574549731
 N          4.3326475799        2.1535915422        0.5727027583
 C         -1.8216482737        0.3558811101       -0.7601711822
 C         -2.8269119427       -0.7267320866       -0.3174237583
 C         -1.5315781569        1.1207776428        0.5656129527
 C         -2.4609276155       -0.9269214087        1.1622369482
 C         -1.3610437122       -1.9755119593        1.3836560792
 C          0.7265445326        1.9569485737       -0.1364166013
 C          0.6646066370        0.9392872217        1.8041307198
 C          1.9922867764        1.8922478673        0.4357817563
 C          3.2261704588        2.3536960243       -0.1629379618
 H         -0.8952633532       -0.1093456229       -1.1134129399
 H         -2.7024261578       -1.6444805320       -0.8970183998
 H         -2.0339111091        2.1006330766        0.5542961230
 H         -3.3306207647       -1.1991830562        1.7666113974
 H         -1.6913349806       -2.9507978787        1.0258560535
 H         -1.1224504156       -2.0239714339        2.4483138982
 H         -3.2586687865        1.2600581619       -1.6871178765
 H         -4.7852964722       -0.8734068817       -0.3866538586
 H          0.2491674925        0.4418791966        2.6546994839
 H          1.1224022974        2.8619759957       -1.8429484669
 H         -0.4915907740        2.2847099933       -1.7371422420
 H         -0.5058167534       -3.4902111926       -2.0388415560
 H          2.0630767158       -3.5778681965        0.3883592573
 H          4.2362763594        1.6892316440        1.4591637281
 H          5.2320377351        2.4161375165        0.2086967895
  37
        -73.92100948
 P          0.5469447101       -2.3041082013       -0.4208522694
 O         -1.8925471976        0.4508293667        1.4689150920
 O         -3.7333503500        1.4449542175       -0.6907153593
 O         -2.6826380106       -0.9051637497       -1.7579819551
 O         -0.1650212607       -1.9168084032        0.9744446455
 O          1.6366761509       -3.3596710530        0.0093791972
 O          1.3830884389       -1.0644060946       -0.8494537241
 O         -0.4267903075       -2.7607763071       -1.4315184655
 O          3.3110921537        0.1412798879        0.3871058129
 N         -0.3932009750        2.0364927004        0.5589618469
 N          1.3010116082        2.9543591860       -0.5635791356
 N          0.8229705342        0.5054214362        1.9754699906
 N          4.0486752997        2.1058706316       -0.4725738750
 C         -2.3495078518        1.2584171650       -0.6981083658
 C         -1.9569997195       -0.2260164328       -0.7808871373
 C         -1.7802833116        1.6169082903        0.6914358191
 C         -2.2635932020       -0.6681892102        0.6584283109
 C         -1.5750039107       -1.9558809106        1.0997075499
 C          0.7332286550        1.3496356921        0.9292996219
 C          0.0298571417        2.9971497337       -0.3396361540
 C          1.7819006363        1.9091786440        0.1951161305
 C          3.0965646916        1.3359221352        0.0522899118
 H         -1.8793607816        1.8457719070       -1.4965314663
 H         -0.8781159884       -0.2869746041       -0.9674518756
 H         -2.3648866090        2.4174633882        1.1624592196
 H         -3.3483910500       -0.8203496328        0.7523244483
 H         -1.9786315346       -2.7682126818        0.4905462647
 H         -1.7760231983       -2.1363329779        2.1571837720
 H         -4.1163260635        0.9163015504       -1.4094648678
 H         -2.1863251990       -1.7007248857       -2.0101795843
 H         -0.6438177047        3.7064593362       -0.7734514885
 H          1.6653463106       -0.0503833131        1.9956534951
 H         -0.0282972019        0.0653081658        2.2890697156
 H          1.3259926210       -4.2634436021        0.1292878599
 H          2.1671477320       -0.7651326302       -0.2882729422
 H          3.8009380844        3.0300734588       -0.7843062742
 H          4.9530227498        1.7131050642       -0.6770433635
  37
        -73.92100836
 P          0.0598162230       -2.7748387414        0.1415300217
 O         -1.1118512962       -0.2780063384        1.0493427108
 O         -2.7899798867        1.9512285855       -1.0101166755
 O         -3.9319451144       -0.3922276477       -1.1194684469
 O         -1.4987192066       -3.0662848091        0.2224296595
 O          0.6191101085       -4.2210419565       -0.1647165026
 O          0.4908875438       -2.5218243245        1.6291239693
 O          0.4758146942       -1.7948587749       -0.8830432625
 O          3.8641642635        2.0432403851       -1.4759399238
 N          0.1354099149        1.6509129266        0.5063952101
 N          1.7208808157        3.0103772243        1.2775097097
 N          1.2000417045        0.8408733201       -1.5304404422
 N          4.2673425920        3.4769482981        0.2344014304
 C         -1.8563299342        0.9112806340       -0.8737549895
 C         -2.5897018641       -0.4601842810       -0.7632543861
 C         -1.1491915336        1.0314835245        0.5005661997
 C         -2.3715870418       -0.8361484317        0.7213338108
 C         -2.3879352716       -2.3211066105        1.0318103429
 C          1.1912243445        1.5495930091       -0.3673359407
 C          0.5343741209        2.5419989179        1.4781346898
 C          2.1667514942        2.4105296269        0.1207424732
 C          3.4870528643        2.6244202332       -0.4453878920
 H         -1.1249225141        0.9036091532       -1.6789047534
 H         -2.1038897620       -1.2078035096       -1.3962018039
 H         -1.8025145902        1.6550085251        1.1375553589
 H         -3.1554746297       -0.3513525428        1.3251295813
 H         -3.3800528513       -2.7246444565        0.8214843401
 H         -2.1233702901       -2.4640915112        2.0821821497
 H         -2.6808438056        2.4054080910       -1.8561924026
 H         -4.2251384279        0.5318147976       -0.9979095392
 H         -0.0979041327        2.8064268265        2.3003629019
 H          2.1242724045        0.8866581455       -1.9516579421
 H          0.8489025440       -0.1107696041       -1.4553626315
 H          0.6742812899       -4.4493945850       -1.0976773038
 H          1.4266544693       -2.3433959094        1.7663792511
 H          3.8941861252        3.9115570243        1.0613231674
 H          5.1984193459        3.6746751101       -0.0895299900
  37
        -73.92098554
 P         -1.2421166663       -4.0335637857       -0.2236208493
 O         -0.4540326548        0.3422830992        1.2060256211
 O         -2.0756447695        1.3816271847       -1.6930729374
 O         -2.4788041781       -1.1440601211       -1.2658366428
 O         -1.3523560238       -3.1745648929        1.1437216458
 O         -2.6375063606       -3.8701592850       -0.9380739973
 O         -1.2877788411       -5.5154616177        0.2741079247
 O         -0.0404405041       -3.7082271286       -1.0060772589
 O          4.4187630643        2.9025480533        0.1186079278
 N          0.2283336572        2.4084472758        0.3932503096
 N          1.1557733249        4.4192411194        0.5339262317
 N          2.1572992169        1.0272671505       -0.0545180781
 N          3.8753022089        5.0881878790        0.3966299626
 C         -0.9753080621        0.7839006215       -1.0688413005
 C         -1.2463005968       -0.7198763236       -0.7630683425
 C         -0.7861078281        1.4061729313        0.3391106694
 C         -1.1873989500       -0.7928355189        0.7820634069
 C         -0.5181763234       -2.0525129151        1.3251996273
 C          1.5764521168        2.2213162416        0.2327898680
 C          0.0456305599        3.7584107946        0.5761517862
 C          2.1457247483        3.4845630805        0.3210424360
 C          3.5642278734        3.7908734955        0.2650058556
 H         -0.0547343823        0.9047590250       -1.6428954140
 H         -0.4708542812       -1.3557628723       -1.1986482895
 H         -1.7386778014        1.8724774318        0.6385642166
 H         -2.2152457101       -0.7433996852        1.1739170793
 H         -0.3565859916       -1.9448322630        2.3997533933
 H          0.4366289079       -2.2172806073        0.8176276674
 H         -1.9323296756        1.4563490745       -2.6471231767
 H         -3.0278153857       -0.3476512266       -1.4205281236
 H         -0.9223073371        4.1892354385        0.7264931703
 H          3.1670981079        1.0709519926        0.0195627244
 H          1.7190201915        0.2155853685        0.3565004663
 H         -2.7995737770       -2.9766700961       -1.2873655637
 H         -2.0936487109       -5.7707564850        0.7414349066
 H          3.1275047884        5.7489138796        0.5232727918
 H          4.8376187625        5.3793667768        0.3838234781
  37
        -73.92096169
 P         -0.2943739725       -3.4172513048       -0.6841965422
 O         -1.6763368344        0.4411660594        1.6004943563
 O         -1.9701495694        1.4175400562       -1.6853403274
 O         -3.6052738797       -0.4556727358       -0.5968885817
 O         -0.7923397691       -3.0419593629        0.8064871790
 O         -1.5798948712       -3.8623535586       -1.4581581700
 O          0.4715688662       -4.7790099302       -0.4795976791
 O          0.4503726311       -2.3232061813       -1.3251464144
 O          3.1815557150        4.0709743724       -0.9327079696
 N          0.1766132252        1.6659076889        0.8166948450
 N          2.2070008733        1.7829530607        1.7018599760
 N          0.3563175535        3.2667082344       -0.9783582785
 N          4.4042951829        3.2846181852        0.8086234301
 C         -1.3761189654        0.5513789262       -0.7628961828
 C         -2.2423600783       -0.6736672758       -0.3870002433
 C         -1.2005450100        1.2881143238        0.5895267128
 C         -1.8757470575       -0.8745953976        1.0902534941
 C         -0.6120988907       -1.7258678812        1.2815975318
 C          0.8800371880        2.5468212527        0.0401589066
 C          1.0341919798        1.2451341896        1.8022702545
 C          2.1522061026        2.6092863802        0.5998342490
 C          3.2707131929        3.3804095310        0.0961577689
 H         -0.3993642114        0.1958950944       -1.1246688064
 H         -1.9833836745       -1.5406508145       -0.9949074113
 H         -1.8033695254        2.2091889172        0.5890813225
 H         -2.7038271910       -1.3159867748        1.6515830836
 H         -0.3862697257       -1.8022787055        2.3474894980
 H          0.2260903035       -1.2583695864        0.7571864642
 H         -2.3475544093        0.9118821737       -2.4211446448
 H         -3.9105716668        0.2974571382       -0.0677114810
 H          0.7269537027        0.5657075997        2.5685002099
 H          1.0598182638        3.7555209052       -1.5161103388
 H         -0.4375249016        2.8936119929       -1.4780393322
 H         -2.0163225634       -4.6581609931       -1.1265415261
 H          1.3792714045       -4.7230253194       -0.1616585739
 H          4.4061799996        2.7040418950        1.6294978157
 H          5.2252317476        3.7860754948        0.5168436289
  37
        -73.92096153
 P         -0.2286888976       -2.8409340597       -0.7882087542
 O         -0.8879301939       -0.7386107644        1.1247164537
 O         -2.2281385565        2.0224044313       -0.5527293897
 O         -3.9825861421        0.0486722188       -0.3919476059
 O         -1.6916679745       -3.2203110638       -0.2404908248
 O          0.0074022103       -4.0808221641       -1.7346029279
 O          0.7898139958       -2.9919871263        0.4104109831
 O         -0.0777344522       -1.5714816364       -1.5049934466
 O          2.8569411685        4.5520419798        0.2364689251
 N          0.5792352783        1.0063214774        0.6036343830
 N          2.7821083232        0.9312340286        0.3840074115
 N          0.1890793394        3.3875174762        0.6986423545
 N          4.5733936128        3.0726149263        0.1262330363
 C         -1.6274731036        0.7576937879       -0.5438644026
 C         -2.6621282850       -0.3960443234       -0.4182817185
 C         -0.7869842386        0.6090159201        0.7475475227
 C         -2.2384052779       -1.1077655924        0.8890018626
 C         -2.3394584241       -2.6216592124        0.8660581880
 C          0.9999270858        2.3087570013        0.5422124094
 C          1.7022784023        0.2269083016        0.4951178585
 C          2.3801762855        2.2514752230        0.4089112348
 C          3.2744474458        3.3822447387        0.2571201325
 H         -0.9795075690        0.5986877005       -1.4110627454
 H         -2.5714618275       -1.0811698319       -1.2631089665
 H         -1.2452860853        1.2520654003        1.5236070134
 H         -2.8661865081       -0.7306390673        1.7121678096
 H         -3.3873009748       -2.9176971632        0.7835429913
 H         -1.9039245935       -3.0036914427        1.7931904457
 H         -2.6713444982        2.1651019022       -1.4031659296
 H         -4.0327605794        0.8779514091        0.1145016130
 H          1.6504372793       -0.8396951531        0.5015760248
 H          0.6735886859        4.2529823086        0.4932202048
 H         -0.7528918225        3.3084885408        0.3403183964
 H         -0.5572872219       -4.8532988458       -1.6048727798
 H          0.9160261021       -3.8766276255        0.7766409561
 H          4.8337533673        2.1013699660        0.1391715513
 H          5.2549441895        3.8006411620       -0.0007345384
  37
        -73.92095898
 P          0.5866450372       -1.7489318474       -0.3526310162
 O         -1.3646016066        0.0706645131        1.2315023096
 O         -3.3911546599        1.7103752583       -1.0509746078
 O         -4.1245926277       -0.7622386138       -0.6865707125
 O         -0.6789107036       -2.6199981400        0.0952412089
 O          1.3682100334       -2.8450459721       -1.1753763109
 O          1.3888142006       -1.5105887585        0.9826299453
 O          0.2991858644       -0.5835394910       -1.2016432179
 O          3.4592170444        0.1340321265        0.8412646721
 N         -0.2488432311        1.8284178510        0.2457779645
 N          1.4658005927        2.4159591645       -1.0498738075
 N          0.9363091534        1.0346791243        2.1930521268
 N          4.2099091468        1.6637623994       -0.6543186373
 C         -2.3076196989        0.8713884156       -0.8063626384
 C         -2.7366911463       -0.6097711217       -0.5838215937
 C         -1.5533575070        1.2589694654        0.4951026153
 C         -2.3029882527       -0.9178286168        0.8557292850
 C         -1.6560247451       -2.2842336954        1.0635364834
 C          0.8860143203        1.4167944528        0.8943124125
 C          0.1818475325        2.4253313885       -0.9201523668
 C          1.9494840303        1.7463445154        0.0577603728
 C          3.2549718130        1.1419101674        0.1179586936
 H         -1.6175396559        0.9290555760       -1.6515992721
 H         -2.1939611952       -1.2537409630       -1.2789184683
 H         -2.1712940078        1.9696002074        1.0709400085
 H         -3.1900840767       -0.8484700065        1.5041376140
 H         -2.4113397146       -3.0685477949        0.9842257554
 H         -1.1973073297       -2.2944551856        2.0555728204
 H         -4.2011152308        1.2516470798       -0.7510545808
 H         -4.3754059720       -0.9827986012       -1.5950431919
 H         -0.4970153244        2.8786664114       -1.6125889345
 H          1.8166377993        0.6124263984        2.4530044098
 H          0.1159591433        0.5729817164        2.5544822806
 H          1.5905825900       -3.6498548044       -0.6913697733
 H          2.1993673793       -0.9216117504        0.9236571255
 H          3.9558262752        2.4074568421       -1.2828847809
 H          5.0930899876        1.1887929017       -0.7446021633
  37
        -73.92095689
 P          0.8830409760       -2.2283781092       -0.4722947200
 O         -2.0609218549       -0.0134185332        1.6407906553
 O         -2.7160235104        1.8857168982       -1.2127468434
 O         -4.4128798309        0.1699106658       -0.1983259830
 O         -0.5576714977       -1.5874599340       -0.3177082337
 O          0.6279180228       -3.6619840855       -1.1255166045
 O          1.2899180737       -2.5945976451        1.0039608985
 O          1.7720741450       -1.3659147299       -1.2588988250
 O          3.0295930675        2.9865983069       -1.1877934171
 N         -0.1664388906        1.1026934607        0.8299005625
 N          1.9413885382        0.6134722823        1.3233021082
 N          0.1389427794        2.9095039067       -0.7479267240
 N          4.2763167861        1.6810889366        0.1849366514
 C         -2.1550939442        0.7610311675       -0.6168306705
 C         -3.1491909271       -0.4002931676       -0.4046681444
 C         -1.6128881987        1.0260416790        0.8196587908
 C         -2.5931118401       -1.0791760916        0.8594567507
 C         -1.5436426357       -2.1521850888        0.5462594896
 C          0.6057198803        1.9125355982        0.0448299917
 C          0.7001075527        0.3442267708        1.5729543784
 C          1.9234692274        1.5972178157        0.3587915419
 C          3.1024338692        2.1413574596       -0.2792921365
 H         -1.3267602557        0.4270605038       -1.2490838430
 H         -3.1484028518       -1.0796717079       -1.2617703136
 H         -2.0120831358        1.9741346637        1.2110823751
 H         -3.3815376713       -1.5280172615        1.4694425586
 H         -2.0098998466       -3.0051428867        0.0476257975
 H         -1.0710197053       -2.4816129688        1.4724078000
 H         -3.6493165902        1.9469959253       -0.9400130671
 H         -5.0996971390       -0.5106132498       -0.2029539365
 H          0.3535820798       -0.3548639408        2.3051679183
 H          0.8605252747        3.2842149449       -1.3511622660
 H         -0.7839005754        2.8171528640       -1.1469347158
 H          0.8684459107       -3.7209987621       -2.0554432734
 H          2.1901941028       -2.9205039722        1.1085133392
 H          4.2552926972        0.9454859660        0.8697199038
 H          5.1322627120        1.9509084557       -0.2683886108
  37
        -73.92095479
 P          0.5115164928       -2.5832359685       -0.0241346443
 O         -1.3988356598       -0.5383814678        0.7143285132
 O         -3.5117420052        1.7917595405        1.0484010674
 O         -4.3942579494        0.0366756270       -0.6651444884
 O         -0.7777578122       -2.7474223233       -0.9827508605
 O          1.3080281794       -3.8932720311       -0.3462224041
 O          0.0099811327       -2.8714198143        1.4510752272
 O          1.2782847954       -1.3543559628       -0.2578008629
 O          3.9260770228        2.3250697572        1.1608211312
 N         -0.0649467267        1.3497356980        0.1659532664
 N          1.4070702066        1.9094328163       -1.4081626291
 N          1.3587755904        1.4200402637        2.1297761145
 N          4.1110636367        2.6087568751       -1.0810577637
 C         -2.5481645839        1.4479255375        0.1007613105
 C         -3.0314679784        0.2990830632       -0.8320297432
 C         -1.2782566208        0.8688585221        0.7699177578
 C         -2.2367674199       -0.9356742813       -0.3642130634
 C         -1.4017956711       -1.5792319858       -1.4716382566
 C          1.1293022202        1.5656913997        0.8061857751
 C          0.1857077159        1.5616634340       -1.1728056558
 C          2.0362266695        1.9235919816       -0.1841146339
 C          3.4228271391        2.2850471480        0.0249724920
 H         -2.2995531111        2.3588848456       -0.4502152721
 H         -2.7930862124        0.5245564644       -1.8762739756
 H         -1.2578344527        1.1412253421        1.8311031214
 H         -2.9293483574       -1.6877684517        0.0321090578
 H         -0.6299604803       -0.8816858577       -1.8104597165
 H         -2.0357516172       -1.8956098223       -2.3011561409
 H         -4.1388431244        1.0508898061        1.1428872024
 H         -4.9276065381        0.6882412252       -1.1445595702
 H         -0.5697151210        1.4736075808       -1.9254923811
 H          2.2789172086        1.7480172919        2.3967512002
 H          0.6075680861        1.5643380067        2.7835086206
 H          0.8436450010       -4.7202293109       -0.1633135942
 H         -0.4035785909       -2.1202550686        1.8878070994
 H          3.6545603645        2.5146752614       -1.9718718672
 H          5.0894461837        2.8307630209       -1.0141450392
  37
        -73.92093189
 P          1.1111051126       -2.3175416725        0.1520336538
 O         -1.8554980594        0.3387493895        1.3656109189
 O         -4.0860814818        1.7346719384        0.0317020517
 O         -3.9124556016       -0.5333338519       -1.3683055471
 O         -0.2448204347       -1.5222075668       -0.2504050877
 O          2.2106939228       -1.5641742362       -0.6509692441
 O          0.9746057665       -3.7090720504       -0.5861156595
 O          1.2592688996       -2.4747562456        1.6064056130
 O          3.5233712326        0.3846542624        0.3442547654
 N         -0.4578022040        1.8001413439        0.1441527655
 N          1.1373303618        2.6182234828       -1.1735871700
 N          0.8711626414        0.5685684847        1.7354972215
 N          3.9143425631        2.1633977183       -1.0029668667
 C         -2.8264653225        1.4036614130       -0.4750554061
 C         -2.7086715079       -0.0952269428       -0.8130377185
 C         -1.7962622506        1.5474285699        0.6566995885
 C         -2.3809354131       -0.7173273570        0.5614266530
 C         -1.4026326151       -1.8889918781        0.4885948780
 C          0.7187417410        1.2583285520        0.5875514423
 C         -0.1275824952        2.6194690980       -0.9144229028
 C          1.7086581860        1.7570586688       -0.2634237737
 C          3.1010421343        1.3941527474       -0.2810199272
 H         -2.5925432046        2.0258986456       -1.3455217046
 H         -1.8586351969       -0.2448621890       -1.4897198724
 H         -2.0866220873        2.3499680576        1.3477148140
 H         -3.3036107795       -1.0662191703        1.0423238302
 H         -1.8833794220       -2.7435174317        0.0054800729
 H         -1.1003579803       -2.1811026539        1.4983594997
 H         -4.7561381470        1.2533019161       -0.4826073267
 H         -3.8107208313       -1.4078222716       -1.7661239515
 H         -0.8462185453        3.2133297184       -1.4378592892
 H          1.7438433892        0.0730316758        1.8388620607
 H          0.0516899645        0.1366597993        2.1341768338
 H          2.7478638946       -0.8614252862       -0.1616797270
 H          1.1181430170       -3.6798668615       -1.5406375373
 H          3.5167725822        2.9335210986       -1.5150815774
 H          4.8866303283        1.9182198526       -1.0920006296
  37
        -73.92092855
 P          0.2057621974       -2.4921412713       -0.8483082339
 O         -2.0262204647        0.2384260832        1.6218221521
 O         -2.1880052010        1.5058464782       -1.6148242257
 O         -4.0845957928       -0.0572296432       -0.6088856771
 O         -0.2123448066       -1.7789154369        0.5168046569
 O          0.6205721279       -3.9489827639       -0.3772971329
 O          1.5264546814       -1.7298570311       -1.2086015422
 O         -0.8119004536       -2.4791939353       -1.9096560027
 O          3.3443387693        3.1876257222       -0.7573595387
 N         -0.0180667686        1.2369272867        0.9103589486
 N          2.0059650113        0.9634302937        1.7717442905
 N          0.4220926615        2.8747332331       -0.8094293503
 N          4.4272762208        2.0702675953        0.8935559311
 C         -1.7376910724        0.5266385303       -0.7311492483
 C         -2.7898853610       -0.5671895013       -0.4468952052
 C         -1.4380051184        1.0980264235        0.6844925217
 C         -2.4745335199       -0.9663506943        0.9985864715
 C         -1.4554595425       -2.1055763956        1.1234633595
 C          0.8201514555        2.0181518725        0.1632711925
 C          0.7590934408        0.6280248232        1.8607768395
 C          2.0866772038        1.8381774654        0.7083517705
 C          3.3186708027        2.4265133847        0.2243588153
 H         -0.8296792216        0.0670579894       -1.1407302169
 H         -2.6911982292       -1.3968630507       -1.1471005387
 H         -1.8919973363        2.0964566878        0.7899792523
 H         -3.3777140465       -1.2732628558        1.5351823063
 H         -1.8735144291       -3.0061974530        0.6698412438
 H         -1.2444997566       -2.2826003521        2.1808009768
 H         -3.1441780766        1.3700748521       -1.7611840811
 H         -4.3165773734        0.5091500389        0.1439911050
 H          0.3453234616       -0.0326024504        2.5922393106
 H          1.2042714445        3.2570692152       -1.3258606071
 H         -0.4013591180        2.6424630840       -1.3457187996
 H          0.4655274057       -4.6461249369       -1.0243045622
 H          2.2825495235       -1.9330860724       -0.6441657626
 H          4.3283385803        1.4727893969        1.6963203344
 H          5.3181443513        2.4532473986        0.6286437500
  37
        -73.92092390
 P          0.1483469160       -2.3291158054       -0.5057008635
 O         -1.0793885861       -0.2666019907        1.0185242504
 O         -2.9408716134        1.8631288841       -1.0429653598
 O         -4.3268270575       -0.2385414094       -0.2856568398
 O         -1.2782304706       -2.9029612244       -0.0870413663
 O          0.7172262717       -3.5643493619       -1.3050026217
 O          0.9395935219       -2.2780203793        0.8738471266
 O          0.2046760254       -1.1249532160       -1.3450152995
 O          4.0344348949        1.6785775386        1.4716233731
 N          0.0574867138        1.5212286124        0.0499970727
 N          1.6323426602        2.6107030713       -1.0743488300
 N          1.2770373871        0.8825897662        2.0380756988
 N          4.3378037588        2.9248882865       -0.3992682197
 C         -2.1368314517        0.7393358623       -0.8338787436
 C         -2.9648467159       -0.5101010211       -0.4138139959
 C         -1.2279463912        0.9845451178        0.3864100510
 C         -2.3186167497       -0.9490522616        0.9213798210
 C         -2.0347385271       -2.4388263848        1.0168247290
 C          1.1986642444        1.4236694534        0.7978672748
 C          0.3914643549        2.2480860494       -1.0666479532
 C          2.1793454181        2.1026311175        0.0839313269
 C          3.5767869905        2.2163624404        0.4486165142
 H         -1.5098074732        0.4985259718       -1.6968619466
 H         -2.8590739009       -1.3063627298       -1.1552801488
 H         -1.7467442214        1.6840929004        1.0700370325
 H         -2.9742639044       -0.6490302921        1.7521573485
 H         -2.9681090113       -3.0031403884        0.9921993911
 H         -1.4837453725       -2.6367745148        1.9389005551
 H         -3.3964672591        1.7879075955       -1.8953130009
 H         -4.4413443470        0.7035349344       -0.0644880792
 H         -0.3194583524        2.5075809022       -1.8214797485
 H          2.2351717959        0.7907773293        2.3530025123
 H          0.6469323719        0.1212826987        2.2385396647
 H          0.6263623568       -4.4305564289       -0.8877783414
 H          1.8572382301       -2.0069911595        0.7824803269
 H          3.9027183450        3.3152604927       -1.2174185789
 H          5.3222438049        3.0304079128       -0.2250105833
  37
        -73.92089985
 P          0.6514887852       -2.0213784735       -0.4045443912
 O         -1.5582483875        0.0425780260        1.3952670110
 O         -3.0329600665        1.5073863173       -1.4829118547
 O         -4.4995992368        0.0690705963        0.2398686622
 O         -0.9482258878       -2.2170836395       -0.4504312739
 O          0.9089240027       -1.0841248093       -1.6291265719
 O          1.2329374689       -3.4120092269       -0.9004492977
 O          1.1497766844       -1.5756095078        0.9012812857
 O          3.8007813589        1.5515021813        1.5058681101
 N         -0.1577142773        1.3340575187        0.0118263802
 N          1.5210659752        2.0216417853       -1.2700315052
 N          0.9554270543        1.1258986773        2.1496487387
 N          4.2313074113        2.2004184684       -0.6234984445
 C         -2.3504726319        0.5078144747       -0.7980914287
 C         -3.2854045539       -0.5241481701       -0.1278813517
 C         -1.5161417200        1.0350791408        0.3957360587
 C         -2.4494026610       -1.0220557767        1.0554482793
 C         -1.6754017222       -2.3116536601        0.7621315494
 C          0.9540672813        1.3401378453        0.8091805533
 C          0.2540682967        1.7679439999       -1.2266712447
 C          2.0008090050        1.7544260982       -0.0061281337
 C          3.3988855784        1.8275188728        0.3632070441
 H         -1.6758560332       -0.0028945394       -1.4922871961
 H         -3.5406585374       -1.3320969235       -0.8145938040
 H         -1.9665971575        1.9604388478        0.7975766432
 H         -3.0749670272       -1.2056776694        1.9365541843
 H         -2.3704670635       -3.1466263216        0.6579233005
 H         -0.9850592462       -2.4851062645        1.5910025637
 H         -3.9674139990        1.4887896645       -1.1991737237
 H         -4.3848590673        0.6275294304        1.0233275682
 H         -0.4276814731        1.9063761150       -2.0397634871
 H          1.8978787387        0.9775245268        2.4926886664
 H          0.2732225692        0.4557250077        2.4745052494
 H          0.9638433522       -1.5485695742       -2.4745515470
 H          1.5688442741       -3.9963968551       -0.2131784125
 H          3.8370042345        2.4066405975       -1.5252153765
 H          5.2192663571        2.2658212197       -0.4501093057
  37
        -73.92089894
 P         -0.7537250832       -3.5482945074       -0.8112514107
 O         -1.0284752013        0.3296829337        1.4811087889
 O         -3.4848508226        1.2135882291        0.1504129919
 O         -2.7763115069       -0.9510095097       -1.2499932919
 O          0.2189246030       -2.2531874742       -0.8046281601
 O          0.1917601632       -4.7229083916       -1.2319688036
 O         -1.6523988206       -3.3595223907       -2.0918552299
 O         -1.4376072039       -3.7772526302        0.4691790926
 O          3.8739785781        2.9888078534        1.9808190800
 N          0.1098722607        2.0239894968        0.3103193471
 N          1.8126871726        2.6370040456       -0.9762850420
 N          1.0708693722        2.2645825506        2.5052551249
 N          4.4176620118        3.3438372396       -0.1933195139
 C         -2.1701930259        1.2394389222       -0.3263714544
 C         -1.7241117022       -0.1820223416       -0.7494495949
 C         -1.1696059052        1.5563726032        0.7885379103
 C         -1.1196142192       -0.7505603608        0.5575163589
 C          0.2485101131       -1.3978025640        0.3186602608
 C          1.1586332124        2.2954761853        1.1540690958
 C          0.5816421925        2.2418921017       -0.9649202134
 C          2.2149930119        2.6809867585        0.3402507993
 C          3.5560050509        3.0195354714        0.7813384741
 H         -2.1579246412        1.9570948497       -1.1456292227
 H         -0.9509806534       -0.1364115300       -1.5222887482
 H         -1.5590408888        2.2852280515        1.5099093486
 H         -1.7822545193       -1.5093305310        0.9854037198
 H          0.5443690351       -1.9533718806        1.2118396806
 H          1.0008250781       -0.6374704364        0.0903043936
 H         -3.5139625625        0.7988656433        1.0271084011
 H         -3.6148102645       -0.5592722977       -0.9361689085
 H         -0.0137838737        2.1143555299       -1.8433763997
 H          1.9737843245        2.3719047874        2.9509013484
 H          0.4496178007        1.5783370341        2.9066659614
 H          0.6118617400       -4.6291847361       -2.0967642131
 H         -2.3059252330       -2.6444846739       -2.0212224922
 H          4.0906918114        3.3437753586       -1.1443644160
 H          5.3670870585        3.5838557214        0.0345855799
  37
        -73.92086968
 P          0.2252869815       -2.6773146031        0.4035500057
 O         -0.9395625933       -0.4856337653       -0.3765223486
 O         -3.0939663124        1.9901601781        0.7064778812
 O         -4.4625979885       -0.1305310147       -0.0938902872
 O         -1.0469617900       -3.1890499294       -0.4412720468
 O          1.2505478603       -1.9683383217       -0.5508545944
 O          0.9092319902       -4.0901031700        0.6100759497
 O         -0.0354165991       -1.9619637668        1.6659692210
 O          4.1113203720        1.9275478855        0.9690387764
 N          0.0579579316        1.5895653581       -0.2215703034
 N          1.4870718638        2.8616730183       -1.3460178813
 N          1.4553423079        0.7959235949        1.5811119980
 N          4.2007254004        3.3119919065       -0.8251742790
 C         -2.4682974760        1.3065100379       -0.3398456015
 C         -3.2099190635       -0.0328502749       -0.6853079228
 C         -1.0833138758        0.8210644142        0.1481620740
 C         -2.1994395975       -1.0964229648       -0.2006371512
 C         -2.1290322378       -2.4152668234       -0.9368028634
 C          1.2634092362        1.4836275236        0.4279125769
 C          0.2745380879        2.4154889811       -1.2996896410
 C          2.1427374284        2.2981831705       -0.2728838519
 C          3.5514201965        2.4935527122        0.0164505766
 H         -2.3692091276        1.9341232505       -1.2276782605
 H         -3.3629819299       -0.1257846917       -1.7630130210
 H         -1.1206042736        0.7750585615        1.2509293945
 H         -2.3587648731       -1.2910264270        0.8718738299
 H         -1.9643796602       -2.2355889832       -2.0032145456
 H         -3.0376401996       -3.0007375094       -0.7841253660
 H         -3.8221849767        2.5315169342        0.3654836633
 H         -4.4093659426        0.2020620770        0.8191016915
 H         -0.4832504686        2.6680772130       -2.0105415010
 H          2.4376653503        0.7593637523        1.8285940840
 H          0.9614782317       -0.0831642758        1.6833378373
 H          1.6207434419       -2.5362506597       -1.2379421747
 H          0.5223948393       -4.6415311874        1.2967136072
 H          3.6834121036        3.7335263195       -1.5776181875
 H          5.1814302084        3.4911671572       -0.6949785904
  37
        -73.92085021
 P         -0.7414616781       -3.6207217153       -0.9608050660
 O         -0.9895422269        0.1926010478        1.3723490483
 O         -3.4071315625        1.4758689548        0.0734443127
 O         -3.1253083242       -0.8098174110       -1.0662897181
 O          0.1778602330       -2.3202177808       -1.0445650796
 O         -0.2302868562       -4.3333444569        0.3578809049
 O         -0.2381193596       -4.4403059983       -2.1923169624
 O         -2.1977433688       -3.3971395540       -0.9986999933
 O          3.7094441348        3.3599527904        2.1865312837
 N          0.1684521847        1.9571189597        0.3431744158
 N          1.9595059507        2.4855230608       -0.8613797339
 N          0.9178946307        2.5310870073        2.5613311216
 N          4.4314037744        3.4720731544        0.0391535532
 C         -2.1119376925        1.2532560609       -0.4017670356
 C         -1.8821925172       -0.2249552934       -0.8085919822
 C         -1.1204534656        1.4541912483        0.7543136537
 C         -1.1358096132       -0.8341734911        0.4029957575
 C          0.2405866062       -1.3956227286        0.0247298497
 C          1.1196714250        2.3954101936        1.2300502617
 C          0.7523163856        2.0226508876       -0.9021345063
 C          2.2297900795        2.7325302580        0.4666641291
 C          3.5021068134        3.2155383482        0.9712340548
 H         -1.9111571746        1.9431182076       -1.2298453585
 H         -1.2417037812       -0.2813860805       -1.6996523303
 H         -1.5408227157        2.1376177520        1.5005882824
 H         -1.7397832195       -1.6256006534        0.8586681228
 H          0.6844365259       -1.8711198770        0.9028364638
 H          0.8942493399       -0.5911488189       -0.3236879008
 H         -3.9704837730        0.7480642122       -0.2480294429
 H         -3.0098702674       -1.7749427467       -1.1701229525
 H          0.2506789085        1.7316335714       -1.8008194557
 H          1.7709396332        2.7540169166        3.0594259073
 H          0.2910322132        1.8771213822        3.0035209043
 H         -0.8251528966       -4.9910597662        0.7352093535
 H          0.7156363008       -4.5753958264       -2.2679477241
 H          4.1932017651        3.3354033169       -0.9281890881
 H          5.3371880451        3.8113516142        0.3136159110
  37
        -73.92083222
 P          0.0141084340       -2.9699661420       -0.5035953988
 O         -0.9487133673       -0.6918463210        1.1394422129
 O         -2.3822573184        2.0127742576       -0.6382726062
 O         -4.0442005135        0.0578796619       -0.2321206599
 O         -1.5744471616       -3.0756330496       -0.4022685642
 O          0.2230023383       -1.6447501923       -1.3686834387
 O          0.3483852979       -4.1532975793       -1.4918382535
 O          0.7694722847       -3.0629820800        0.7493452779
 O          2.7797887805        4.5040423893       -0.2623146837
 N          0.4718409415        1.0704983827        0.6277347918
 N          2.6865241236        0.9874389202        0.6040170429
 N          0.0845862570        3.4191192053        0.2211052928
 N          4.4952740384        3.0550963683        0.0618904034
 C         -1.7375617017        0.7835423531       -0.5263824666
 C         -2.7334034265       -0.4072939378       -0.4017831354
 C         -0.8943075215        0.6632366327        0.7763039464
 C         -2.2680685397       -1.1352612850        0.8783972012
 C         -2.2398544599       -2.6522353445        0.7725072893
 C          0.8957306380        2.3414568532        0.3438496779
 C          1.6012993925        0.3029403841        0.7774069237
 C          2.2844461076        2.2773672193        0.3271291841
 C          3.1902964587        3.3677015690        0.0262936768
 H         -1.0799347310        0.6570825649       -1.3910869919
 H         -2.6375079298       -1.0745135489       -1.2591010988
 H         -1.3671302763        1.2887240952        1.5576180731
 H         -2.9328948556       -0.8394578148        1.7039631069
 H         -3.2502641073       -3.0567757350        0.7084139545
 H         -1.7139281815       -3.0429445776        1.6471420113
 H         -3.2883447900        1.9101472711       -0.2838033210
 H         -4.5543710248       -0.0406202684       -1.0482552790
 H          1.5483840823       -0.7376067486        1.0225216629
 H          0.5794123655        4.2345966132       -0.1173247956
 H         -0.8485249019        3.2692444816       -0.1390183728
 H          1.1518047506       -1.4564857941       -1.5323797974
 H         -0.2049370924       -4.2264936024       -2.2800991835
 H          4.7538864551        2.1178245497        0.3185642303
 H          5.1872082105        3.7594940816       -0.1265596814
  37
        -73.92082802
 P         -0.2066015578       -3.8084850075       -0.7614820014
 O         -0.9261141563       -0.6565302999        0.8262067533
 O         -2.6796770861        2.3263758558        0.2601902110
 O         -3.8028729544       -0.0401084409        0.2112745410
 O          0.2768240289       -2.3069518576       -1.1115059540
 O         -0.4065858826       -3.8987947394        0.7901821940
 O          1.1099584484       -4.6367841622       -0.9990929095
 O         -1.4046862308       -4.1935856577       -1.5224788595
 O          2.5051866097        4.9413509255        0.8307635866
 N          0.4328030388        1.2590737048        0.6718826898
 N          2.5840714296        1.3832646475        0.1517921739
 N         -0.0268296107        3.5266030021        1.3523659973
 N          4.2377512640        3.6494885445        0.1408304155
 C         -1.8842863750        1.2827421018       -0.1973917004
 C         -2.6691062137        0.0195162324       -0.6092030747
 C         -0.9014913380        0.7415586418        0.8840768215
 C         -1.6572986289       -1.0968684607       -0.3114016527
 C         -0.7327084550       -1.3941879949       -1.4950349575
 C          0.7935906457        2.5663394896        0.8564899833
 C          1.5568458830        0.5998824923        0.2431447054
 C          2.1433673839        2.6335989150        0.5309360667
 C          2.9636222787        3.8288135806        0.5226071581
 H         -1.3061129524        1.6636469500       -1.0463843176
 H         -2.9445318046        0.0410218812       -1.6686149934
 H         -1.2260863887        1.0569965324        1.8868768307
 H         -2.1383522082       -2.0353435606       -0.0169052389
 H         -0.2098399251       -0.4987779996       -1.8356496676
 H         -1.3249401668       -1.8287947508       -2.3047168651
 H         -3.4785155824        1.9478448676        0.6691402867
 H         -4.3692896294       -0.7809127498       -0.0425444340
 H          1.5556917651       -0.4464335166        0.0194477417
 H          0.3907461901        4.4473672274        1.2970958647
 H         -1.0089622175        3.4692325934        1.1202953574
 H          0.3961784002       -3.8414582135        1.3220803571
 H          1.3559066099       -4.7922246547       -1.9175991441
 H          4.5400529950        2.7202185883       -0.0962625986
 H          4.8666507014        4.4328845688        0.1036142593
  37
        -73.92082427
 P         -0.3150758355       -3.2487802697       -0.5363794430
 O         -1.2451371587        0.4047015663        1.3982095809
 O         -2.0409226893        1.2844729960       -1.9782544601
 O         -3.7488460121       -0.1983474186       -0.6630388771
 O         -0.2461161796       -2.2306689768        0.7150258068
 O          0.9672077322       -4.1444676179       -0.3551349243
 O          0.0473100390       -2.3896800812       -1.7965808044
 O         -1.6104235284       -3.9417143058       -0.6142992510
 O          4.1480356774        1.6567104873        0.5785065665
 N         -0.0497508021        2.1016869221        0.3626413205
 N          1.2923175860        3.8709109314        0.3191034165
 N          1.5723929162        0.3029304756        0.3832832762
 N          4.0956333071        3.9200241253        0.4375477870
 C         -1.4990598883        0.5358955712       -0.9423248073
 C         -2.4203444960       -0.5978454499       -0.4381855901
 C         -1.2658316863        1.3524743003        0.3551210081
 C         -2.0981123355       -0.6902398757        1.0699541667
 C         -1.4148553699       -1.9930805423        1.4789870226
 C          1.2285616488        1.6125408744        0.4052659756
 C          0.0631420459        3.4705409811        0.3134388217
 C          2.0596929565        2.7275117010        0.3806014175
 C          3.5063426259        2.7150657109        0.4680359073
 H         -0.5427588841        0.1315682734       -1.2848980049
 H         -2.1980315342       -1.5389070580       -0.9457404182
 H         -2.0965891660        2.0642002017        0.4894911089
 H         -3.0299555938       -0.5874753404        1.6425525604
 H         -2.1114337359       -2.8241157108        1.3456809352
 H         -1.0972727061       -1.9187697464        2.5206177558
 H         -3.0120171338        1.2597656610       -1.8924749187
 H         -4.3216475919       -0.9662986921       -0.7870635261
 H         -0.7926176277        4.1116753337        0.2672844111
 H          0.9196327926       -0.3621919541        0.7726958232
 H          2.5525574415        0.1636619810        0.5977139622
 H          0.9027487182       -4.8662986011        0.2794692191
 H          0.9900595563       -2.3370476824       -1.9930427142
 H          3.5129287439        4.7354080123        0.3552645524
 H          5.0957626323        3.9930879827        0.5086420356
  37
        -73.92081773
 P          1.0638175934       -2.2653427153       -0.0770084280
 O         -1.6436198694       -0.2610960372        0.8555671639
 O         -3.9975010377        1.8719814910        0.2596588450
 O         -4.4126059504       -0.6240943276       -0.4474022326
 O          0.4474361812       -0.9359765149       -0.7143427876
 O          0.5145147749       -2.2715037578        1.4160875809
 O          2.5901968184       -1.9500490378       -0.0055316328
 O          0.7338487673       -3.4896014016       -0.8251762628
 O          3.4475170192        0.3970728874        0.8253255693
 N         -0.4844178788        1.6749879160        0.2543350939
 N          1.1681117140        2.5412276593       -0.9596792935
 N          0.7721080982        0.5871734435        2.0023482053
 N          3.9559153800        2.0333341060       -0.6581867290
 C         -2.8980443578        1.3061690958       -0.3917017035
 C         -3.1828079313       -0.1473078141       -0.8969305038
 C         -1.7703344839        1.1273879619        0.6484076521
 C         -1.9798634631       -0.9382913475       -0.3416601756
 C         -0.8129329178       -0.9791020828       -1.3525729907
 C          0.6843690228        1.2450402145        0.8256369151
 C         -0.1135997975        2.4533435305       -0.8206499788
 C          1.7116634627        1.7716544285        0.0468882270
 C          3.0915022417        1.3645167396        0.1071161206
 H         -2.5750645287        1.9367910478       -1.2252874685
 H         -3.2259326026       -0.2000325127       -1.9858337213
 H         -2.0721974246        1.5721270931        1.6059020621
 H         -2.2492347102       -1.9550540703       -0.0478446518
 H         -0.8256549047       -0.1015551151       -2.0042312656
 H         -0.8857995637       -1.8902683767       -1.9519965004
 H         -4.7714712716        1.8478825825       -0.3247255988
 H         -4.4609785784       -0.5517089415        0.5191777064
 H         -0.8116240960        2.9664533449       -1.4478014868
 H          1.6976506514        0.2143813041        2.1708881243
 H          0.0128687667       -0.0387111717        2.2288868147
 H          0.4802502248       -3.1495820948        1.8094952658
 H          2.9024473104       -1.0815823167        0.3788092929
 H          3.6051811196        2.7655505626       -1.2525978850
 H          4.9136354618        1.7289557682       -0.7147368802
  37
        -73.92081699
 P          0.1074691456       -2.6740273774       -0.8710762237
 O         -1.9626044485        0.2565991088        1.6931371005
 O         -2.2474717177        1.5978260892       -1.4963211887
 O         -3.9666964049       -0.1455939920       -0.6279387926
 O         -0.1687829298       -1.8244373889        0.4507248813
 O          1.5942902997       -3.1767917176       -0.7355582814
 O          0.2247611381       -1.5507567471       -1.9653390052
 O         -0.9034498279       -3.7215053937       -1.1109469360
 O          3.3265476914        3.2848226848       -0.7569461332
 N          0.0119570734        1.3041551078        0.9731997212
 N          2.0668318413        0.9841019456        1.7431655145
 N          0.3984051132        3.0004226324       -0.7024531731
 N          4.4589056467        2.1137495145        0.8217898284
 C         -1.7144743618        0.6242526537       -0.6565197381
 C         -2.6508713997       -0.5800321377       -0.4157690856
 C         -1.4146631781        1.1546479078        0.7756898196
 C         -2.3770580903       -0.9469881963        1.0526159345
 C         -1.3494443719       -2.0730440284        1.1996166167
 C          0.8266519295        2.1087876151        0.2250829932
 C          0.8217678872        0.6528674385        1.8660734255
 C          2.1121760718        1.9010214844        0.7134650987
 C          3.3301714136        2.4939712970        0.2017151589
 H         -0.7790952462        0.2784728654       -1.1042026027
 H         -2.3888539942       -1.4123578745       -1.0777638440
 H         -1.8851967834        2.1384256656        0.9255563579
 H         -3.2927628223       -1.2534702301        1.5673906402
 H         -1.7955838306       -3.0120495650        0.8599702755
 H         -1.0519026857       -2.1517289652        2.2472613705
 H         -3.2190961543        1.5622615640       -1.4316203779
 H         -4.5617007643       -0.8982893396       -0.7451691857
 H          0.4329512608       -0.0340066913        2.5869760765
 H          1.1624089143        3.3993000267       -1.2330239102
 H         -0.4497687528        2.7960141959       -1.2105537346
 H          1.7217900953       -3.9984668226       -0.2487874453
 H          0.6071615278       -1.8303620140       -2.8051439528
 H          4.3862243677        1.4709851339        1.5916087695
 H          5.3455346461        2.4811821457        0.5230292501
  37
        -73.92079454
 P         -1.6886575885       -3.9909975223       -0.0421098086
 O         -0.1382681849        0.0264245661        0.9510051636
 O         -1.8014651229        1.6978882357       -1.7519082724
 O         -2.8720021318       -0.4945743967       -0.7942513288
 O         -0.3373393895       -3.3127851552       -0.5488162598
 O         -1.3636614584       -4.3244721301        1.4737969006
 O         -1.6858858071       -5.3290086412       -0.8517674404
 O         -2.9325285999       -3.2271858974       -0.2406846714
 O          4.5085206829        3.0254173313        0.1261811764
 N          0.3684759772        2.2517387824        0.4689513064
 N          1.1677221306        4.3129486771        0.6796204080
 N          2.3803058526        1.0280556032       -0.0897822552
 N          3.8393586910        5.1583812342        0.5115164694
 C         -0.9265297020        0.8261254797       -1.1201034553
 C         -1.4807551460       -0.6012865307       -0.9356798398
 C         -0.6072585613        1.2148196789        0.3483644754
 C         -0.7902693971       -1.0902278977        0.3553230252
 C          0.2355961794       -2.1933004373        0.1012154402
 C          1.7182921797        2.1639738859        0.2555385838
 C          0.1048247508        3.5774526320        0.7158766741
 C          2.2086842087        3.4557790072        0.3959588033
 C          3.6030032865        3.8516168991        0.3263056640
 H          0.0083678174        0.8167109670       -1.6890768604
 H         -1.2292426342       -1.2502797521       -1.7822324510
 H         -1.5303334643        1.5638972734        0.8375934314
 H         -1.5549643526       -1.4647264517        1.0489351558
 H          0.6717742649       -2.5028471881        1.0543675358
 H          1.0191543754       -1.8348466212       -0.5710418435
 H         -2.7098292102        1.3919235541       -1.5779840425
 H         -3.2381912449       -1.3916667345       -0.6909591716
 H         -0.8850577979        3.9359982328        0.9077469469
 H          3.3848201491        1.1506061916       -0.0254843046
 H          2.0062370960        0.1780862171        0.3073874815
 H         -2.1157007698       -4.5869525614        2.0159370810
 H         -0.8737143015       -5.8521683813       -0.8258517656
 H          3.0561447512        5.7677687990        0.6748046071
 H          4.7817026715        5.5080438560        0.4877787212
  37
        -73.92078490
 P         -0.3074550067       -2.8733564270       -0.9835107273
 O         -0.7442782013       -0.7113768382        0.9188757796
 O         -2.4267678866        2.0037875747       -0.5200469026
 O         -4.0498981970       -0.0153797987       -0.0873447162
 O         -1.7301684079       -3.2200486608       -0.3254457942
 O         -0.0823695725       -4.1494170535       -1.8577729001
 O          0.7698785845       -3.0134177962        0.1732479520
 O         -0.2584830650       -1.6490305755       -1.7958381762
 O          3.2087788589        4.1856706190        1.5630697420
 N          0.5289428456        1.1659030896        0.3082055520
 N          2.5425404675        1.3610895920       -0.6054101124
 N          0.6319759013        2.9089033091        1.9996923515
 N          4.5428481634        3.2370411974       -0.0077301432
 C         -1.7748358790        0.7683227091       -0.5974377476
 C         -2.7398516242       -0.4244225590       -0.3316296037
 C         -0.7755098392        0.6614465491        0.5759535277
 C         -2.1038565804       -1.1249242180        0.8951238483
 C         -2.1862074873       -2.6410255223        0.8825554886
 C          1.1460940754        2.2091947332        0.9535692271
 C          1.4285388834        0.7053698023       -0.6274859236
 C          2.4032718149        2.3174621682        0.3771452252
 C          3.4075237803        3.3154509365        0.6997102040
 H         -1.2421458482        0.6265172635       -1.5401844401
 H         -2.7502857033       -1.1080920959       -1.1838476331
 H         -1.1906614932        1.2326073552        1.4226299022
 H         -2.6082526933       -0.7593087740        1.8028775972
 H         -3.2300415119       -2.9465883723        0.9757641883
 H         -1.5965530481       -3.0328081420        1.7160176353
 H         -2.7951137312        2.2436117147       -1.3826397988
 H         -4.0311457050        0.9155702219        0.2049325035
 H          1.1974208955       -0.1081680641       -1.2834619409
 H          1.2310710373        3.6931736547        2.2371613729
 H         -0.3547109709        3.1180535731        1.9824450014
 H         -0.0977762564       -4.9966591059       -1.3943131310
 H          0.9892043342       -2.1914467563        0.6209389551
 H          4.6290348030        2.5074460869       -0.6947711135
 H          5.2821535767        3.8997948361        0.1511725377
  37
        -73.92076195
 P          0.2495682280       -2.6953810159        0.3876454214
 O         -0.9437186248       -0.4936686136       -0.3525540872
 O         -3.1391364241        2.2149203995        0.3065991359
 O         -4.3404425897       -0.1458076194        0.2692703433
 O         -1.0295266187       -3.1998503635       -0.4501564244
 O          1.2554028298       -1.9605961736       -0.5674062727
 O          0.9467635068       -4.1055743075        0.5597894482
 O         -0.0051799931       -2.0030941718        1.6636165794
 O          4.0956968038        1.8821108645        0.9754777333
 N          0.0437461529        1.5954015400       -0.2359200096
 N          1.4725694246        2.9207679978       -1.2966240880
 N          1.4333096056        0.7381821557        1.5436880299
 N          4.1844786431        3.3490239413       -0.7520036941
 C         -2.4739443347        1.2765426335       -0.4711021668
 C         -3.2456654374       -0.0838604501       -0.5955320134
 C         -1.1075091493        0.8333929251        0.1173243437
 C         -2.1933882043       -1.1162792309       -0.1514294043
 C         -2.1325510101       -2.4301406111       -0.9004141588
 C          1.2466449415        1.4645239228        0.4135328574
 C          0.2592637783        2.4749911994       -1.2705564085
 C          2.1279861318        2.3066919604       -0.2510198431
 C          3.5353549630        2.4909046546        0.0495963617
 H         -2.3317195818        1.7264786946       -1.4546643350
 H         -3.5414727912       -0.2649746062       -1.6333916394
 H         -1.1815208198        0.8210012506        1.2194233156
 H         -2.3356970112       -1.3148342036        0.9224763749
 H         -2.0021516799       -2.2397127437       -1.9701021606
 H         -3.0302966082       -3.0255805047       -0.7227178913
 H         -3.5340593373        1.7699883851        1.0769598253
 H         -5.0976237952        0.3206852905       -0.1167601640
 H         -0.5044385980        2.7757377103       -1.9554899293
 H          2.4148942040        0.6880220174        1.7911514757
 H          0.9342813678       -0.1407108207        1.6213386730
 H          1.6207336977       -2.5131559780       -1.2693767722
 H          0.5860259049       -4.6653331750        1.2539710105
 H          3.6658734764        3.8074054307       -1.4817465067
 H          5.1635222163        3.5276668850       -0.6091774286
  37
        -73.92075468
 P          0.1799640100       -2.8207185675        0.1809237686
 O         -1.0816273615       -0.1387005744        1.0188969443
 O         -2.7189771710        1.7721982252       -1.4862934907
 O         -4.1471056890       -0.2348337521       -0.6102080498
 O         -1.4230527967       -2.9702475276        0.1799141094
 O          0.5057991418       -1.7520732836       -0.9358167994
 O          0.6083352534       -4.1970192738       -0.4462489119
 O          0.7547457082       -2.5706799249        1.5103932279
 O          4.2089795712        1.5597257942        0.2109937309
 N         -0.0039803364        1.7958285306        0.1711494595
 N          1.2426680427        3.5404029884       -0.4125321767
 N          1.7251579887        0.1168565748        0.5521572803
 N          4.0434288559        3.7153526666       -0.4779676913
 C         -1.9412520881        0.7317901558       -0.9947822768
 C         -2.7758911153       -0.5225596577       -0.5984605735
 C         -1.2372518729        1.0880756895        0.3483831919
 C         -2.3210040128       -0.8106350810        0.8494326590
 C         -2.1589942922       -2.2878614814        1.1740592650
 C          1.2964718936        1.3863991582        0.2605034493
 C          0.0358779356        3.1066321591       -0.2416672477
 C          2.0650656216        2.4836501563       -0.1022912046
 C          3.5191645202        2.5398561940       -0.1116558418
 H         -1.1820551076        0.4867884998       -1.7430332055
 H         -2.5249715619       -1.3712609608       -1.2366235755
 H         -1.9165123289        1.7441689913        0.9236537031
 H         -3.0671018940       -0.3770329100        1.5326669975
 H         -3.1359205568       -2.7706903986        1.2146293670
 H         -1.6403951240       -2.3783586117        2.1320599942
 H         -3.6257752756        1.6576247898       -1.1388203463
 H         -4.5566942861       -0.5587340607       -1.4249626724
 H         -0.8548081379        3.6751663720       -0.4099424398
 H          2.7376398102        0.1114004774        0.6607857613
 H          1.2324752273       -0.3695445791        1.2930102518
 H          1.0654565443       -1.0199483073       -0.5648283268
 H          0.2920301145       -4.3694413939       -1.3421362259
 H          3.4172173791        4.4641307691       -0.7224440377
 H          5.0416849245        3.8364554094       -0.5004933607
  37
        -73.92073864
 P          0.3282629358       -2.9370163406        0.5904523510
 O         -1.0490393814       -0.4685961093        0.5781047159
 O         -3.1347468891        2.2295651150       -0.0350883488
 O         -4.0870096782        0.0446129852       -1.0932993359
 O         -1.2167951194       -3.1937346524        0.2247643576
 O          0.8553204481       -4.3888035607        0.8664076258
 O          0.3902094285       -2.4026924991        2.0663841646
 O          1.0474824523       -2.1827817678       -0.4554000779
 O          3.5511001085        1.9814336205       -1.8174764150
 N          0.0950350969        1.5720897491        0.6013768661
 N          1.6496455528        3.0905439511        1.0583298139
 N          0.9662366723        0.6013569427       -1.4416633020
 N          4.0431742752        3.5891538303       -0.2953023552
 C         -2.1292787335        1.3855038118       -0.5002770244
 C         -2.6901188306        0.0490923354       -1.0659529955
 C         -1.1857795765        0.9391602944        0.6545865888
 C         -2.1991947871       -1.0051873812       -0.0579481959
 C         -1.8193443075       -2.3263169669       -0.7144972462
 C          1.0529855047        1.4478715285       -0.3741305893
 C          0.5208135070        2.5819368507        1.4301105767
 C          2.0165174764        2.4015563374       -0.0768974185
 C          3.2528607680        2.6334931178       -0.8044887294
 H         -1.5470264352        1.9265519853       -1.2526205967
 H         -2.2561208356       -0.1515015282       -2.0484299973
 H         -1.6538344726        1.2266770940        1.6095293764
 H         -2.9847332059       -1.1740143299        0.6927172651
 H         -1.1100327523       -2.1343581548       -1.5247191189
 H         -2.7086086950       -2.8355550269       -1.0863472352
 H         -3.9653777289        1.7149512053        0.0105502097
 H         -4.4120701687        0.3741780031       -1.9441340179
 H         -0.0444935353        2.8986533126        2.2819439762
 H          1.8321917172        0.6360023638       -1.9731121697
 H          0.7151533975       -0.3522323964       -1.1964739398
 H          1.1592753206       -4.8697801450        0.0886672092
 H          0.1117352866       -1.4872690274        2.1618994821
 H          3.7332528836        4.0792112650        0.5267207755
 H          4.9198981889        3.8051331442       -0.7377081058
  37
        -73.92073384
 P          0.0759071769       -3.2996201079       -0.6897091456
 O         -0.8413900495       -0.7852862113        0.2147607725
 O         -2.5877169167        1.9539839212        1.2608524966
 O         -4.2018005868        0.3462690654       -0.1064650451
 O         -1.5365957008       -3.3197503374       -0.6127396406
 O          0.3777464974       -4.8461996338       -0.8457627557
 O          0.6392173729       -3.0197448041        0.7451158199
 O          0.6029685085       -2.4341472388       -1.7535357113
 O          2.8739872018        4.4977856310        1.1803150373
 N          0.5149625492        1.0898755272        0.3596469156
 N          2.5153603328        1.3389890151       -0.5600634111
 N          0.2838121161        3.1855762583        1.5415367935
 N          4.3179686053        3.4681913321       -0.2352124097
 C         -1.9581888841        1.3240409873        0.1816006634
 C         -2.8655609461        0.2411366355       -0.4754832773
 C         -0.7500013838        0.5179068472        0.7248469927
 C         -2.2047151072       -1.0833658991       -0.0330113151
 C         -2.2428513070       -2.1875668174       -1.0776429528
 C          0.9858000933        2.2998703028        0.7956257087
 C          1.4858936577        0.5620670892       -0.4592467937
 C          2.2395881744        2.4459918947        0.2157202279
 C          3.1537903984        3.5502641549        0.4267565704
 H         -1.6109546297        2.0513484517       -0.5589333482
 H         -2.8347007759        0.3253798252       -1.5640740112
 H         -0.8276893757        0.5002210233        1.8289652379
 H         -2.6751030842       -1.4393539158        0.8963927467
 H         -1.7680706814       -1.8237215347       -1.9933428489
 H         -3.2677906657       -2.5087676105       -1.2651936725
 H         -3.2177133120        2.6135165844        0.9323846652
 H         -4.2586915425        0.4884627512        0.8547654193
 H          1.3712192933       -0.3915525440       -0.9311788008
 H          0.8561558286        3.9442933389        1.8888429614
 H         -0.4546188100        2.8428962501        2.1356405162
 H          0.2392860424       -5.2128401899       -1.7250473207
 H          0.4449097406       -3.7094535192        1.3931306696
 H          4.4796604471        2.6633938733       -0.8161538293
 H          5.0125988722        4.1865345399       -0.1247980232
  37
        -73.92072450
 P          0.0323600645       -2.9685097124       -0.5321555333
 O         -0.9566197858       -0.6915363377        1.1549147537
 O         -2.3096281936        1.9704297366       -0.7818068704
 O         -4.0401673314        0.2031499470       -0.0866702840
 O         -1.5595229901       -3.0362201549       -0.4416731979
 O          0.2754148861       -1.6411347357       -1.3821036539
 O          0.3532549071       -4.1506979599       -1.5266459985
 O          0.7692130279       -3.0877117850        0.7294884487
 O          2.7711189822        4.5007916140       -0.2525004633
 N          0.4538217697        1.0669135430        0.6187147444
 N          2.6690693597        0.9900796617        0.6362348480
 N          0.0658824201        3.4098597939        0.1841643145
 N          4.4822407720        3.0572423442        0.1157909801
 C         -1.7424386834        0.7205877257       -0.5512718155
 C         -2.7973486732       -0.3978821934       -0.3328317627
 C         -0.9116765798        0.6550668699        0.7614920079
 C         -2.2745789178       -1.1569042132        0.9131164130
 C         -2.2070068867       -2.6699321915        0.7623709194
 C          0.8795633464        2.3366105947        0.3322357418
 C          1.5825435904        0.3040881148        0.7947116549
 C          2.2683589922        2.2767450078        0.3422069280
 C          3.1775607285        3.3670840019        0.0515658482
 H         -1.0854052739        0.4734309660       -1.3909838073
 H         -2.8264821354       -1.0640410220       -1.1964187610
 H         -1.3975460630        1.2970871279        1.5204651795
 H         -2.9158182617       -0.9013528723        1.7702414032
 H         -3.2031758220       -3.1096807498        0.7150032728
 H         -1.6440297837       -3.0684663178        1.6103349977
 H         -3.2420209264        1.9352210516       -0.4889547381
 H         -4.7627463014       -0.3134845910       -0.4666349899
 H          1.5287156845       -0.7351626328        1.0449476932
 H          0.5655708708        4.2227577965       -0.1538404964
 H         -0.8513877749        3.2453386014       -0.2106075071
 H          1.2064922772       -1.4847312364       -1.5659784171
 H         -0.1927200018       -4.2062885375       -2.3215074703
 H          4.7367703147        2.1218176217        0.3830442148
 H          5.1767839483        3.7611595158       -0.0645996726
  37
        -73.92071490
 P         -0.2649996398       -2.8098555184       -0.9665553294
 O         -0.7661863272       -0.6084176667        0.9324705833
 O         -2.5728231563        1.9622631286       -0.6227311961
 O         -4.0975681458       -0.0740751315       -0.0409892864
 O         -1.6481680657       -3.1805145334       -0.2682840951
 O         -0.0849032382       -4.0641967527       -1.9007619617
 O          0.7958172607       -2.9627076463        0.2033103791
 O         -0.2000577227       -1.5721622242       -1.7560587002
 O          3.4663884490        3.6783761885        1.9049430435
 N          0.4467445483        1.2576920206        0.1953267416
 N          2.3327290536        1.6808877423       -0.8974309565
 N          0.7815613160        2.5840118788        2.2006218508
 N          4.5110834732        3.2404282688       -0.0605837336
 C         -1.8661577424        0.7552617576       -0.6510845101
 C         -2.7838405825       -0.4569059898       -0.3094077644
 C         -0.8435755269        0.7406454729        0.5057084932
 C         -2.0997368688       -1.0895460877        0.9267316167
 C         -2.0880511227       -2.6078375901        0.9492365980
 C          1.1908478510        2.0771736544        1.0085233381
 C          1.2047754176        1.0500048121       -0.9351341103
 C          2.3585332064        2.3460177250        0.3098624352
 C          3.4747978913        3.1437428288        0.7840102976
 H         -1.3551016738        0.5846746043       -1.5982157193
 H         -2.7945905849       -1.1738851924       -1.1350325426
 H         -1.2669228654        1.3609318053        1.3145907727
 H         -2.6214342922       -0.7318220452        1.8283029821
 H         -3.1027009417       -2.9818132926        1.0951090851
 H         -1.4305861852       -2.9368005672        1.7578281786
 H         -2.8636909539        2.2082013330       -1.5125310193
 H         -4.1031244844        0.8907356488        0.1161076311
 H          0.8908709804        0.3991973858       -1.7240184937
 H          1.5310191599        3.0924694873        2.6578152388
 H          0.2375432069        1.9841509216        2.8012156028
 H         -0.1517553508       -4.9302359402       -1.4787510350
 H          1.6117494822       -2.4707078949        0.0812268397
 H          4.4454149907        2.7806429118       -0.9526881999
 H          5.3238976653        3.7726059975        0.1983444109
  37
        -73.92065252
 P          1.0682089597       -1.9594114847       -0.2952476498
 O         -1.7273214853       -0.1255186231        1.2789122496
 O         -4.0287678002        1.5847108382        0.6486155562
 O         -4.2022458057       -0.2757501880       -1.2510058005
 O         -0.3478328157       -1.4453988897       -0.7917082697
 O          1.0403839685       -3.5444832793       -0.4647284235
 O          1.0093801650       -1.7982505663        1.2737582428
 O          2.1652877970       -1.2953754654       -1.0063302088
 O          3.7168196285        1.0714601025        1.1436042722
 N         -0.3714790857        1.4491178662        0.1712001444
 N          1.2046057089        1.8492879373       -1.3422041231
 N          0.9549028623        1.0846333946        2.1486949112
 N          3.9938277417        1.6699205836       -1.0281276258
 C         -2.8473555012        1.4153040870       -0.0854356646
 C         -2.9350459774        0.0369105108       -0.7760674115
 C         -1.6347470930        1.2092118206        0.8342110654
 C         -2.4254357286       -0.9227543249        0.3279162261
 C         -1.5274518460       -2.0261812463       -0.2292975678
 C          0.8325369738        1.3007752536        0.8096065743
 C         -0.0686166991        1.7607166268       -1.1330002563
 C          1.8078207923        1.5630038049       -0.1391716538
 C          3.2362816147        1.4060911373        0.0490370423
 H         -2.6974279975        2.2321722383       -0.7951156894
 H         -2.2494333698       -0.0037027471       -1.6275459302
 H         -1.6692202937        1.8364823783        1.7338391970
 H         -3.2742369063       -1.3886756202        0.8425148193
 H         -2.0587957799       -2.5515413095       -1.0253546454
 H         -1.2534386717       -2.7211787181        0.5641743018
 H         -4.1129654724        2.4945206437        0.9659446993
 H         -4.8583408060        0.0518052615       -0.6108210954
 H         -0.8069825829        1.9295064043       -1.8879813606
 H          1.9202753165        0.8860407479        2.3885071145
 H          0.2833108170        0.4379809551        2.5398015139
 H          1.4673286176       -3.8626190740       -1.2666423841
 H          1.6143302161       -2.3764490354        1.7523544710
 H          3.5179992378        1.7888043677       -1.9069110082
 H          4.9707025263        1.4293774164       -1.0079073066
  37
        -73.92062329
 P         -1.6874765180       -4.0114581326       -0.3524802740
 O          0.2197562349       -0.1292514806        0.5492015961
 O         -2.3418330596        1.8242110399       -1.0391305382
 O         -2.9863093183       -0.4815727118        0.0690798790
 O         -0.6296768400       -3.2109590488       -1.2392262861
 O         -0.7964852604       -4.5743561745        0.8326616407
 O         -2.0488485291       -5.1996030571       -1.3030549782
 O         -2.8829778326       -3.2725890782        0.0881122941
 O          4.3009908990        3.4169150284        1.6914282399
 N          0.5714868254        2.1360714481        0.1602860910
 N          1.5759134228        3.9479856386       -0.6365069175
 N          2.0604342792        1.5311413803        1.9593651012
 N          4.0328912536        5.0506633416        0.1401213342
 C         -1.3161949696        0.9019381518       -0.8978854823
 C         -1.7966734678       -0.5457420555       -0.6699894981
 C         -0.4201845689        1.1166598751        0.3439326156
 C         -0.6382192779       -1.1816277186        0.1232701740
 C          0.1755800688       -2.1805811201       -0.6969844706
 C          1.7155141069        2.2941933358        0.8969116227
 C          0.5461617066        3.1734639694       -0.7437384649
 C          2.3420261436        3.4237308160        0.3830580829
 C          3.6248062116        3.9547625565        0.7987169852
 H         -0.6887477486        0.9559221263       -1.7936982182
 H         -1.9596960896       -1.0736477896       -1.6161463793
 H         -1.0512969989        1.3636686833        1.2160858194
 H         -1.0458007398       -1.6880077061        1.0081617903
 H          0.9530372030       -2.6137877928       -0.0631383668
 H          0.6360961823       -1.6777415753       -1.5505257798
 H         -3.1044741599        1.5124737728       -0.5202145818
 H         -3.3254646930       -1.3881208043        0.1765042486
 H         -0.2653369370        3.3180271471       -1.4257955970
 H          3.0136683433        1.6885842926        2.2602740432
 H          1.7161199466        0.5835027919        1.9647929971
 H         -1.2785168096       -4.9256759292        1.5897664928
 H         -1.3105100950       -5.6963751857       -1.6794071949
 H          3.4342597491        5.4291631017       -0.5737851345
 H          4.9163200825        5.4741386756        0.3653727965
  37
        -73.92061586
 P         -1.8457891255       -3.9739898922       -0.7901912412
 O         -0.0363256375       -0.3622667292        1.3108110463
 O         -1.4643466135        1.6972431071       -1.2328974915
 O         -2.7864009809       -0.3945408590       -0.4601268186
 O         -0.6256322061       -3.7549297154        0.2078953325
 O         -2.1340927682       -5.4987709487       -0.5983142680
 O         -1.1694237642       -3.7762996782       -2.2161032152
 O         -3.0464217708       -3.1477337061       -0.5788536026
 O          2.5638908834        5.5086142676        0.0712720085
 N          1.0023380345        1.6485003820        0.8314574407
 N          3.1352216299        2.1189587806        1.2146178759
 N          0.1579492870        3.7989046362        0.1338391906
 N          4.4765258330        4.5425459058        0.8168163277
 C         -0.6804155529        0.6686272121       -0.7213225054
 C         -1.4243872376       -0.6774708982       -0.6170453070
 C         -0.2276096057        0.9066763564        0.7435952254
 C         -0.8061205203       -1.3471120856        0.6262774852
 C          0.0953868463       -2.5415752423        0.3066300745
 C          1.1629562787        2.9702806459        0.5131764552
 C          2.2302077067        1.1943157337        1.2425943555
 C          2.5012507453        3.2551829996        0.7585154185
 C          3.1665870887        4.5219465075        0.5252853778
 H          0.2102942022        0.5739289299       -1.3526897837
 H         -1.2592507259       -1.2919141621       -1.5087774101
 H         -1.0130728954        1.4655673292        1.2813002434
 H         -1.6091955289       -1.6904270647        1.2926850090
 H          0.7912137782       -2.6828524452        1.1368066635
 H          0.6532030538       -2.3647911646       -0.6168309016
 H         -2.3995905722        1.4637250682       -1.0824255326
 H         -3.2744514905       -1.2369401409       -0.4919256721
 H          2.3804591160        0.1838952486        1.5577087604
 H          0.5071944327        4.6981538989       -0.1743307559
 H         -0.5800543095        3.3937168223       -0.4277184050
 H         -1.3697944683       -6.0900852623       -0.6105545838
 H         -1.7545866429       -3.8923471728       -2.9734330527
 H          4.8975142192        3.7048754022        1.1808866998
 H          5.0104045489        5.3827734265        0.6771963035
  37
        -73.92060014
 P          1.1047408571       -2.2854947182        0.1597773291
 O         -1.8510816697        0.3249077509        1.3585499957
 O         -4.0841818785        1.7285706306        0.0441846751
 O         -3.9210883077       -0.5322882566       -1.3698811042
 O         -0.2366313178       -1.5060130461       -0.2423654806
 O          2.2072346518       -1.5626794458       -0.6657702679
 O          0.8907992790       -3.6684290244       -0.5857874434
 O          1.3075636313       -2.4224172168        1.6161134978
 O          3.5324967884        0.3775589557        0.3356499593
 N         -0.4543201033        1.7879234903        0.1361463618
 N          1.1391618781        2.5959584331       -1.1895915255
 N          0.8761045412        0.5785010988        1.7425035948
 N          3.9144461212        2.1510695239       -1.0206756780
 C         -2.8280325125        1.3996258666       -0.4724276451
 C         -2.7142168612       -0.0979123710       -0.8182659109
 C         -1.7912567898        1.5364642234        0.6538204615
 C         -2.3834790589       -0.7265170074        0.5526030952
 C         -1.4055621443       -1.8973561770        0.4713615950
 C          0.7238476477        1.2532873859        0.5849046687
 C         -0.1258782684        2.5964574275       -0.9310105757
 C          1.7127032307        1.7457265114       -0.2706100447
 C          3.1055423162        1.3832056825       -0.2920901093
 H         -2.5995987974        2.0257486849       -1.3413883345
 H         -1.8665830501       -0.2468562090       -1.4979723827
 H         -2.0757581300        2.3366897037        1.3499709498
 H         -3.3055278005       -1.0750748203        1.0348524074
 H         -1.8710985168       -2.7410592803       -0.0433297401
 H         -1.1168246693       -2.2079812354        1.4796309136
 H         -4.7577983309        1.2509975202       -0.4690722317
 H         -3.8158872100       -1.3931847643       -1.7953175831
 H         -0.8451530732        3.1829947514       -1.4616943452
 H          1.7449984387        0.0760366561        1.8462464445
 H          0.0552921589        0.1482096528        2.1408087796
 H          2.7597037256       -0.8711533447       -0.1785781549
 H          1.4643600273       -4.3783255452       -0.2774896009
 H          3.5114332064        2.9135586005       -1.5399875354
 H          4.8846616444        1.9017384657       -1.1204754963
  37
        -73.92059273
 P         -0.3247739111       -3.1173649533       -1.2737536224
 O         -1.3038097047        0.4337201514        1.5545631508
 O         -2.9606055015        1.4979287896       -1.0926502460
 O         -3.7695266400       -0.7294944034        0.0637306189
 O         -0.4324660958       -2.9189886259        0.3257397300
 O         -1.7057485579       -3.7060944669       -1.7148866731
 O          0.6393480761       -4.3551274277       -1.4286774203
 O          0.0636310045       -1.8861412584       -1.9784497017
 O          3.3109847092        3.7117709119        2.1813925340
 N          0.2376126583        1.5789250724        0.1993013013
 N          2.3018705219        1.6459642848       -0.6174578849
 N          0.4555453587        3.0049019533        2.1311354093
 N          4.5414409685        2.9846436181        0.4196477346
 C         -1.9047140871        0.6491694445       -0.7430571637
 C         -2.3948174111       -0.7163937159       -0.1802402017
 C         -1.1578694590        1.2930587691        0.4407209391
 C         -1.5608876920       -0.8875196985        1.1020053961
 C         -0.2367505272       -1.6330581742        0.8741551724
 C          0.9719796501        2.3617362785        1.0549356898
 C          1.1115011510        1.1669682118       -0.7829572787
 C          2.2553268895        2.4067963759        0.5303920772
 C          3.3966902297        3.0902816901        1.1101707376
 H         -1.2348025788        0.4793851690       -1.5900328569
 H         -2.2104387893       -1.5238009851       -0.8882173313
 H         -1.6431420186        2.2445653620        0.6986999121
 H         -2.1444959678       -1.3904757404        1.8778468631
 H          0.2714799256       -1.7681207249        1.8315602385
 H          0.3948367162       -1.0443665128        0.2043693635
 H         -3.4351922709        1.1402279690       -1.8579553088
 H         -4.0293211934        0.0915863779        0.5126131779
 H          0.8413335034        0.5140836933       -1.5878056617
 H          1.1778387543        3.4322471043        2.6985994468
 H         -0.2828528723        2.5333391518        2.6309211413
 H         -1.9221409651       -4.5815080742       -1.3679376560
 H          1.5846018775       -4.1735263657       -1.3934879974
 H          4.5331438196        2.4702467907       -0.4444698287
 H          5.3759104845        3.4326583937        0.7571320344
  37
        -73.92057645
 P          0.1027623175       -3.3266310284       -0.7022527397
 O         -0.8716085315       -0.7990208055        0.3471471820
 O         -2.4539176896        2.2990172526        0.6979954892
 O         -4.1745060951        0.3163385762        0.3341421282
 O         -1.5068523022       -3.3615183855       -0.6083503158
 O          0.4498478627       -4.8198849640       -1.0129574679
 O          0.6343568004       -3.1737948554        0.7823575364
 O          0.6162138450       -2.3824411215       -1.7031532476
 O          2.8497139640        4.4983683265        1.1951440219
 N          0.4822067947        1.1010547971        0.3385913869
 N          2.4583748984        1.3873344954       -0.6192011721
 N          0.3780333370        3.0125596492        1.8090746116
 N          4.2682426793        3.4999925025       -0.2674028274
 C         -1.9514127011        1.2705802226       -0.1026753143
 C         -2.9785888427        0.1317772043       -0.3549966242
 C         -0.8086481419        0.5688775593        0.6653756890
 C         -2.2231195600       -1.1538873864        0.0630736692
 C         -2.2176567983       -2.2167385201       -1.0297676757
 C          0.9864215110        2.2698926955        0.8474997097
 C          1.4144428004        0.6255601059       -0.5536110489
 C          2.2265685460        2.4346926736        0.2472942175
 C          3.1297596242        3.5540077929        0.4390662997
 H         -1.5610684688        1.6525845461       -1.0546336686
 H         -3.2496073557        0.0793795173       -1.4117559804
 H         -0.9715521045        0.7242860906        1.7468708186
 H         -2.6784076196       -1.5720814872        0.9716416357
 H         -1.7358785959       -1.8096356504       -1.9236863710
 H         -3.2351884962       -2.5430091398       -1.2474619571
 H         -3.1750035319        2.7561569539        0.2377707407
 H         -3.9965088837        0.6082682311        1.2435154303
 H          1.2723676820       -0.2838792362       -1.1007221227
 H          0.8604148442        3.8902123521        1.9627299938
 H         -0.6306567271        3.0675784703        1.7755421097
 H          0.1593638358       -5.4616057297       -0.3524405739
 H          0.5984889397       -2.2747624843        1.1210910057
 H          4.4223580971        2.7062211615       -0.8655746343
 H          4.9405787219        4.2441748601       -0.1966629140
  37
        -73.92055993
 P          0.0333547609       -3.3618938946       -0.5921165123
 O         -0.8583137326       -0.7973785316        0.4048812323
 O         -2.8278782830        1.4591936288        1.5795796001
 O         -3.9622572605        0.5493113317       -0.6590680334
 O         -1.5507588964       -3.1881860630       -0.8482272657
 O          0.1963095074       -4.9205492634       -0.8090026298
 O          0.3138491160       -3.2292000955        0.9418872968
 O          0.8547167829       -2.5014771799       -1.4549701390
 O          2.9126203549        4.5154135608        1.0983100874
 N          0.5166833693        1.0924910960        0.4452793301
 N          2.4094258692        1.3925453903       -0.6683374478
 N          0.3900658199        3.1585133634        1.7027355723
 N          4.2182919490        3.5265548724       -0.4719057202
 C         -1.9525946705        1.3253045684        0.4974820378
 C         -2.5702733156        0.4592386805       -0.6267099630
 C         -0.7105786916        0.5028122177        0.9218403434
 C         -2.1356112682       -0.9486327150       -0.1970464333
 C         -2.0107184437       -1.9457929455       -1.3383005869
 C          1.0185638890        2.2970102188        0.8619532064
 C          1.4056012759        0.5978056073       -0.4789171275
 C          2.2010675764        2.4772423047        0.1567657853
 C          3.1238776018        3.5862620194        0.3013057707
 H         -1.6484240174        2.3172662335        0.1406331032
 H         -2.1048245033        0.7059432012       -1.5860237506
 H         -0.6723756108        0.4530648600        2.0230458872
 H         -2.8478148907       -1.3326418062        0.5479439481
 H         -1.2933659538       -1.5653057895       -2.0717955978
 H         -2.9843767132       -2.1286203755       -1.7945187939
 H         -3.7287548535        1.2494808599        1.2680581808
 H         -4.2471624601        1.2521130061       -1.2617150187
 H          1.2722938911       -0.3559179419       -0.9457206381
 H          0.9971625312        3.9151858134        1.9945692292
 H         -0.2284209087        2.7784903317        2.4017239523
 H          0.1805629217       -5.2220417383       -1.7230692879
 H         -0.1165784275       -3.8988474887        1.4890464265
 H          4.3315771878        2.7304261991       -1.0760252793
 H          4.9191914884        4.2446061964       -0.4092944277
  37
        -73.92055417
 P         -0.0764613141       -3.5141714115       -0.5829997762
 O         -1.0005385616       -0.7897920036        0.6305805687
 O         -2.6374610407        2.3285880141        0.4744205322
 O         -3.9139947541        0.0406541883        0.4479736299
 O         -0.0467755966       -2.1980148037       -1.5137160997
 O          0.7198728851       -3.1377827781        0.7313284765
 O          0.9208865987       -4.4641917211       -1.3223295725
 O         -1.4166960237       -4.0863473326       -0.3906234612
 O          2.6397466969        4.6710533106        0.8878382076
 N          0.4090594149        1.0944160652        0.5371097292
 N          2.5122372674        1.2037612280       -0.1541948240
 N          0.1011137341        3.2914053291        1.4846358212
 N          4.2569922402        3.3955364940       -0.0640671758
 C         -1.9717765514        1.2643921074       -0.1221523363
 C         -2.8859348619        0.0816573036       -0.5029943074
 C         -0.9200308901        0.5995131149        0.8128264317
 C         -1.9302968179       -1.1149846718       -0.3984539445
 C         -1.2075150062       -1.4152898985       -1.7180453328
 C          0.8374876686        2.3634296648        0.8217193297
 C          1.4648659229        0.4492102648       -0.0551623090
 C          2.1565973823        2.4204403567        0.3883520014
 C          3.0245304483        3.5809801930        0.4335133283
 H         -1.4622491446        1.6550937385       -1.0096310560
 H         -3.2839855195        0.1893091229       -1.5169439412
 H         -1.1518067665        0.8322641034        1.8634938580
 H         -2.4374563599       -2.0237978130       -0.0653446409
 H         -0.8462302898       -0.4988663824       -2.1916802215
 H         -1.8928349101       -1.9413047700       -2.3873843958
 H         -3.4151835102        1.9793274561        0.9462286335
 H         -4.5799788251       -0.6170017978        0.2063158463
 H          1.4009998497       -0.5667407675       -0.3821460503
 H          0.5528076770        4.1977446362        1.4887678585
 H         -0.8965268404        3.2971301180        1.3189880084
 H          0.1931610330       -2.7318065903        1.4266474337
 H          1.8234284696       -4.1381993663       -1.4296565090
 H          4.4976206685        2.4851423319       -0.4172028936
 H          4.9151571372        4.1553560607       -0.0751177542
  37
        -73.92055073
 P         -0.2551462717       -3.1702395458       -1.2190139752
 O         -1.3590381433        0.4451422733        1.5528021125
 O         -3.1863318154        1.5974978471       -0.7991977230
 O         -3.6743605918       -0.9037995603       -0.2348735875
 O         -0.3964342719       -2.8950237817        0.3659534383
 O         -1.6523815677       -3.6958654766       -1.6870558125
 O          0.6403947469       -4.4663736746       -1.2795721945
 O          0.2299119188       -1.9985675715       -1.9644646994
 O          3.3751878409        3.6751272424        2.1101570837
 N          0.1763786629        1.6406074387        0.2271755478
 N          2.2158767198        1.6407057885       -0.6529492413
 N          0.5025777877        3.0593781119        2.1508515999
 N          4.5319636237        2.8916211334        0.3229538716
 C         -2.0124527829        0.8415346727       -0.6959028082
 C         -2.3063296742       -0.6445644720       -0.3262822139
 C         -1.2166283995        1.3794747521        0.5050702149
 C         -1.5666720109       -0.8512305523        1.0125215061
 C         -0.2255030942       -1.5835501516        0.8591196058
 C          0.9617100962        2.3982211799        1.0598293207
 C          1.0065332432        1.1996667589       -0.7809811051
 C          2.2288011411        2.4026143963        0.4948993348
 C          3.4099479912        3.0453990208        1.0408984060
 H         -1.4254396912        0.9063303154       -1.6158656188
 H         -1.9228561674       -1.3183355446       -1.0924477265
 H         -1.6663907895        2.3195473946        0.8502791739
 H         -2.1993783936       -1.4000406279        1.7168542000
 H          0.2498357157       -1.6706092528        1.8390122225
 H          0.4246297248       -1.0216124202        0.1836925186
 H         -3.6879863953        1.3174378312       -1.5800006097
 H         -4.0993534630       -0.1945571213        0.2775867140
 H          0.6903136198        0.5518700469       -1.5734858462
 H          1.2575258140        3.4679828873        2.6891384363
 H         -0.2305789744        2.6136490476        2.6809043799
 H         -1.9460494394       -4.5282191723       -1.2942222388
 H          1.5919362174       -4.3322707020       -1.2141855478
 H          4.4838603300        2.3692270140       -0.5350770395
 H          5.3917241136        3.3068387886        0.6382247739
  37
        -73.92054896
 P         -0.8750711945       -3.6114453994       -0.8423300885
 O         -0.9079649316        0.2814571581        1.4665173127
 O         -3.4016564240        1.1854508876        0.1651189439
 O         -2.7840385075       -0.9518590564       -1.2195872554
 O          0.1421500490       -2.3515646111       -0.8490200221
 O          0.0224035662       -4.8184589734       -1.2801292340
 O         -1.7839304107       -3.3884003055       -2.1104539292
 O         -1.5469295821       -3.8219916319        0.4471923436
 O          3.8683770545        3.2202277028        2.0269772294
 N          0.1894233704        2.0143423887        0.3211819494
 N          1.9057438505        2.6118407303       -0.9555289481
 N          1.0839053394        2.4032748107        2.5227384588
 N          4.4597603965        3.4630947989       -0.1499004633
 C         -2.0906879287        1.2295170909       -0.3245273553
 C         -1.7072795062       -0.2112482951       -0.7347385133
 C         -1.0803677432        1.5132393691        0.7979653006
 C         -1.0916484358       -0.7951116903        0.5588456365
 C          0.2352553776       -1.5111845379        0.2821354115
 C          1.2068369812        2.3658325079        1.1733438934
 C          0.6897529027        2.1716411049       -0.9516276861
 C          2.2696778699        2.7463641201        0.3659423621
 C          3.5838656267        3.1639730150        0.8201110517
 H         -1.9990037625        1.9359609503       -1.1532104750
 H         -0.9522394090       -0.1978950497       -1.5258453826
 H         -1.4680404095        2.2171139233        1.5441327331
 H         -1.7847256607       -1.5088883952        1.0154953579
 H          0.5223717330       -2.0891146038        1.1635742567
 H          1.0179821344       -0.7844267706        0.0456379285
 H         -3.7647394595        2.0759892651        0.2676537512
 H         -3.5783901358       -0.6906643283       -0.7188338926
 H          0.1279010785        1.9655187322       -1.8374974653
 H          1.9718880972        2.5700189370        2.9808124595
 H          0.4921420692        1.7014628796        2.9421827642
 H          0.4359065556       -4.7337862986       -2.1491259099
 H         -2.3969263637       -2.6385677772       -2.0290373670
 H          4.1614818413        3.3898873706       -1.1075796234
 H          5.3933574353        3.7511022170        0.0876193432
  37
        -73.92053581
 P         -0.0942763851       -2.7766630936       -0.6197848120
 O         -1.0396515516       -0.5938519968        1.2537598072
 O         -2.3066633732        1.9902718877       -0.7388951855
 O         -4.0030326381       -0.0248554905       -0.5659483532
 O         -1.5954554860       -3.1273794700       -0.2226510127
 O          0.2026485955       -3.9538113522       -1.6227633420
 O          0.7146143477       -3.0911192596        0.7124551623
 O          0.1797137607       -1.4786448346       -1.2509444041
 O          2.9484959184        4.2849884708       -0.4804788547
 N          0.4418885740        1.1010629980        0.7253372495
 N          2.6485267942        0.9365697051        0.8744424340
 N          0.1942384770        3.3855481511       -0.0143040444
 N          4.5781114043        2.8486480766        0.1731094684
 C         -1.6671226577        0.7552893844       -0.5775936707
 C         -2.6722515810       -0.4259616718       -0.4665343020
 C         -0.9395278309        0.7261772220        0.7871682859
 C         -2.3262519310       -1.0726917399        0.8951749665
 C         -2.2907121215       -2.5930438703        0.8886706220
 C          0.9404665251        2.3011661511        0.2964951793
 C          1.5231021084        0.3265495597        1.0589369987
 C          2.3237475949        2.1870694396        0.3894664689
 C          3.2914600019        3.1898468825       -0.0033598928
 H         -0.9393179156        0.5612397117       -1.3728420364
 H         -2.5032952306       -1.1419126104       -1.2732694634
 H         -1.4682312057        1.4184536644        1.4710318799
 H         -3.0586833380       -0.7421481053        1.6477686232
 H         -3.3040736423       -2.9903173753        0.8083537525
 H         -1.8112625539       -2.9292162929        1.8111904362
 H         -2.7988159486        1.9897339340       -1.5751773122
 H         -4.1553124993        0.7542448003       -0.0049127770
 H          1.3970397395       -0.6602854868        1.4471765894
 H          0.7354372323        4.1249365613       -0.4424488451
 H         -0.7496711174        3.2387215454       -0.3428285863
 H         -0.0451324324       -4.8398916078       -1.3288257478
 H          1.6651683653       -2.9618888113        0.6317622202
 H          4.7823398127        1.9409696683        0.5542365501
 H          5.3085941461        3.4862279660       -0.0919879761
  37
        -73.92051924
 P          0.0550959392       -2.8151411055        0.1373012495
 O         -1.0983955728       -0.2687907403        1.0429425047
 O         -2.7500550671        1.9675043693       -1.0833171148
 O         -3.9278548923       -0.3609301460       -1.0473403733
 O         -1.5112125062       -3.0743663907        0.2053346608
 O          0.5905652004       -4.2721948922       -0.1555311077
 O          0.4717995281       -2.5562919881        1.6270861962
 O          0.4884851462       -1.8475693818       -0.8914549453
 O          3.8917656735        2.0340692519       -1.4249732196
 N          0.1352177562        1.6750158748        0.5110126536
 N          1.6858877432        3.0958751173        1.2429724132
 N          1.2482608926        0.7959006159       -1.4703276100
 N          4.2409166969        3.5565138340        0.2191363045
 C         -1.8468099151        0.9227355385       -0.8791213800
 C         -2.5612339942       -0.4594761094       -0.7744359505
 C         -1.1438081708        1.0466084493        0.5017073504
 C         -2.3523879985       -0.8300269639        0.7058069084
 C         -2.3791200709       -2.3141569580        1.0237546341
 C          1.2035492128        1.5557935297       -0.3441578531
 C          0.5038425067        2.6173443555        1.4456713938
 C          2.1595868310        2.4519337807        0.1212247605
 C          3.4849659776        2.6599207176       -0.4320301553
 H         -1.1081555012        0.9457900776       -1.6826375516
 H         -2.0566168760       -1.1972024591       -1.4030378622
 H         -1.7973620772        1.6627736629        1.1444297690
 H         -3.1462853667       -0.3420050926        1.2940807305
 H         -3.3786003468       -2.7096878975        0.8344901142
 H         -2.1006053698       -2.4495971494        2.0710837660
 H         -3.6522500439        1.6172773506       -0.9415594841
 H         -4.0917860373       -0.4865690162       -1.9934457923
 H         -0.1454186132        2.9086779232        2.2453467503
 H          2.1795972870        0.8291539610       -1.8752766226
 H          0.8794624934       -0.1471528254       -1.3828431947
 H          0.6824415740       -4.4955641380       -1.0869250046
 H          1.4041211063       -2.3673547068        1.7719601220
 H          3.8431122393        4.0303135884        1.0122442411
 H          5.1715628186        3.7587370594       -0.1030747007
  37
        -73.92049941
 P          0.3087220726       -2.7530262725        0.3589248991
 O         -0.9476857638       -0.5057968268       -0.1335725657
 O         -3.1171922565        2.3315245951       -0.3538838516
 O         -4.1768018752        0.1295273609        0.6052212828
 O         -0.9748094942       -3.1986359085       -0.5049897997
 O          1.2773091391       -1.9043585158       -0.5384654655
 O          1.0363821600       -4.1582840982        0.3813866256
 O          0.0510330503       -2.1963510674        1.6975677624
 O          4.0711325796        1.8101046454        0.9141211922
 N         -0.0176848517        1.6126071603       -0.1867634879
 N          1.3728384476        3.0315657407       -1.1718777603
 N          1.4163880102        0.6393328366        1.4939418854
 N          4.0999449474        3.4122963163       -0.6913132595
 C         -2.4533102508        1.1623216310       -0.6844478380
 C         -3.2787731468       -0.1318751553       -0.4378800713
 C         -1.1827228353        0.8627927642        0.1475892086
 C         -2.1976569794       -1.1647695110       -0.0262659664
 C         -2.0861356550       -2.4076372888       -0.8904191281
 C          1.1996984930        1.4382864429        0.4207352034
 C          0.1599242162        2.5841920891       -1.1428793082
 C          2.0618246444        2.3302294755       -0.2049832932
 C          3.4783569432        2.4907584958        0.0610773534
 H         -2.1676041070        1.2249184940       -1.7387094204
 H         -3.7990253323       -0.4402116179       -1.3478578472
 H         -1.3987759692        0.9899676372        1.2231298034
 H         -2.3539717715       -1.4507953130        1.0247250905
 H         -1.9486912677       -2.1119103192       -1.9353844653
 H         -2.9667141440       -3.0452762263       -0.7881535216
 H         -3.7124552378        2.1487217984        0.3956481361
 H         -4.9449881689       -0.4553526840        0.5599456961
 H         -0.6391725393        2.9489419101       -1.7528323929
 H          2.4042992063        0.5518017555        1.7005283105
 H          0.8931745583       -0.2256726847        1.5489637758
 H          1.6636363985       -2.3867837426       -1.2795940398
 H          0.7224864669       -4.7748862814        1.0501127759
 H          3.5531027055        3.9317646750       -1.3566133600
 H          5.0820252212        3.5861695499       -0.5650061859
  37
        -73.92049247
 P          0.4628174166       -2.5817589838        0.1545144669
 O         -1.3625343048       -0.5131861091        0.6922569715
 O         -3.5565599097        1.5328752302        1.1642459736
 O         -4.3315817379        0.0727233872       -0.8071264319
 O         -0.4404598084       -2.5244342390       -1.1587122015
 O          1.2762525477       -3.9102499948       -0.1249179119
 O         -0.5400044184       -3.0471567177        1.2731304430
 O          1.3131353522       -1.4071004846        0.4230537961
 O          4.0163225407        1.9587919145        0.9526776960
 N         -0.1052634158        1.4227442236        0.1355322758
 N          1.2733364131        2.2663092335       -1.3924030668
 N          1.3887588207        1.1630369922        2.0140525543
 N          4.0344248567        2.7030092392       -1.1884222629
 C         -2.5961850957        1.4133260205        0.1573994566
 C         -2.9590548155        0.3216467293       -0.8834505443
 C         -1.2848897301        0.8927407139        0.7750329400
 C         -2.0904850337       -0.8931812479       -0.4655191935
 C         -1.1135563080       -1.3443231413       -1.5523367483
 C          1.1353112876        1.4780830080        0.7159377612
 C          0.0572410810        1.8995834241       -1.1448226469
 C          1.9839867397        2.0180358255       -0.2395224013
 C          3.4139613692        2.2236906869       -0.0994679018
 H         -2.4472652131        2.3929225360       -0.3136412841
 H         -2.6729201760        0.6549396744       -1.8864330521
 H         -1.2356917474        1.1476021083        1.8391419998
 H         -2.7130350176       -1.7437590901       -0.1668827196
 H         -0.3780930956       -0.5536808906       -1.7326502582
 H         -1.6315425279       -1.6043537247       -2.4769625780
 H         -4.3850016572        1.1305567858        0.8459327369
 H         -4.6479478025       -0.3928226467       -1.5931139942
 H         -0.7447857098        1.9791310091       -1.8482125023
 H          2.3893652829        1.1673615727        2.1865905583
 H          0.9293158913        0.3236623206        2.3372793297
 H          2.0804320855       -3.7972554027       -0.6410951859
 H         -0.1686094681       -3.1536542722        2.1544500371
 H          3.4848264923        2.8992517551       -2.0072788762
 H          5.0263183846        2.8664269912       -1.1691730909
  37
        -73.92049207
 P         -0.0456354664       -3.4736564848       -0.5102670154
 O         -0.8693899074       -0.8275787308        0.6005262308
 O         -2.9677424327        1.1615495264        1.5652455699
 O         -3.6203592608        0.8124128455       -1.0287490309
 O         -1.4495645351       -3.0577474223       -1.1833406449
 O          0.0816540397       -4.9756644771       -0.9240788259
 O         -0.3046035323       -3.5753402867        1.0499134488
 O          1.0849157264       -2.6370496441       -0.9339038821
 O          2.8665956157        4.5633783440        0.9878346307
 N          0.5432977483        1.0618746858        0.5511014377
 N          2.2701427350        1.4595847435       -0.7815450669
 N          0.5136790501        3.0819727892        1.8942970275
 N          3.9987131743        3.6749931004       -0.7667514698
 C         -1.9050379385        1.3084708623        0.6650296170
 C         -2.3052732257        0.6005736952       -0.6461722381
 C         -0.6682542214        0.4771929563        1.0862277210
 C         -1.9757630091       -0.8664643990       -0.3057794744
 C         -1.6391850591       -1.7013163486       -1.5309638417
 C          1.0589348634        2.2726553773        0.9358553580
 C          1.3238888170        0.6250781739       -0.4905184326
 C          2.1311376041        2.5143790797        0.0925061166
 C          3.0169483719        3.6654738208        0.1437606648
 H         -1.6373411851        2.3547604959        0.5054751717
 H         -1.6673146107        0.9404197731       -1.4678361476
 H         -0.5790462664        0.4242649437        2.1805049362
 H         -2.8249659841       -1.3262670327        0.2177837818
 H         -0.7285167675       -1.3193548413       -2.0011027112
 H         -2.4731923984       -1.6719586202       -2.2341442600
 H         -2.9765772177        1.8784031909        2.2137384120
 H         -4.1798436042        0.7891305137       -0.2320111488
 H          1.1862747047       -0.3311087997       -0.9505813564
 H          1.1204327977        3.8805033487        2.0583690654
 H          0.2141329621        2.6222731527        2.7423887318
 H         -0.6416313529       -5.5522517655       -0.6452866425
 H         -0.2659420592       -2.7255521839        1.5001828297
 H          4.0623839606        2.9034516289       -1.4092098996
 H          4.6617281747        4.4309292181       -0.7861478937
  37
        -73.92048659
 P         -1.7282965448       -4.0051285423       -0.7532210175
 O          0.0480640370       -0.4818024756        1.1652798318
 O         -1.8565423208        1.8825526618       -0.6883207616
 O         -2.8950862093       -0.4444373644       -0.1592381082
 O         -0.4300847615       -3.2165691874       -1.2390006484
 O         -1.2516993479       -4.7119548556        0.5665586078
 O         -1.8169747903       -5.1453350524       -1.8269252500
 O         -2.9597839522       -3.1943296924       -0.6290721421
 O          2.4459120204        5.5470879014        0.3022941069
 N          1.0223613440        1.5911601679        0.7820614523
 N          3.1943148857        2.0362187252        0.7882184015
 N          0.0814574125        3.8052676413        0.5986252521
 N          4.4583281437        4.5171510367        0.4933911453
 C         -0.9363714710        0.8482575163       -0.5524256843
 C         -1.5707396738       -0.5550638034       -0.6010929566
 C         -0.2151537393        0.8533415733        0.8227931225
 C         -0.6920487172       -1.3835239889        0.3521321929
 C          0.2635542093       -2.3173401510       -0.3930142911
 C          1.1320162392        2.9478564014        0.6373788535
 C          2.3015390671        1.1019168673        0.8622163286
 C          2.4961022648        3.2164915859        0.6446515981
 C          3.1163201810        4.5155691638        0.4730431025
 H         -0.1863583597        0.9597977256       -1.3438198451
 H         -1.5389838704       -0.9734765622       -1.6133827634
 H         -0.8691508213        1.3199844025        1.5782335068
 H         -1.3282381642       -1.9864184793        1.0117763074
 H          0.8556816129       -2.8757417612        0.3361934737
 H          0.9282579369       -1.7444741577       -1.0444538455
 H         -2.7301588354        1.5462403668       -0.4149299580
 H         -3.3178811801       -1.3159329963       -0.2632357313
 H          2.4993489249        0.0585090624        0.9879600062
 H          0.3699475541        4.7458008350        0.3587939137
 H         -0.7673849488        3.4748162732        0.1583587287
 H         -1.9214010531       -5.2200955277        1.0392474684
 H         -2.3565663867       -4.9499929398       -2.6009395429
 H          4.9349500056        3.6434636047        0.6382378702
 H          4.9623467313        5.3794478088        0.3793499100
  37
        -73.92047835
 P         -1.9165411626       -4.0375303750       -0.8178450861
 O          0.1901598401       -0.4378309999        1.1732659267
 O         -1.4932153111        1.7420052498       -1.0953517018
 O         -2.7307027347       -0.4269247568       -0.4684310359
 O         -0.8008815460       -3.7879512692        0.2895768521
 O         -2.3541846703       -5.5037509552       -0.4979488347
 O         -1.0673086515       -4.0497805191       -2.1602399322
 O         -3.0621837747       -3.1118425628       -0.8466262916
 O          2.4171422276        5.6408113782        0.2796003549
 N          1.0983852597        1.6520157007        0.7893572481
 N          3.2336161212        2.1940581571        1.0401374361
 N          0.1024078030        3.8086514796        0.3691337440
 N          4.4274385795        4.7123827558        0.7727796768
 C         -0.6527559791        0.7018728232       -0.7118834897
 C         -1.3626336664       -0.6681519279       -0.6389625530
 C         -0.0990548819        0.8611756759        0.7296986406
 C         -0.7249839094       -1.3587563813        0.5892433944
 C          0.0374590562       -2.6487248620        0.2847353026
 C          1.1733214163        3.0037207585        0.5860829382
 C          2.3756806559        1.2251974049        1.0526567813
 C          2.5136796691        3.3334388108        0.7487639640
 C          3.0998540498        4.6496001101        0.5862718169
 H          0.1922109272        0.6678675703       -1.4090420161
 H         -1.1858668387       -1.2550281445       -1.5471093678
 H         -0.8694393276        1.3374534568        1.3613068269
 H         -1.5206409458       -1.5862394627        1.3138243296
 H          0.7610193601       -2.8137317906        1.0862800664
 H          0.5585199842       -2.5703217958       -0.6723065020
 H         -2.4129716261        1.4503408688       -0.9462536624
 H         -3.2042336647       -1.2710359156       -0.5898310672
 H          2.5958080993        0.1988791956        1.2551911453
 H          0.3835554050        4.7492919869        0.1202388962
 H         -0.6556761894        3.4161354995       -0.1746603309
 H         -1.6456530781       -6.1373963088       -0.3265361855
 H         -1.5751302423       -4.1519306342       -2.9728574536
 H          4.9153757011        3.8679024817        1.0181071756
 H          4.9088623353        5.5892221505        0.6727091669
  37
        -73.92046588
 P         -1.4684252269       -3.9621210605       -0.7885568923
 O         -0.4132608193       -0.3104184795        1.3926971265
 O         -1.9570397300        1.8881898012       -0.8892519835
 O         -3.0069984844       -0.4551432681       -0.4115477417
 O         -0.1652709431       -3.0733847459       -1.0297964731
 O         -1.1800802317       -4.6588792238        0.5904039754
 O         -1.2753223370       -5.0846967942       -1.8672800856
 O         -2.7599522980       -3.2469303769       -0.8790215601
 O          2.6152404122        5.3353713112       -0.0064000453
 N          0.8061301952        1.6183277137        0.8902062444
 N          2.9941163212        1.9075196098        1.1026193396
 N          0.0912885733        3.8363255100        0.2668033256
 N          4.4949368043        4.2215054332        0.6030307542
 C         -1.0418557192        0.8864242702       -0.5844759403
 C         -1.6295503248       -0.5367142423       -0.6481071821
 C         -0.4930481015        0.9861616127        0.8670945872
 C         -0.8767232267       -1.2819949376        0.4652918386
 C          0.2815828603       -2.1192425866       -0.0831777644
 C          1.0499765278        2.9239791241        0.5596388613
 C          2.0197071786        1.0612895979        1.2042005152
 C          2.4234098347        3.0952138513        0.6965411763
 C          3.1695484484        4.3042073245        0.4085547619
 H         -0.2026593365        0.9804133477       -1.2836917976
 H         -1.4355545824       -1.0022829653       -1.6203607010
 H         -1.1757617027        1.5896018845        1.4859814806
 H         -1.5594209219       -1.9435816937        1.0095683620
 H          0.7801545821       -2.6272485763        0.7463244742
 H          0.9999283225       -1.4868624661       -0.6114786778
 H         -2.8521580137        1.5496204905       -0.7047638075
 H         -3.3868854376       -1.3381328357       -0.5590144853
 H          2.1102855571        0.0407074196        1.5108751539
 H          0.4810275346        4.7051805958       -0.0766348749
 H         -0.7479213417        3.5077551800       -0.1908896464
 H         -1.8826858346       -5.2250937441        0.9306946714
 H         -1.6741300136       -4.9126837000       -2.7272391950
 H          4.8750425812        3.3552860018        0.9440106176
 H          5.0801559633        5.0190223154        0.4240993663
  37
        -73.92044440
 P         -1.8719703547       -4.0177466710       -0.7113126589
 O          0.3475012604       -0.5895148636        0.9025005200
 O         -1.8386565810        1.8854609892       -0.4508514430
 O         -2.8117020915       -0.4634766625        0.0552247180
 O         -0.6455267511       -3.2651637991       -1.3978796938
 O         -1.2224431930       -4.7165676348        0.5364933871
 O         -2.1459053564       -5.1729883605       -1.7361141974
 O         -3.0527137990       -3.1729995138       -0.4242738317
 O          2.3464618918        5.6271078493        0.5793546759
 N          1.1609262384        1.5660892566        0.6734004918
 N          3.2969594415        2.1320507035        0.4920749113
 N          0.1094895804        3.7253937371        0.8951446587
 N          4.4091033070        4.7005307668        0.3969592261
 C         -0.9121348204        0.8491744149       -0.5040514521
 C         -1.5558802953       -0.5505146696       -0.5592633137
 C         -0.0251952931        0.7572320448        0.7667611227
 C         -0.5696276270       -1.4383438687        0.2237648001
 C          0.2096719145       -2.4010239794       -0.6723332496
 C          1.1947112675        2.9341980855        0.7015624672
 C          2.4601900782        1.1457855832        0.5398110929
 C          2.5368862691        3.2784622505        0.5908076053
 C          3.0757804050        4.6230563677        0.5294193012
 H         -0.2655555681        1.0153305469       -1.3731848743
 H         -1.6582279510       -0.9069393597       -1.5907724391
 H         -0.6072053029        1.0932144846        1.6423840112
 H         -1.1225325474       -2.0219407465        0.9716452362
 H          0.8913681894       -2.9876470692       -0.0516555424
 H          0.7806946631       -1.8459618805       -1.4204786778
 H         -2.6773813535        1.5183414511       -0.1139372316
 H         -3.2451698078       -1.3340285684       -0.0215757971
 H          2.7153006374        0.1081814735        0.4990243960
 H          0.3268707182        4.7045724939        0.7549211799
 H         -0.7645272425        3.4050147198        0.4979274464
 H         -1.8260408562       -5.2037153274        1.1094019330
 H         -2.7669431869       -4.9673099814       -2.4432002885
 H          4.9358746919        3.8446235644        0.3639416568
 H          4.8586388691        5.5981173297        0.3440939467
  37
        -73.92046337
 P         -0.0303257115       -3.4692832285       -0.5210721460
 O         -0.8573557750       -0.8102898801        0.5698076607
 O         -2.8887764241        1.2406156126        1.6466091551
 O         -3.7594961036        0.6449297914       -0.8398152839
 O         -1.4440507314       -3.0685241305       -1.1834630117
 O          0.0967451992       -4.9754637170       -0.9176226961
 O         -0.2697693707       -3.5504340087        1.0430263010
 O          1.0890670815       -2.6327460245       -0.9733302276
 O          2.8316681296        4.6168593054        0.9326555241
 N          0.5310561432        1.0936182534        0.5217734272
 N          2.3705046048        1.4049817940       -0.6772372872
 N          0.3950656011        3.2054303448        1.7059486150
 N          4.1160079379        3.6017903649       -0.6385207559
 C         -1.9253279933        1.3099520675        0.6353331155
 C         -2.3819984061        0.5601674297       -0.6357110183
 C         -0.6793032001        0.5009815480        1.0495195497
 C         -1.9871177574       -0.8854203457       -0.3011370293
 C         -1.6535356205       -1.7162169662       -1.5324309583
 C          1.0131064164        2.3286680611        0.8697773702
 C          1.4007147295        0.5887958018       -0.4159992473
 C          2.1594989495        2.5154573584        0.1100495320
 C          3.0488155946        3.6606577377        0.1705016920
 H         -1.6620699219        2.3556679403        0.4351095981
 H         -1.8033856979        0.9065439097       -1.4987159600
 H         -0.6066125834        0.4634319684        2.1465270925
 H         -2.8114896954       -1.3687523608        0.2407363756
 H         -0.7505050699       -1.3229835320       -2.0090567202
 H         -2.4960143249       -1.7055477700       -2.2258895153
 H         -3.7587102399        1.1003435657        1.2298357593
 H         -3.9787594440        1.4148379076       -1.3848077130
 H          1.2946739164       -0.3921043171       -0.8304552248
 H          0.9930509033        3.9956724211        1.9210853270
 H         -0.1329911845        2.8288198669        2.4779062956
 H         -0.6142635313       -5.5522831435       -0.6094549213
 H         -0.2256710281       -2.6956532275        1.4829317514
 H          4.2362842903        2.7841983280       -1.2119941132
 H          4.7899139050        4.3479399254       -0.6380478821
  37
        -73.92039971
 P         -0.3902031485       -3.1868041488       -1.0819024755
 O         -1.4096330851       -0.0116587179        1.6163796629
 O         -3.0030525859        1.8143724314       -0.3768923016
 O         -2.9097168899       -0.5992060344       -1.5786991212
 O         -0.4740450182       -2.6585526702        0.4370344266
 O          0.2812411090       -4.6091623294       -0.9784524605
 O          0.7397281598       -2.3222646922       -1.7365466104
 O         -1.6930943243       -3.1419263442       -1.7693399347
 O          3.2014749815        4.4266593858        0.3818964096
 N          0.3095908579        1.3924137134        0.9167615568
 N          2.4708372428        0.9051161128        0.8202950813
 N          0.3694164108        3.8059568553        0.7899311948
 N          4.6304540914        2.6675435251        0.4885539558
 C         -1.7614515880        1.1756304107       -0.4152231897
 C         -1.8822173757       -0.3358040328       -0.6738584361
 C         -1.1202810744        1.2106028223        0.9887060056
 C         -2.1384216727       -0.8727222151        0.7456718034
 C         -1.7416269594       -2.3286472045        0.9810207925
 C          0.9627923373        2.5858462797        0.7726018066
 C          1.2765275898        0.4183422184        0.9311701687
 C          2.3151078839        2.2707207259        0.7153859399
 C          3.4041562872        3.2094336710        0.5228609617
 H         -1.1065037527        1.6541778733       -1.1578621826
 H         -0.9160417768       -0.7022490897       -1.0411729097
 H         -1.5471342113        2.0330624496        1.5797908626
 H         -3.2107733937       -0.7725864667        0.9693195928
 H         -2.5092608728       -2.9676441935        0.5405358348
 H         -1.6642645427       -2.5011696232        2.0555399790
 H         -3.5674957857        1.4214703403       -1.0638697310
 H         -2.7950506925       -1.5061747708       -1.9132116612
 H          1.0334269157       -0.6180876673        1.0408982156
 H          1.0164891909        4.5473362767        0.5495687359
 H         -0.5656709965        3.8877628083        0.4243135385
 H         -0.3114098304       -5.3609046193       -0.8723989260
 H          1.6372865586       -2.6559723458       -1.6153186436
 H          4.7168224577        1.6735327178        0.6142440407
 H          5.4366339436        3.2545625127        0.3611304336
  37
        -73.92039589
 P          1.1434819994       -1.8439958528        0.0837420686
 O         -2.2264209187        0.7579007657        1.4877042363
 O         -3.1663457555        1.1078782266       -1.7993308864
 O         -4.4551955251       -0.3685312513       -0.0511254406
 O         -0.3958218448       -1.3367002632        0.0906758194
 O          1.5968232660       -1.5096165056       -1.3679659064
 O          1.0194049244       -3.4236674596        0.1019373991
 O          1.9203979455       -1.3462187620        1.2270028928
 O          3.2013747635        0.5040976894       -1.4997323037
 N         -0.4421109539        1.6194122868        0.2872445270
 N          1.4983236417        1.8775501749        1.3496159823
 N          0.3370571244        1.1189877542       -1.9554807829
 N          4.0960185999        1.5974411527        0.2737719808
 C         -2.3706854183        0.4471000161       -0.8681133244
 C         -3.0925333918       -0.6927775797       -0.1112038788
 C         -1.8777897868        1.3802289402        0.2764402577
 C         -2.4103592551       -0.6325315598        1.2663550590
 C         -1.1013946846       -1.4380441876        1.3200696822
 C          0.5341835392        1.3639675510       -0.6360260927
 C          0.2137481436        1.9220495330        1.4603440663
 C          1.7445625149        1.5035230208        0.0471309487
 C          3.0548780065        1.1638269626       -0.4382773890
 H         -1.5183210772        0.0197386444       -1.3947435967
 H         -2.9265340621       -1.6542551984       -0.6035634913
 H         -2.3962006841        2.3485821468        0.2417042644
 H         -3.0589581873       -0.9713105345        2.0768825407
 H         -1.3257552437       -2.4909447671        1.5139384833
 H         -0.4672037269       -1.0607039389        2.1286226171
 H         -4.0873919569        1.0865687534       -1.4855983364
 H         -4.9719705344       -1.1216051066        0.2656634166
 H         -0.3228208375        2.1544189791        2.3566325109
 H          1.1888028530        1.0940783733       -2.4968400766
 H         -0.4729934081        1.5174240869       -2.4028989081
 H          2.2296670109       -0.7305461172       -1.4795782216
 H          0.7783073000       -3.8148361483       -0.7475585585
 H          3.9057261948        2.0147728988        1.1702332304
 H          5.0204570621        1.2700677434        0.0446905483
  37
        -73.92037051
 P          0.9720975295       -2.0036038451       -0.3804993391
 O         -1.7816345488        0.1425479055        1.4274611719
 O         -3.8756193683        1.9639081798       -0.0026257291
 O         -4.4229966567       -0.5474126773       -0.5600249540
 O         -0.5840857033       -1.7478579159       -0.6532066579
 O          1.6508594749       -1.6093182947       -1.7373647160
 O          1.0473102335       -3.5819009579       -0.3777440276
 O          1.4909910701       -1.3781187626        0.8500793334
 O          3.6606746024        1.8747313686        1.4050999406
 N         -0.3014683020        1.3383090578        0.0504990932
 N          1.4189435993        1.0598396983       -1.3219144901
 N          0.8225449348        2.0289660784        2.0687495177
 N          4.1732391372        1.3536665345       -0.7376020992
 C         -2.7558491132        1.2454856147       -0.4245782992
 C         -3.0514691852       -0.2758643708       -0.5605497000
 C         -1.6267180767        1.2891771775        0.6258959475
 C         -2.4297200988       -0.8979527332        0.7072990853
 C         -1.4833535466       -2.0643029424        0.4071624118
 C          0.8293912690        1.6043621859        0.7808444410
 C          0.1254860718        0.9944277349       -1.2009310521
 C          1.8964902945        1.4541351879       -0.0913650341
 C          3.3000682303        1.5786288489        0.2564184218
 H         -2.4321545938        1.7042504494       -1.3609556660
 H         -2.5551917030       -0.6856221440       -1.4461900721
 H         -1.7386796670        2.1627676448        1.2799043576
 H         -3.2288446938       -1.2800555753        1.3539179022
 H         -2.0645886225       -2.9366657268        0.1014455668
 H         -0.9149525861       -2.2917939863        1.3121363005
 H         -4.4717049491        1.3737805208        0.4902250091
 H         -4.8116351420       -0.3283055435       -1.4200061306
 H         -0.5333952151        0.7189244377       -1.9972735713
 H          1.7619840333        2.0409282000        2.4517904621
 H          0.1240061410        1.6130695890        2.6673484638
 H          1.7575830922       -0.6388808664       -1.8454074375
 H          1.8808384753       -3.9486827954       -0.0629054698
 H          3.8300893295        1.1248602693       -1.6536770392
 H          5.1601326293        1.4024036734       -0.5504104646
  37
        -73.92034036
 P          0.4618559435       -2.4037992726        0.4232494477
 O         -1.2497334070       -0.4662713971        0.5689334227
 O         -3.6543913045        1.4642181671        0.8483406003
 O         -4.2432880145        0.0491847103       -1.3360934398
 O         -0.9383066473       -2.9539646024       -0.1570086955
 O          1.0396472601       -1.3819034237       -0.6315327815
 O          1.3712688846       -3.6812896735        0.1603753739
 O          0.4927127382       -1.9927287784        1.8361965000
 O          4.0396267172        1.7436530000        0.8828925781
 N         -0.0960381317        1.4775459150       -0.0071818755
 N          1.3417504989        2.3467097262       -1.4570385079
 N          1.3447499337        0.9701304900        1.8573388945
 N          4.1115417060        2.6484931570       -1.1953603628
 C         -2.6007052099        1.3771029520       -0.0707913552
 C         -2.9064571253        0.1724570874       -0.9930000970
 C         -1.2844650783        0.9509726319        0.6086740432
 C         -2.3454926749       -0.9970490331       -0.1563633800
 C         -1.8012871468       -2.1709259893       -0.9623584500
 C          1.1391984541        1.4148436135        0.5872839449
 C          0.1060680836        2.0233636233       -1.2522439391
 C          2.0249510578        1.9810090210       -0.3179896206
 C          3.4612367600        2.1157049297       -0.1502112623
 H         -2.4842469903        2.3091348985       -0.6294594285
 H         -2.3424075767        0.2591518736       -1.9267955288
 H         -1.2644243937        1.2498848653        1.6662653642
 H         -3.1022490506       -1.3463106171        0.5595437780
 H         -1.2503595091       -1.7905914578       -1.8270565917
 H         -2.6020068073       -2.8364490099       -1.2850608187
 H         -3.6395458136        2.3113891416        1.3150296589
 H         -4.7858567007        0.2668514715       -0.5580495471
 H         -0.6789939473        2.1749307127       -1.9628843144
 H          2.3379918016        0.9405029756        2.0645456624
 H          0.8683520220        0.1048782223        2.0914220867
 H          1.5721530169       -1.8243927377       -1.3051559962
 H          1.3720567717       -4.3274445991        0.8722509067
 H          3.5768730761        2.9324826823       -1.9985485920
 H          5.1084972969        2.7729619210       -1.1558152371
  37
        -73.92032409
 P          0.0963205951       -3.2765439148       -0.7140082379
 O         -0.8709999363       -0.8019443661        0.2630731361
 O         -2.5231241613        2.2613044470        0.7677756208
 O         -4.1631570047        0.3161742410        0.2023899036
 O         -1.4887090147       -3.3514437660       -0.4135707427
 O          0.4332132888       -4.8060466439       -0.9453611752
 O          0.8450196643       -2.8995035697        0.6186233153
 O          0.4646218236       -2.4217408159       -1.8452726563
 O          2.8124751515        4.5328888826        1.1210965656
 N          0.5059935067        1.0694642588        0.3640885089
 N          2.5360088742        1.2981833642       -0.4890387374
 N          0.3097009085        3.0738733927        1.6943874968
 N          4.3102054161        3.4473020752       -0.1923700139
 C         -1.9416941530        1.2954708762       -0.0498344176
 C         -2.9324535350        0.1589418314       -0.4434225654
 C         -0.7886546907        0.5367225711        0.6719461429
 C         -2.2382404902       -1.1183955902        0.0722654197
 C         -2.2967939055       -2.2959758073       -0.8914345995
 C          0.9751368093        2.2721858235        0.8211061731
 C          1.4917835971        0.5353449466       -0.4278631529
 C          2.2488610600        2.4038413447        0.2853654906
 C          3.1347878523        3.5400985769        0.4478770241
 H         -1.5405766254        1.7961568443       -0.9370833505
 H         -3.0418340328        0.1090937488       -1.5287504081
 H         -0.9426271718        0.6197048380        1.7637368952
 H         -2.6911789594       -1.3944068356        1.0366433655
 H         -1.9164151570       -1.9768799279       -1.8663048910
 H         -3.3112361955       -2.6875643519       -0.9707555795
 H         -3.3278545573        1.8744581671        1.1677974389
 H         -4.8049711835        0.7495173833       -0.3788385321
 H          1.3780114105       -0.4118074188       -0.9135529037
 H          0.7726227633        3.9683653209        1.8041870480
 H         -0.6972887609        3.1108957304        1.6063604210
 H         -0.2114804342       -5.4530694806       -0.6322184837
 H          0.6786029188       -3.4574712580        1.3884164355
 H          4.4993383353        2.6131093356       -0.7213278497
 H          4.9765350506        4.1978638721       -0.1338805636
  37
        -73.92030656
 P         -0.2280223418       -3.2029138406       -1.1294720779
 O         -1.4000878699        0.4587065062        1.5734928069
 O         -3.4621315065        1.4717446571       -0.4004516541
 O         -3.3343601046       -1.0794172099       -0.7873007739
 O         -0.5007020591       -2.9036005119        0.4332664691
 O         -1.6157988762       -3.5041746128       -1.7811396264
 O          0.4505352490       -4.6264077853       -1.0861683996
 O          0.5295784199       -2.1317322645       -1.7952404426
 O          3.4874365974        3.6036425985        1.9947800625
 N          0.1200320861        1.7099096917        0.2717339689
 N          2.1000349826        1.6659547115       -0.7329066700
 N          0.6072399992        3.0737164345        2.2024920607
 N          4.5133305739        2.8155319437        0.1311068259
 C         -2.1364918362        1.0569846492       -0.5829970584
 C         -2.1033806803       -0.4936092326       -0.5079252081
 C         -1.2638662252        1.4807452199        0.6130638153
 C         -1.6010697604       -0.7902975706        0.9283098557
 C         -0.3007239240       -1.6033864845        0.9429170823
 C          0.9800383881        2.4205570368        1.0721416463
 C          0.8718905870        1.2648190574       -0.7936768925
 C          2.2079394612        2.4001512510        0.4281460676
 C          3.4408617790        2.9923624899        0.9154362189
 H         -1.7263756120        1.4201843941       -1.5273987717
 H         -1.3927111868       -0.8930337000       -1.2357811488
 H         -1.6449711619        2.3963578583        1.0806457171
 H         -2.3683866169       -1.3337784861        1.4894898584
 H          0.0438792002       -1.7164385419        1.9736212108
 H          0.4636672744       -1.0894089696        0.3512522637
 H         -3.6125936283        2.3427401081       -0.7922172497
 H         -4.0352615319       -0.4566570025       -0.5179726178
 H          0.4826784573        0.6425981585       -1.5731172797
 H          1.4094656307        3.4527209170        2.6929960423
 H         -0.0829441467        2.6195582639        2.7819134724
 H         -2.0767128353       -4.2833779646       -1.4451466228
 H          1.3862094570       -4.6468272524       -0.8580932293
 H          4.4007938872        2.3012790988       -0.7258881187
 H          5.4060276348        3.1863949155        0.4082076659
  37
        -73.92029519
 P          0.1050530444       -3.2955409836       -0.7528178455
 O         -0.9033797390       -0.8203856479        0.4296578954
 O         -2.3713432479        2.3980000311        0.2194330815
 O         -3.9499154798        0.3473359580        0.8575125771
 O         -1.5047033046       -3.3529826460       -0.6868929135
 O          0.4766279342       -4.7725443777       -1.1063554218
 O          0.6181224254       -3.1807414148        0.7409462611
 O          0.6143085613       -2.3142543686       -1.7204155620
 O          2.8243511047        4.4686938220        1.2483081057
 N          0.4469262885        1.0940666448        0.3297586998
 N          2.4566661001        1.3543335360       -0.5653063778
 N          0.3174263756        3.0219122643        1.7821288291
 N          4.2724200858        3.4543266720       -0.1739546582
 C         -1.9575235512        1.1618694686       -0.2810029310
 C         -3.0521286769        0.0749840427       -0.1802359900
 C         -0.8546401892        0.5731026227        0.6235988535
 C         -2.2492699527       -1.2056860450        0.1250244257
 C         -2.2221695102       -2.1900961541       -1.0401631132
 C          0.9479034213        2.2608015191        0.8478657945
 C          1.4028940323        0.6042053334       -0.5290805366
 C          2.2079950188        2.4089429609        0.2873017463
 C          3.1165180548        3.5201671164        0.5021585835
 H         -1.5723770053        1.2246018382       -1.3040654662
 H         -3.6074220123       -0.0324235825       -1.1197946316
 H         -1.0859592115        0.8219425212        1.6736916099
 H         -2.6780539814       -1.6964872347        1.0078092878
 H         -1.7371107153       -1.7212032359       -1.9017854715
 H         -3.2328136458       -2.5154066237       -1.2886896023
 H         -2.8117861215        2.9167592860       -0.4704933302
 H         -3.8411037541        1.2786995511        1.1270106253
 H          1.2704400016       -0.3063300885       -1.0763253200
 H          0.8175624118        3.8877431055        1.9488861321
 H         -0.6847216259        3.1131682781        1.6929266676
 H          0.1962744638       -5.4386093727       -0.4657361320
 H          0.5219238352       -2.3036499122        1.1247219457
 H          4.4373397172        2.6542733731       -0.7608643074
 H          4.9534731331        4.1881227918       -0.0810400784
  37
        -73.92027480
 P         -0.3137835700       -3.4692895800       -0.6916830064
 O         -1.6238347205        0.4100561154        1.6128293841
 O         -1.8689687364        1.3403628833       -1.7602195936
 O         -3.5615707501       -0.2635699534       -0.5516442853
 O         -0.8338168754       -3.0839987185        0.7900331371
 O         -1.6140839148       -3.9011333484       -1.4733646480
 O          0.5264446062       -4.7806247249       -0.4683764583
 O          0.4147089141       -2.3915067029       -1.3645818978
 O          3.1595522421        4.1263762822       -0.9296571058
 N          0.1851157485        1.6851245622        0.8244843104
 N          2.2084681384        1.8451405488        1.7195493395
 N          0.3479002574        3.2688178460       -0.9904362063
 N          4.3874791500        3.3649064191        0.8186157199
 C         -1.3412018608        0.5347697535       -0.7573073222
 C         -2.2290339084       -0.6687667924       -0.3865953239
 C         -1.1848236406        1.2760047756        0.6033792871
 C         -1.8597376168       -0.8918860322        1.0868944203
 C         -0.6149914017       -1.7731695334        1.2656164716
 C          0.8781398054        2.5680080218        0.0417256456
 C          1.0440591374        1.2877257491        1.8169944055
 C          2.1445556067        2.6603928401        0.6096329956
 C          3.2543711123        3.4425231960        0.1031291446
 H         -0.3631132269        0.1776484137       -1.0985176811
 H         -1.9901439301       -1.5339751251       -1.0091241341
 H         -1.8148324717        2.1783078634        0.6169410972
 H         -2.6932816461       -1.3091515942        1.6585266395
 H         -0.3812402013       -1.8538567971        2.3293880960
 H          0.2304186278       -1.3259654794        0.7359086176
 H         -2.8414324101        1.2992582100       -1.7056638954
 H         -4.1590593194       -1.0232660143       -0.5285674298
 H          0.7450443442        0.6052076729        2.5838778488
 H          1.0560732093        3.7625030567       -1.5193561435
 H         -0.3930279991        2.8371268822       -1.5254704937
 H         -2.0966935596       -4.6757522384       -1.1560236694
 H          0.3278783941       -5.3176298578        0.3103017687
 H          4.3967637323        2.7825773605        1.6382323895
 H          5.2051859917        3.8679337340        0.5205276090
  37
        -73.92027356
 P         -0.0079510650       -2.7869271201       -0.9498785418
 O         -1.8962166046        0.2557493709        1.6822190398
 O         -2.1363914564        1.5497124898       -1.5363508381
 O         -3.9736491322       -0.0947754329       -0.5833317641
 O         -0.2025605624       -1.9073646222        0.3846888564
 O          1.2871939878       -3.6530774772       -0.6960822593
 O          0.4879848381       -1.7396444767       -2.0047224856
 O         -1.2244348314       -3.5311967600       -1.3103743268
 O          3.3176585453        3.5375285525       -0.5969117853
 N          0.0835019466        1.2896415622        0.9472418232
 N          2.1410250667        1.0154409263        1.7239728583
 N          0.4023452392        3.0939679012       -0.6216893141
 N          4.4886903713        2.3125587385        0.9115923627
 C         -1.6469739170        0.5691698848       -0.6740670554
 C         -2.6662793610       -0.5591617232       -0.3918399735
 C         -1.3376742249        1.1306453425        0.7432362375
 C         -2.3579630413       -0.9428788367        1.0590192370
 C         -1.3628058944       -2.1024175103        1.1761893441
 C          0.8683011650        2.1764180452        0.2622882631
 C          0.9113515103        0.6200754970        1.8094800738
 C          2.1557326241        1.9980279879        0.7558057406
 C          3.3501149093        2.6834630197        0.3047598828
 H         -0.7312917168        0.1480671053       -1.1021261432
 H         -2.5320107607       -1.4016757876       -1.0730996977
 H         -1.8008783345        2.1227315381        0.8654544064
 H         -3.2632686666       -1.2373534547        1.5990830423
 H         -1.8706962595       -3.0158605087        0.8566097940
 H         -1.0343932147       -2.1909132280        2.2140173640
 H         -3.0838949554        1.3735489781       -1.6945458015
 H         -4.2461771166        0.4571247375        0.1669774822
 H          0.5482258817       -0.1306208321        2.4779923885
 H          1.1506977255        3.5677236628       -1.1117511165
 H         -0.4113438544        2.8540328154       -1.1697972414
 H          1.1544697670       -4.5196186702       -0.2962910917
 H          1.4450842851       -1.7114511063       -2.1245063119
 H          4.4375101306        1.6225278139        1.6413563858
 H          5.3582289340        2.7495085122        0.6597346411
  37
        -73.92025654
 P          0.5813851010       -1.7495531378       -0.3550774322
 O         -1.3577846649        0.0650199360        1.2279364887
 O         -3.3722834450        1.7234536167       -0.9943705973
 O         -4.1421175500       -0.7756984104       -0.7317130633
 O         -0.6830008914       -2.6207047415        0.0906635952
 O          1.3681476413       -2.8425403751       -1.1768652160
 O          1.3810960791       -1.5105693226        0.9827803252
 O          0.2987858234       -0.5823199050       -1.2031984589
 O          3.4584214956        0.1337141121        0.8475272371
 N         -0.2486288005        1.8216815846        0.2361614531
 N          1.4693388960        2.4058173862       -1.0577616146
 N          0.9349454210        1.0398541385        2.1898463263
 N          4.2147954969        1.6600874794       -0.6486864058
 C         -2.2958279563        0.8484373646       -0.8113895771
 C         -2.7681077168       -0.6159028802       -0.5630549852
 C         -1.5508673353        1.2448641114        0.4822906582
 C         -2.3045992304       -0.9259578522        0.8737590461
 C         -1.6527443955       -2.2918028910        1.0684598792
 C          0.8859589233        1.4150438954        0.8894181252
 C          0.1853653847        2.4127825399       -0.9319099336
 C          1.9510431345        1.7429716626        0.0542263173
 C          3.2572859016        1.1394786328        0.1211151359
 H         -1.5965078254        0.8649013615       -1.6507515021
 H         -2.2740674591       -1.2906127351       -1.2657128521
 H         -2.1813780625        1.9553545585        1.0453653968
 H         -3.1692605747       -0.8600031042        1.5520980009
 H         -2.4097277857       -3.0744188162        0.9874694710
 H         -1.1848950336       -2.3104960880        2.0564584228
 H         -3.7173844867        1.6373824893       -1.8958720921
 H         -4.5917594353        0.0251689036       -0.4063584074
 H         -0.4889087269        2.8647636353       -1.6290708909
 H          1.8160576135        0.6207870468        2.4526020633
 H          0.1157647112        0.5766381564        2.5521266087
 H          1.5779485875       -3.6537208083       -0.6979754904
 H          2.1936108192       -0.9256073038        0.9249888398
 H          3.9635271023        2.4021675188       -1.2802890976
 H          5.0986184897        1.1853686907       -0.7340340296
  37
        -73.92024714
 P         -0.3515790546       -3.1229933052       -1.3023380007
 O         -1.2713561001        0.4369864701        1.5493942304
 O         -2.8914884689        1.3703182673       -1.2859037695
 O         -3.7608002142       -0.5942696051        0.2292305540
 O         -0.3835079414       -2.9046446027        0.2994124766
 O         -1.7538890366       -3.7140400050       -1.6672459710
 O          0.6011597143       -4.3647789576       -1.4854066427
 O          0.0043199247       -1.8974374949       -2.0321664202
 O          3.3049640714        3.6429461274        2.2628243385
 N          0.2385784501        1.5984732092        0.1781439235
 N          2.2867157574        1.7662123946       -0.6631668991
 N          0.4591645780        2.8852443131        2.2039185660
 N          4.5226957976        3.0541046551        0.4413958421
 C         -1.8738541585        0.5756818938       -0.7579670281
 C         -2.4100001887       -0.7295710172       -0.1103117457
 C         -1.1507386850        1.2817980124        0.4157556117
 C         -1.5080188826       -0.8956259727        1.1161581758
 C         -0.1811099222       -1.6069154000        0.8146789681
 C          0.9717489059        2.3334590520        1.0762780728
 C          1.1022432182        1.2789963328       -0.8457032655
 C          2.2458035758        2.4395732208        0.5385370937
 C          3.3849467487        3.0981541194        1.1501243390
 H         -1.1756400258        0.3259575177       -1.5594869485
 H         -2.3494926848       -1.5666047509       -0.8046033921
 H         -1.6615359395        2.2243706032        0.6567029861
 H         -2.0274867415       -1.4139957752        1.9269369020
 H          0.3901061853       -1.7134686556        1.7397554541
 H          0.3917686776       -1.0153190760        0.0963668290
 H         -3.7476461867        0.9582182638       -1.0558706763
 H         -3.8465697424       -0.0432874305        1.0240171763
 H          0.8281139167        0.6900305705       -1.6966245088
 H          1.1810149967        3.2814013559        2.7937769951
 H         -0.2661269752        2.3639408332        2.6728737026
 H         -1.9369579836       -4.6006226265       -1.3287828266
 H          1.5481194193       -4.1884280198       -1.4785866272
 H          4.5075581875        2.6070842886       -0.4593374958
 H          5.3537598236        3.4954298462        0.7956566888
  37
        -73.92023352
 P         -0.1746858993       -3.7670182591       -0.7583889698
 O         -0.9863966131       -0.6567357130        0.8477276348
 O         -2.7216724576        2.3115876463        0.3013801235
 O         -3.8704626381       -0.0810723668        0.1220282235
 O          0.2924108504       -2.2554703123       -1.0894105257
 O         -0.4096200486       -3.8624872416        0.7888256767
 O          1.1615514321       -4.5712738619       -0.9653484238
 O         -1.3467493578       -4.1684858799       -1.5498471502
 O          2.5241528712        4.8992010794        0.8065003333
 N          0.4185086063        1.2356076758        0.6720022605
 N          2.5707318648        1.3361138075        0.1516900817
 N         -0.0168779561        3.5111850568        1.3433573363
 N          4.2446536570        3.5884140996        0.1215729214
 C         -1.9044192156        1.2950784594       -0.1841251844
 C         -2.6860488739        0.0292666098       -0.6151510396
 C         -0.9231860156        0.7434823388        0.8933754308
 C         -1.6775706435       -1.0847339343       -0.3224653506
 C         -0.7208791829       -1.3526855029       -1.4867664436
 C          0.7922869647        2.5409347063        0.8482775458
 C          1.5369304687        0.5623969873        0.2490357318
 C          2.1420448201        2.5931998825        0.5212397619
 C          2.9729361557        3.7811768000        0.5041397684
 H         -1.3260415290        1.6932517012       -1.0259470585
 H         -2.9780651007        0.0662078337       -1.6652162048
 H         -1.2297651989        1.0740541230        1.8972063095
 H         -2.1593048934       -2.0345036682       -0.0683972551
 H         -0.2031073390       -0.4469166258       -1.8070252253
 H         -1.2907227461       -1.7854546834       -2.3131212234
 H         -3.6051901216        1.9370077978        0.4821982938
 H         -3.6872137677       -0.4454086657        1.0015554728
 H          1.5282669652       -0.4851849811        0.0325167494
 H          0.4099276301        4.4274504659        1.2836687673
 H         -1.0011941719        3.4646451039        1.1202220376
 H          0.3837712204       -3.8311052146        1.3370178967
 H          1.4239589684       -4.7318611985       -1.8783771306
 H          4.5384900301        2.6553993304       -0.1116973633
 H          4.8798184862        4.3664037720        0.0772740884
  37
        -73.92022377
 P         -0.2476576355       -3.3883064787       -0.5870178133
 O         -1.7448729790        0.5214442037        1.5472193368
 O         -2.1067744379        1.4279936568       -1.7131569894
 O         -3.6300097249       -0.5200947023       -0.6204735341
 O         -0.7319465960       -2.9529075765        0.8916241719
 O         -1.5339197470       -3.8932703508       -1.3226995917
 O          0.5442934346       -4.7258167666       -0.3264206366
 O          0.4696009605       -2.3140901855       -1.2889329262
 O          3.2751792778        3.8996665920       -1.0107558618
 N          0.1355203818        1.6854022790        0.7503951904
 N          2.0866449585        1.9209548434        1.7822465622
 N          0.5760789777        2.8351661282       -1.3268478742
 N          4.3571801097        3.3154532687        0.8957428063
 C         -1.4447314496        0.5828891119       -0.8176809456
 C         -2.2583165815       -0.6705372438       -0.4067960458
 C         -1.2506871218        1.3371505963        0.5208541412
 C         -1.8888277103       -0.8155461935        1.0772373895
 C         -0.5925832911       -1.6083669475        1.2947771816
 C          0.9258487177        2.4190205103       -0.0925485054
 C          0.8952575460        1.4242508544        1.8654545038
 C          2.1474630988        2.5575218598        0.5609484026
 C          3.2916166828        3.3026850080        0.0791038018
 H         -0.4710688340        0.2625258425       -1.2128313006
 H         -1.9605905716       -1.5428697362       -0.9884612693
 H         -1.8422120202        2.2662960589        0.5090698884
 H         -2.7002905237       -1.2724704457        1.6500999535
 H         -0.3506420163       -1.6205772133        2.3598465561
 H          0.2222640567       -1.1400005726        0.7353964332
 H         -2.3596142222        0.9344542261       -2.5075448755
 H         -3.9562259322        0.2624689473       -0.1498491841
 H          0.5052624826        0.8798196566        2.6989548518
 H          1.2352178487        3.4795565071       -1.7403461287
 H         -0.3968277519        2.8935575876       -1.5815850365
 H         -1.9527747727       -4.6798988121       -0.9490297980
 H          1.4521689103       -4.6379182508       -0.0165844623
 H          4.2963243575        2.8221987725        1.7697452234
 H          5.1839171344        3.8244229098        0.6352763264
  37
        -73.92021893
 P          0.6288359147       -1.9878720796       -1.0782513335
 O         -1.8166068065        0.4044589990        1.5172209253
 O         -3.8716953548        1.6679703859       -0.2855452567
 O         -3.9464499983       -0.9085808703       -0.7756609057
 O          0.1373358631       -1.3934437101        0.3199200787
 O          0.7964852778       -3.5242326327       -0.7668536038
 O          2.0939831338       -1.4552104967       -1.2117368204
 O         -0.2678706503       -1.7105061279       -2.2220305020
 O          3.4772451228        1.6557991299        2.1367783698
 N         -0.2521201247        1.4933972802        0.1656676976
 N          1.6392082082        1.1824914210       -0.9506081120
 N          0.5870569624        1.9958520821        2.3667500724
 N          4.2860553306        1.2682127997        0.0568370074
 C         -2.6143895012        1.1259699126       -0.5691230831
 C         -2.6467239120       -0.4263237682       -0.5650567124
 C         -1.6396678821        1.4362415679        0.5761479441
 C         -2.1948641524       -0.8005411906        0.8625264844
 C         -1.0774342809       -1.8507156936        0.9102562028
 C          0.7666603222        1.6446957077        1.0739203028
 C          0.3418143953        1.1963491636       -1.0305002477
 C          1.9453687460        1.4642846028        0.3651123032
 C          3.2847267814        1.4757619683        0.9246446653
 H         -2.2651409430        1.5398391570       -1.5200110940
 H         -1.9415710321       -0.8209652032       -1.2976496455
 H         -1.9022531673        2.3774026964        1.0737092695
 H         -3.0512465362       -1.2106940848        1.4117227611
 H         -1.4216737440       -2.7596292237        0.4135939532
 H         -0.8385132085       -2.0665165100        1.9541404768
 H         -4.5107809631        0.9309413889       -0.2274002013
 H         -4.0971195702       -1.0772597351       -1.7162528139
 H         -0.1976156512        1.0142635593       -1.9358746606
 H          1.4427752489        1.9270163102        2.9048377728
 H         -0.2578914117        1.6730721836        2.8133497504
 H          0.9094096202       -4.0833563234       -1.5444077336
 H          2.1263059404       -0.4820193859       -1.3566126189
 H          4.0756633352        1.1383679586       -0.9169386758
 H          5.2350629558        1.2490059836        0.3889893611
  37
        -73.92020118
 P          1.1287905048       -2.3630086350       -0.3107951980
 O         -1.9568390201        0.1475999953        1.3478013635
 O         -4.1743399183        1.6514919046        0.1170174628
 O         -3.7342395484       -0.3627563646       -1.6742131592
 O         -0.0854224268       -1.3130786724       -0.3036932177
 O          1.3731725319       -2.6006368654        1.2463738789
 O          2.3297219434       -1.5489779237       -0.8659150835
 O          0.8292167604       -3.5974037473       -1.0558302215
 O          3.4380284328        0.2851726143        0.5487771848
 N         -0.5043230981        1.7686184115        0.4009029965
 N          1.1311304794        2.7033258502       -0.7825015483
 N          0.7753828172        0.3885982276        1.9110659075
 N          3.9042882790        2.1870018624       -0.5915475960
 C         -2.8566778801        1.4895937811       -0.3216868413
 C         -2.6456805968        0.0844215179       -0.9324615404
 C         -1.8531450247        1.4575840988        0.8422944276
 C         -2.3617635433       -0.7685902634        0.3254371157
 C         -1.3288058335       -1.8703789796        0.1113905458
 C          0.6582431791        1.1858640839        0.8286602458
 C         -0.1415530913        2.6799062852       -0.5690401617
 C          1.6734968433        1.7609846142        0.0624771677
 C          3.0571561667        1.3670036245        0.0285709445
 H         -2.6805865559        2.2844767956       -1.0433940485
 H         -1.7637819095        0.0760406866       -1.5814697859
 H         -2.1332065001        2.1399006453        1.6565164866
 H         -3.2834348071       -1.2600905219        0.6614148539
 H         -1.6860794548       -2.5651424301       -0.6534861722
 H         -1.1799992202       -2.4171681043        1.0459999514
 H         -4.3336824358        1.1235439491        0.9148474664
 H         -4.5339769190        0.0975291314       -1.3579916480
 H         -0.8415670287        3.3177192078       -1.0647762740
 H          1.6519716633       -0.1106496227        1.9637864059
 H         -0.0493284674       -0.1185132643        2.1952271889
 H          1.7713961060       -3.4529613723        1.4515721914
 H          2.7721707584       -0.8870788717       -0.2417787720
 H          3.5340797806        3.0074609816       -1.0421295893
 H          4.8665688161        1.9154137956       -0.7096407066
  37
        -73.92020112
 P          0.1658675525       -2.8183659469        0.1938079934
 O         -1.0836156962       -0.1398994047        1.0237736533
 O         -2.7110513613        1.7963317872       -1.4069527982
 O         -4.1510119898       -0.2913493030       -0.6990568299
 O         -1.4339410045       -2.9768520070        0.2037987372
 O          0.4801439464       -1.7571166696       -0.9349762525
 O          0.6005952201       -4.1976808403       -0.4226137399
 O          0.7524070911       -2.5513399920        1.5151666408
 O          4.2134717629        1.5578432057        0.1955211990
 N          0.0001604784        1.7863718053        0.1633842205
 N          1.2427721030        3.5367398670       -0.4115789862
 N          1.7326824054        0.1096432460        0.5345383743
 N          4.0435614077        3.7157302987       -0.4853124282
 C         -1.9278750465        0.7157574410       -0.9975087855
 C         -2.7805276359       -0.5241125288       -0.5974965510
 C         -1.2329092115        1.0775379108        0.3391338943
 C         -2.3278394096       -0.8091915179        0.8593481344
 C         -2.1723525508       -2.2853334947        1.1897653831
 C          1.3020487479        1.3790145531        0.2503656235
 C          0.0372707992        3.1008226177       -0.2402373486
 C          2.0675950208        2.4797164550       -0.1091006379
 C          3.5219362165        2.5383903637       -0.1212803600
 H         -1.1671810180        0.4453221057       -1.7364413853
 H         -2.5480665140       -1.3860533939       -1.2274965580
 H         -1.9192307728        1.7425386544        0.8959430178
 H         -3.0653951852       -0.3746727674        1.5506772490
 H         -3.1535270384       -2.7603993100        1.2208407174
 H         -1.6614243889       -2.3775512146        2.1519835238
 H         -2.9590143309        1.6975438706       -2.3383458903
 H         -4.3155923234        0.6645255164       -0.6032947443
 H         -0.8553658826        3.6702264820       -0.3954777395
 H          2.7454030224        0.1036555293        0.6409512684
 H          1.2417130342       -0.3833744908        1.2723496907
 H          1.0580192944       -1.0331298943       -0.5781489174
 H          0.2667912705       -4.3884395718       -1.3083089060
 H          3.4164014582        4.4667964494       -0.7200615785
 H          5.0415370375        3.8394358663       -0.5048038099
  37
        -73.92019232
 P          0.1986318403       -2.5562513729       -0.8332459922
 O         -2.0024710884        0.2517797583        1.6170972504
 O         -2.2008374101        1.5711068533       -1.5510163827
 O         -4.0681578854       -0.1657672004       -0.6745346462
 O         -0.2076559998       -1.8297383227        0.5279455030
 O          0.2198126157       -4.0898447405       -0.4250158061
 O          1.6820293799       -2.0869483905       -1.0026761518
 O         -0.6408459439       -2.2702854362       -2.0070305752
 O          3.3162438603        3.2880353821       -0.7555133483
 N         -0.0095555971        1.2702307660        0.9018266731
 N          2.0247936537        0.9987068759        1.7395192437
 N          0.3969375863        2.9555087367       -0.7769999743
 N          4.4266881576        2.1525288621        0.8646135626
 C         -1.7229326684        0.5434850142       -0.7318589774
 C         -2.7504510708       -0.5791837731       -0.4632804253
 C         -1.4281209607        1.1133688954        0.6766354071
 C         -2.4573276671       -0.9524468565        0.9995225045
 C         -1.4531895486       -2.0998486110        1.1594112366
 C          0.8131466775        2.0821245646        0.1702577001
 C          0.7830437427        0.6459746047        1.8298571261
 C          2.0867877958        1.9014667897        0.6984802229
 C          3.3082726444        2.5085509259        0.2123195064
 H         -0.8090519477        0.0941869289       -1.1476351288
 H         -2.5897077823       -1.4215956109       -1.1372209573
 H         -1.8954414194        2.1066238405        0.7745288575
 H         -3.3753427121       -1.2395928800        1.5219864086
 H         -1.8895270782       -3.0167229520        0.7605591754
 H         -1.2309003676       -2.2278204798        2.2218137967
 H         -2.6199909958        1.1937511263       -2.3391566782
 H         -4.2638875202        0.6197409896       -0.1410975448
 H          0.3828182261       -0.0372296569        2.5478562940
 H          1.1632615489        3.3600121121       -1.2988548110
 H         -0.4533872815        2.7524173395       -1.2819027020
 H          0.0349922052       -4.7009129834       -1.1469502118
 H          2.2989316425       -2.4060848444       -0.3317405286
 H          4.3433924660        1.5277137967        1.6480090156
 H          5.3132573429        2.5380286009        0.5893698162
  37
        -73.92018340
 P         -0.2855160035       -3.4254352869       -0.6803452472
 O         -1.6868196882        0.4422903257        1.5933549417
 O         -1.9523744477        1.3559468059       -1.7540870476
 O         -3.6011697019       -0.3790695875       -0.5702096795
 O         -0.7785497081       -3.0361843364        0.8095068646
 O         -1.5909359160       -3.8721399323       -1.4427168891
 O          0.5746020521       -4.7242748650       -0.4613361483
 O          0.4249781323       -2.3462246272       -1.3701335887
 O          3.1984341418        4.0345423140       -0.9473874430
 N          0.1663456366        1.6754170434        0.8187717747
 N          2.1837948415        1.8142180060        1.7294128065
 N          0.3709208981        3.2332837946       -1.0139723504
 N          4.3967849037        3.2829786317        0.8258302118
 C         -1.3747297782        0.5542415991       -0.7723013268
 C         -2.2427954114       -0.6648034237       -0.3881649230
 C         -1.2096398437        1.2967188809        0.5875012027
 C         -1.8633401307       -0.8762043310        1.0791815625
 C         -0.5895002326       -1.7126926253        1.2600303021
 C          0.8818356224        2.5338392564        0.0285136410
 C          1.0088407553        1.2798971354        1.8266140158
 C          2.1449095741        2.6113866199        0.6056658590
 C          3.2727785596        3.3665056237        0.0972160443
 H         -0.3958742858        0.2115592343       -1.1287718925
 H         -2.0169190948       -1.5229778462       -1.0199999168
 H         -1.8128583870        2.2172691192        0.5948074465
 H         -2.6777100226       -1.3341755216        1.6479409766
 H         -0.3433962474       -1.7707656987        2.3226507527
 H          0.2388038420       -1.2536826554        0.7136943540
 H         -2.8876219270        1.0942393185       -1.8562824393
 H         -3.9217311375        0.1853484586        0.1514386272
 H          0.6912946364        0.6186159228        2.6043712806
 H          1.0904238248        3.7067413660       -1.5459659511
 H         -0.3821086489        2.8198057552       -1.5450608061
 H         -2.1238137877       -4.5835062273       -1.0639816284
 H          0.3540854448       -5.2911393801        0.2898869023
 H          4.3890082147        2.7130323432        1.6541834583
 H          5.2261966984        3.7661205955        0.5270747594
  37
        -73.92015461
 P         -0.3603180558       -3.1588912108       -1.0677193026
 O         -1.4411111703        0.0093442497        1.6244810094
 O         -3.0652947146        1.7898501582       -0.3232739271
 O         -2.9002416138       -0.6015665634       -1.5873062504
 O         -0.4599069314       -2.6293518925        0.4499597621
 O          0.3286410776       -4.5726096788       -0.9563176138
 O          0.7617172397       -2.2821956067       -1.7186596889
 O         -1.6601894287       -3.1329283296       -1.7616699713
 O          3.2291787420        4.3859199734        0.4149355314
 N          0.2874110139        1.3926653757        0.9043800676
 N          2.4451492378        0.8779023554        0.8671235425
 N          0.3771461783        3.7666392974        0.4441533603
 N          4.6342731423        2.6112023091        0.5691406874
 C         -1.8037739404        1.1935151418       -0.4019919439
 C         -1.8881843112       -0.3187907658       -0.6711704321
 C         -1.1440964850        1.2259627882        0.9904422385
 C         -2.1484802913       -0.8631859177        0.7452943694
 C         -1.7353122730       -2.3137120981        0.9838760205
 C          0.9565267770        2.5674781262        0.6925974535
 C          1.2447425592        0.4115653829        0.9943259665
 C          2.3065257106        2.2351719581        0.6736322417
 C          3.4121456895        3.1633768939        0.5377136178
 H         -1.1780742126        1.7055881264       -1.1452127588
 H         -0.9099217390       -0.6632026838       -1.0287202724
 H         -1.5646696015        2.0507085191        1.5839559962
 H         -3.2238144279       -0.7772089680        0.9596795823
 H         -2.4921058687       -2.9614007218        0.5373107295
 H         -1.6649422068       -2.4860268477        2.0590138164
 H         -3.6112699995        1.4378853907       -1.0457505085
 H         -2.7677539482       -1.5080048868       -1.9167491877
 H          0.9901174847       -0.6130373550        1.1683911735
 H          1.0444365567        4.5282764696        0.4636152060
 H         -0.5391753699        3.9485501387        0.8199667589
 H         -0.2548774160       -5.3316383691       -0.8511986357
 H          1.6622542023       -2.6063310238       -1.5941935654
 H          4.7059067786        1.6150217541        0.6865753864
 H          5.4509144063        3.1931468567        0.4971819656
  37
        -73.92014803
 P         -0.3755784870       -3.1608103466       -1.3069187447
 O         -1.2363478721        0.3873555506        1.5684493599
 O         -2.8303911431        1.4059543857       -1.2820916236
 O         -3.7479851688       -0.5154828765        0.1920291513
 O         -0.4764850556       -2.9726037399        0.2953439513
 O         -1.7724011338       -3.7298100565       -1.7289354406
 O          0.5685466577       -4.4111068187       -1.4794044056
 O          0.0242808408       -1.9281413060       -2.0009268480
 O          3.2727059087        3.8271962289        2.1837562650
 N          0.2692332283        1.5800763268        0.2208624822
 N          2.3363601307        1.6870444491       -0.5850952450
 N          0.4402437291        3.0404994629        2.1323735953
 N          4.5340682385        3.1021194050        0.4435275901
 C         -1.8450143699        0.5889587515       -0.7377872960
 C         -2.4002545187       -0.7270744470       -0.1361236318
 C         -1.1192989035        1.2566608146        0.4583528583
 C         -1.5348018681       -0.9249574838        1.1191903541
 C         -0.2342595265       -1.6978847495        0.8518830743
 C          0.9779759997        2.3949284213        1.0676071126
 C          1.1590502143        1.1754655329       -0.7488834816
 C          2.2631700536        2.4648582437        0.5501724868
 C          3.3816816592        3.1890349115        1.1242604124
 H         -1.1428399102        0.3569629231       -1.5396209209
 H         -2.2856049395       -1.5471105601       -0.8467212296
 H         -1.6256769533        2.1949244864        0.7219159825
 H         -2.1033434949       -1.4062027392        1.9194213173
 H          0.2940344265       -1.8530486403        1.7950613449
 H          0.3930570183       -1.1146834296        0.1734957231
 H         -3.6622103242        1.2404905172       -0.8002696812
 H         -4.2304467102       -1.3519689565        0.2289335430
 H          0.9083838363        0.5100702065       -1.5497385201
 H          1.1493620232        3.4941310653        2.6960312394
 H         -0.2874503601        2.5568452657        2.6363351001
 H         -1.9545953628       -4.6348852344       -1.4421346815
 H          1.5162758510       -4.2395572623       -1.4753256874
 H          4.5461412415        2.5725202682       -0.4112060352
 H          5.3529766824        3.5801553248        0.7779003261
  37
        -73.92013805
 P          1.0937307643       -1.9760414052       -0.9192978994
 O         -1.9208012644        0.2167549927        1.4984558420
 O         -4.0656636060        1.8572545440        0.0481050181
 O         -4.2752652101       -0.6703848694       -0.7002641997
 O         -0.2565653500       -1.1867306995       -0.5710069097
 O          1.9788578981       -1.7799702631        0.3903084234
 O          1.7185723213       -1.1005865951       -2.0487086370
 O          0.8984201922       -3.3902668246       -1.2735202682
 O          3.4414489314        1.0760903044        1.8831499678
 N         -0.4271643833        1.5097464658        0.2454851380
 N          1.3564861698        1.3718025106       -1.0663558694
 N          0.6019134278        1.4814334927        2.4249495319
 N          4.0690705273        1.1159994966       -0.2930351810
 C         -2.8518843080        1.3043006078       -0.3611250877
 C         -2.9514755771       -0.2307153395       -0.6075371306
 C         -1.7826527514        1.3989129616        0.7445991077
 C         -2.3177688625       -0.8564229966        0.6537111711
 C         -1.1529293896       -1.8030393852        0.3468645059
 C          0.6634909519        1.4118397938        1.0757329392
 C          0.0607964768        1.4647483983       -1.0309466707
 C          1.7741116278        1.3403483772        0.2482646300
 C          3.1486092514        1.1701693861        0.6817777732
 H         -2.5614445650        1.8609513091       -1.2520118944
 H         -2.3669385642       -0.5127393359       -1.4903084380
 H         -1.9796236088        2.2390530010        1.4217469593
 H         -3.0755488201       -1.4272008058        1.2008935515
 H         -1.5242620110       -2.7338078073       -0.0891950889
 H         -0.6237768257       -2.0290045613        1.2759536291
 H         -4.5291503875        1.2408039898        0.6380365482
 H         -4.6772470206       -0.3570675370       -1.5239452978
 H         -0.5529879010        1.5065222171       -1.9050161971
 H          1.4903098477        1.2612833323        2.8593324145
 H         -0.2235829266        1.1029213383        2.8643450959
 H          2.5104230192       -2.5541255120        0.6038284584
 H          1.7088153274       -0.1243115041       -1.8567570563
 H          3.7801175886        1.1895424884       -1.2526988105
 H          5.0353566971        0.9720973264       -0.0545852073
  37
        -73.92013727
 P          1.1061733714       -2.3902806162       -0.3169112990
 O         -1.9450078067        0.1967525563        1.3530088657
 O         -4.1137825338        1.7115189341       -0.0109954653
 O         -3.7739337215       -0.4648009098       -1.5426315433
 O         -0.1079438047       -1.3420855579       -0.2649473350
 O          1.3996324719       -2.6476802049        1.2270968681
 O          2.2835342534       -1.5618228255       -0.9013926307
 O          0.7851199354       -3.6132212368       -1.0724651044
 O          3.4129785784        0.2649053210        0.5105192328
 N         -0.4991822146        1.8264904866        0.4352062155
 N          1.1516347502        2.7875681733       -0.7082627098
 N          0.7691828661        0.3727841009        1.8880352427
 N          3.9133323862        2.1930092983       -0.5685642858
 C         -2.7981269883        1.4708208007       -0.4169348551
 C         -2.6183021149        0.0206529286       -0.9246034728
 C         -1.8646249972        1.4872968871        0.8085693262
 C         -2.3605673095       -0.7562676378        0.3772491711
 C         -1.3353384960       -1.8766135781        0.2218095362
 C          0.6543725448        1.2084304123        0.8365866014
 C         -0.1208926822        2.7778526204       -0.4890251668
 C          1.6784583823        1.7963294165        0.0897784937
 C          3.0516465538        1.3722644551        0.0314894574
 H         -2.5063493644        2.2082335877       -1.1718472833
 H         -1.7335469939       -0.0443091085       -1.5661271194
 H         -2.2280042386        2.1901427197        1.5699251022
 H         -3.3014796942       -1.2030137732        0.7220239845
 H         -1.7048503653       -2.6294189375       -0.4794829113
 H         -1.1630743137       -2.3488840122        1.1916131967
 H         -4.6856738480        1.0356141994       -0.4203396973
 H         -3.7498543374       -0.2982559412       -2.4955320855
 H         -0.8120928947        3.4569783178       -0.9413930037
 H          1.6354422770       -0.1453945342        1.9189751477
 H         -0.0665882219       -0.1072697067        2.1851751551
 H          1.7922385690       -3.5073222616        1.4116101766
 H          2.7342879317       -0.8981451250       -0.2851976891
 H          3.5611603981        3.0412388132       -0.9801723128
 H          4.8702094002        1.9074108890       -0.6960953631
  37
        -73.92013713
 P          1.1036321178       -1.9755245945       -0.8752548649
 O         -1.9476348640        0.2098921662        1.5073715636
 O         -4.1192874353        1.7388964257        0.2213020570
 O         -4.1622667785       -0.6139722253       -1.0096396535
 O         -0.2397642984       -1.1774613057       -0.5286447578
 O          1.9931277110       -1.7741474766        0.4309709323
 O          1.7294219927       -1.1070587185       -2.0106645283
 O          0.9068587992       -3.3916992473       -1.2197898290
 O          3.4553373977        1.0356724024        1.8122496939
 N         -0.4422948181        1.5108509499        0.2618028684
 N          1.3120825016        1.3935333866       -1.0891125431
 N          0.6285549904        1.4244518813        2.4197077634
 N          4.0401959915        1.1127703538       -0.3748146671
 C         -2.8775431670        1.3475404548       -0.2900618745
 C         -2.8923243116       -0.1608867359       -0.6582120514
 C         -1.7866278304        1.4117129020        0.7841504482
 C         -2.3367905435       -0.8407477809        0.6227324722
 C         -1.1772676593       -1.8010480870        0.3419573345
 C          0.6641790573        1.3870807412        1.0675259763
 C          0.0183551887        1.4925325059       -1.0261432180
 C          1.7563343294        1.3305957575        0.2158719819
 C          3.1396022305        1.1499791918        0.6187202632
 H         -2.6884217453        1.9931157013       -1.1464765402
 H         -2.2159997176       -0.3650654689       -1.4933509856
 H         -1.9466691144        2.2348892942        1.4915848977
 H         -3.1232110958       -1.4101413070        1.1285286765
 H         -1.5482715029       -2.7141031454       -0.1300281141
 H         -0.6846795501       -2.0577365439        1.2833722035
 H         -4.2442654062        1.3738747143        1.1120378349
 H         -4.8168205071        0.0525694537       -0.7243235332
 H         -0.6170905079        1.5613619656       -1.8830515243
 H          1.5274521384        1.1947184186        2.8274603027
 H         -0.1823196198        1.0213466904        2.8649101449
 H          2.5197125752       -2.5500822879        0.6499944713
 H          1.6872801624       -0.1284425370       -1.8475622130
 H          3.7326734078        1.2015538004       -1.3274421708
 H          5.0104520742        0.9606311950       -0.1585243914
  37
        -73.92013479
 P          0.8706760490       -1.9410213415       -0.3700642823
 O         -1.7241351267        0.1697017073        1.4263721825
 O         -3.3094371245        1.7238825437       -1.1940800997
 O         -4.6244525788       -0.1301240542        0.2516873923
 O         -0.7177356065       -1.7621927838       -0.5083390648
 O          1.3983598921       -1.1335945681       -1.5992386244
 O          1.0893051263       -3.4746272534       -0.7375723872
 O          1.4172031717       -1.5672944585        0.9394639677
 O          3.7176751540        1.3681809279        1.4682548488
 N         -0.2515912339        1.3121753812       -0.0235953043
 N          1.4640555698        1.8721772716       -1.3215826976
 N          0.8543496466        1.1219300258        2.1206639867
 N          4.1808633595        1.8811976076       -0.6909556280
 C         -2.5284390576        0.6488576827       -0.7653825636
 C         -3.3457381678       -0.5174374692       -0.1525092847
 C         -1.6248729682        1.1198747501        0.3941083283
 C         -2.4473130067       -0.9834792014        1.0062112299
 C         -1.5052112435       -2.1270139446        0.6193333785
 C          0.8604765515        1.2863830078        0.7744543390
 C          0.1846046778        1.6917139822       -1.2721576380
 C          1.9291172256        1.6156479851       -0.0516615426
 C          3.3300287113        1.6123493199        0.3140552565
 H         -1.9029783899        0.2495660790       -1.5734027651
 H         -3.4975109717       -1.3203390064       -0.8754862612
 H         -1.9997753136        2.0813723418        0.7830183840
 H         -3.0451848331       -1.3083345401        1.8635017798
 H         -2.0829802508       -3.0174176519        0.3633388208
 H         -0.8443289895       -2.3378692088        1.4640755010
 H         -3.9979347412        1.4106271174       -1.8006815886
 H         -4.5762180114        0.6453799202        0.8304324817
 H         -0.4809185448        1.8581806213       -2.0927043693
 H          1.7833217940        0.9168289737        2.4698815360
 H          0.1150696412        0.5384675124        2.4849448591
 H          1.2808334237       -1.5659778280       -2.4555707459
 H          1.7430918897       -3.9339179675       -0.2000842441
 H          3.7970546309        2.0572314961       -1.6034867562
 H          5.1720331157        1.8801997060       -0.5240701502
  37
        -73.92012688
 P         -1.4468351528       -3.9649533973       -0.7890591495
 O         -0.4304386655       -0.3127644737        1.3876162049
 O         -1.9665354687        1.8874655743       -0.9001399381
 O         -3.0211881584       -0.4460715029       -0.3824041829
 O         -0.1122409947       -3.0880743243       -1.0166632127
 O         -1.2855914504       -4.6748463102        0.6126596206
 O         -1.2750278932       -5.0439863234       -1.9108122916
 O         -2.7200670830       -3.2384117184       -0.8612262848
 O          2.6051035545        5.3295255754       -0.0125905040
 N          0.7880327641        1.6173917804        0.8901380396
 N          2.9751428801        1.9066303421        1.1143447791
 N          0.0789850662        3.8330476769        0.2521487302
 N          4.4806090811        4.2164326146        0.6111985509
 C         -1.0558521979        0.8834593103       -0.5897010768
 C         -1.6490235472       -0.5376927547       -0.6476417564
 C         -0.5108703627        0.9842407733        0.8633969917
 C         -0.8779646764       -1.2842553757        0.4509421823
 C          0.3003035965       -2.0825864996       -0.1094626449
 C          1.0347085396        2.9213219096        0.5548491245
 C          1.9995407368        1.0616824061        1.2145494160
 C          2.4076582578        3.0924082959        0.6987556347
 C          3.1561836409        4.2996874592        0.4099070405
 H         -0.2153792890        0.9728956853       -1.2878511002
 H         -1.4788001402       -1.0035978383       -1.6242898773
 H         -1.1966311468        1.5855472018        1.4806362405
 H         -1.5423040353       -1.9684681273        0.9900149695
 H          0.8425152181       -2.5332275165        0.7263840383
 H          0.9751640898       -1.4296062495       -0.6697123138
 H         -2.8623355916        1.5555022273       -0.7082271308
 H         -3.4111424280       -1.3251813732       -0.5174220488
 H          2.0875933510        0.0433880187        1.5287646876
 H          0.4704598090        4.7002282198       -0.0932659615
 H         -0.7602319241        3.5035954860       -0.2047543388
 H         -0.6329362336       -5.3812990661        0.6990040603
 H         -0.3923243255       -5.1693427734       -2.2836150647
 H          4.8576510756        3.3527682437        0.9618559036
 H          5.0668100320        5.0139536079        0.4357092323
  37
        -73.92011868
 P         -1.7911654156       -3.9271002448       -0.6000164588
 O          0.1831832791       -0.1037339063        0.8041313600
 O         -2.0984566116        1.6421283772       -1.3536946874
 O         -2.9338144648       -0.4574279222        0.0332928858
 O         -0.2889170902       -3.5763239291       -0.1416698225
 O         -1.7727239673       -5.4879890642       -0.4599816799
 O         -1.8678435783       -3.6768383637       -2.1488496021
 O         -2.8446669021       -3.2234953468        0.1512946547
 O          4.1044209708        3.5873247198        2.0762147568
 N          0.6364602018        2.0870751095        0.1740127074
 N          1.8039926697        3.7503382612       -0.7181696796
 N          1.7963329534        1.7707190103        2.2641815935
 N          4.1263335518        4.9664716429        0.2746916853
 C         -1.1327551217        0.7351199841       -0.9463196051
 C         -1.6873526092       -0.6540018466       -0.5749928226
 C         -0.3952296652        1.1086177966        0.3583728810
 C         -0.6293751676       -1.2049537326        0.4012860601
 C          0.2722722260       -2.2802873068       -0.2051306576
 C          1.6505509058        2.3580614424        1.0541468116
 C          0.7855787856        2.9686275733       -0.8719836647
 C          2.3814357236        3.3923706881        0.4816650617
 C          3.5929007263        3.9825135046        1.0152911000
 H         -0.3949807134        0.6455722957       -1.7504312452
 H         -1.7886040206       -1.2960020060       -1.4571544962
 H         -1.1246073274        1.4735186492        1.1031760330
 H         -1.1278046130       -1.6193537453        1.2870727066
 H          1.1956873646       -2.3319301816        0.3767253702
 H          0.5105316941       -2.0227865248       -1.2414663328
 H         -2.9228533863        1.4444685069       -0.8752784815
 H         -3.3262932416       -1.3339154996        0.1940219217
 H          0.1005357393        3.0057683186       -1.6927902982
 H          2.6907381518        1.9735825411        2.6917209576
 H          1.4331933316        0.8348013081        2.3583942712
 H         -1.9007818168       -5.8318970474        0.4306014938
 H         -1.4472991261       -4.3498735671       -2.6998692137
 H          3.6572815283        5.2327282438       -0.5740568944
 H          4.9688681607        5.4241528026        0.5767136434
  37
        -73.92011733
 P         -1.6886595849       -3.9823628884       -0.0067483517
 O         -0.1150300568       -0.0034866300        0.9211999301
 O         -1.8070165066        1.7082854715       -1.7397751731
 O         -2.8681908619       -0.4883600351       -0.7801466020
 O         -0.2843318273       -3.3754531402       -0.5119329802
 O         -1.5931782671       -4.1374087756        1.5509168652
 O         -1.5901343109       -5.4451949768       -0.5612514565
 O         -2.8688609666       -3.2145913572       -0.4408236081
 O          4.4912215766        3.0546133310        0.0404909389
 N          0.3689574655        2.2346375576        0.4785037474
 N          1.1609751447        4.2910939591        0.7510887561
 N          2.3682433028        1.0505437341       -0.1954564938
 N          3.8197264266        5.1644627163        0.5341920330
 C         -0.9278125513        0.8282489279       -1.1257800025
 C         -1.4817718195       -0.6005772941       -0.9555413653
 C         -0.5995518089        1.1929619098        0.3462855799
 C         -0.7624976247       -1.1151672737        0.3091831943
 C          0.2810013799       -2.1916754212        0.0172332626
 C          1.7119483404        2.1663329087        0.2200308383
 C          0.1044894064        3.5464526132        0.7893841935
 C          2.1981321043        3.4547488429        0.3991942990
 C          3.5869445001        3.8645399599        0.3026106615
 H          0.0031349824        0.8277253417       -1.7010985574
 H         -1.2530909587       -1.2355286292       -1.8188421846
 H         -1.5208927399        1.5241500174        0.8506253471
 H         -1.5065927397       -1.5217414427        1.0087840034
 H          0.8139549045       -2.4170688444        0.9456382101
 H          0.9892395333       -1.8391789219       -0.7375779201
 H         -2.7143440258        1.4066517932       -1.5531026895
 H         -3.2338710169       -1.3887429190       -0.7015712274
 H         -0.8811940181        3.8888692363        1.0270563928
 H          3.3737055070        1.1764350222       -0.1583304086
 H          2.0119655515        0.1816043755        0.1760192725
 H         -1.0892840610       -4.8977570957        1.8691337219
 H         -1.8051648056       -5.5581761449       -1.4932192285
 H          3.0377048815        5.7600972008        0.7466822093
 H          4.7583645305        5.5227424327        0.4958010666
  37
        -73.92009395
 P          0.2046186730       -2.6470456745       -0.8220152957
 O         -2.0204948833        0.3045900819        1.6913444725
 O         -2.3234675422        1.5673060973       -1.5086988412
 O         -4.0528478454       -0.1918452172       -0.5600251298
 O         -0.1507828348       -1.7064519693        0.4169961445
 O          1.7733293606       -2.7575407087       -0.7814700342
 O         -0.0424884243       -1.7059714922       -2.0599368409
 O         -0.5434313769       -3.9178541234       -0.8263197966
 O          3.3285855263        3.1433600944       -0.8595970925
 N         -0.0243020457        1.3072720318        0.9496884646
 N          2.0193740939        1.0037736990        1.7554439081
 N          0.4010971267        2.9098036945       -0.8074001900
 N          4.4346754961        2.0532244038        0.7940081155
 C         -1.7663198951        0.6085071995       -0.6632026096
 C         -2.7198432517       -0.5754440928       -0.3717227931
 C         -1.4510079023        1.1729827229        0.7525928620
 C         -2.3839681911       -0.9331153820        1.0794961046
 C         -1.2937506589       -2.0013845619        1.2060285129
 C          0.8078616273        2.0585256568        0.1660107278
 C          0.7690175322        0.6973878029        1.8861009400
 C          2.0863862977        1.8595229126        0.6760067842
 C          3.3156964977        2.4081859552        0.1423312844
 H         -0.8399580568        0.2376458269       -1.1119429001
 H         -2.5384335830       -1.4121953970       -1.0494512798
 H         -1.9055618858        2.1676599813        0.8788691375
 H         -3.2613153087       -1.2943566731        1.6241823069
 H         -1.6948276859       -2.9716929945        0.9002820190
 H         -0.9634149105       -2.0463306165        2.2465249612
 H         -3.2678128647        1.3530306527       -1.6363362668
 H         -4.3578689327        0.3392081565        0.1924593004
 H          0.3651062762        0.0620597959        2.6450898052
 H          1.1743007711        3.2682629466       -1.3531525918
 H         -0.4519530463        2.7047659191       -1.3058325252
 H          2.1379507249       -3.4119854428       -0.1756308619
 H          0.1195593490       -2.1153125365       -2.9176907495
 H          4.3493912120        1.4549908095        1.5976478699
 H          5.3281271088        2.3901707843        0.4800387731
  37
        -73.92008000
 P         -1.5848641821       -3.9897641191       -0.7829231607
 O         -0.1910079507       -0.4069435905        1.2877913410
 O         -1.9062551915        1.8865259007       -0.8019264519
 O         -2.9675088011       -0.4309302705       -0.2321926161
 O         -0.2390950328       -3.1757652613       -1.1378176459
 O         -1.3390528442       -4.6889428896        0.6115430979
 O         -1.5531809521       -5.0924992305       -1.8947271100
 O         -2.8266062396       -3.2069666281       -0.7607503525
 O          2.5059426412        5.4588730724        0.1785789178
 N          0.9049118235        1.5983998565        0.8342576621
 N          3.0896799334        1.9639363590        0.9335112534
 N          0.0652973976        3.8273938535        0.4528244618
 N          4.4642009625        4.3761152779        0.5520108055
 C         -0.9982276773        0.8586472344       -0.5718179572
 C         -1.6255129266       -0.5478051931       -0.6164565902
 C         -0.3649264906        0.9124354948        0.8459631942
 C         -0.7821803492       -1.3415520565        0.3929422328
 C          0.2999524603       -2.1826979048       -0.2848618279
 C          1.0764442626        2.9371690037        0.6075056891
 C          2.1572992876        1.0700408239        1.0185679034
 C          2.4480346589        3.1563874357        0.6738924498
 C          3.1262198598        4.4188346521        0.4547165096
 H         -0.2006208144        0.9469834519       -1.3184881479
 H         -1.5512032169       -0.9912262047       -1.6154406954
 H         -1.0385396671        1.4501537480        1.5326866653
 H         -1.4225413764       -2.0040048216        0.9867682400
 H          0.9111890561       -2.6496904317        0.4922219165
 H          0.9342895666       -1.5542663761       -0.9159252111
 H         -2.7930907066        1.5658160631       -0.5560971817
 H         -3.3899883660       -1.2979798157       -0.3496482765
 H          2.3069998613        0.0316944131        1.2255487806
 H          0.4018222500        4.7391331268        0.1688511971
 H         -0.7768177566        3.5004426433       -0.0016666422
 H         -0.7245964072       -5.4327856492        0.6516622701
 H         -0.7198181147       -5.2304534958       -2.3640103405
 H          4.8986875021        3.5001113783        0.7867134957
 H          5.0050424649        5.2126627461        0.4165849924
  37
        -73.92007691
 P          0.0646404409       -3.4293793165       -0.6580841445
 O         -0.8434926461       -0.8050294289        0.4515121259
 O         -2.4501796683        2.3842454035        0.4986487302
 O         -3.8541012491        0.2288533656        0.8908011296
 O         -1.4124155233       -3.2075383391       -1.2207111157
 O          0.2932446778       -4.9517267411       -1.0051409396
 O         -0.1123496745       -3.4672912951        0.9025197807
 O          1.0771896531       -2.5081246220       -1.2063104250
 O          2.7044195687        4.6840323803        0.9557776241
 N          0.4865873346        1.1203997279        0.3972718889
 N          2.5244949541        1.3467654056       -0.4431168716
 N          0.2226065198        3.2077176365        1.5848162103
 N          4.2375732462        3.5536519595       -0.2763190783
 C         -1.9451214651        1.2297413015       -0.0900522672
 C         -2.9753738491        0.0879532656       -0.1925328583
 C         -0.8028707440        0.5717494217        0.7286572357
 C         -2.1091039503       -1.1826081989       -0.0898579402
 C         -1.8859530522       -1.8901959185       -1.4261210860
 C          0.9204185538        2.3629722504        0.7779432993
 C          1.4982796152        0.5631976466       -0.3448400512
 C          2.1981149626        2.4926931944        0.2516582105
 C          3.0548345248        3.6582218718        0.3492101237
 H         -1.5603155166        1.4945318667       -1.0808867271
 H         -3.5119764832        0.1267385285       -1.1445896826
 H         -0.9753368197        0.7479184543        1.8047380677
 H         -2.5580810854       -1.8999486236        0.6088009040
 H         -1.1511408190       -1.3286721407       -2.0108443602
 H         -2.8202189224       -2.0041191669       -1.9778305362
 H         -3.1915881716        2.1253702102        1.0782905927
 H         -4.6466079363       -0.3112496060        0.7656529597
 H          1.4292582681       -0.4202049150       -0.7613007764
 H          0.6749646984        4.1127494045        1.6449049615
 H         -0.7785924532        3.2379215150        1.4361156596
 H          0.6068053606       -5.1288988012       -1.8982562688
 H          0.7032245986       -3.3721834750        1.4043413100
 H          4.4528419281        2.6913812705       -0.7471272110
 H          4.8873712459        4.3204989913       -0.2570300357
  37
        -73.92005940
 P         -0.3536399190       -3.2687039475       -0.5738193891
 O         -1.2184198897        0.3904839817        1.4035941690
 O         -1.9626279170        1.2206144275       -2.0045016878
 O         -3.7422188350       -0.1160419591       -0.6050731321
 O         -0.2398889495       -2.2568109949        0.6622873917
 O          0.8430427980       -4.2715514688       -0.3834376695
 O          0.0384458691       -2.3219571285       -1.7811611941
 O         -1.6523591967       -3.9473623430       -0.6833787076
 O          4.1624504728        1.7122842501        0.6663538468
 N         -0.0343738317        2.0908876149        0.3532713868
 N          1.2819162155        3.8800233041        0.3063664167
 N          1.6152302881        0.3204651695        0.4342857213
 N          4.0820776000        3.9719762616        0.4841397870
 C         -1.4674235232        0.4885843136       -0.9342789453
 C         -2.4351244869       -0.5946629316       -0.4108346086
 C         -1.2410227289        1.3278595898        0.3490140398
 C         -2.0767175705       -0.7047674674        1.0865816936
 C         -1.3870455495       -2.0151647003        1.4614781793
 C          1.2497438905        1.6221904059        0.4266047073
 C          0.0593383965        3.4609730333        0.2842878456
 C          2.0649820570        2.7495164058        0.4009663812
 C          3.5085130859        2.7593779937        0.5220935022
 H         -0.5173835624        0.0444027708       -1.2427583937
 H         -2.2832596925       -1.5489961862       -0.9179335146
 H         -2.0798492452        2.0323160102        0.4727233197
 H         -2.9910000439       -0.6100470568        1.6878683731
 H         -2.0908324472       -2.8427868636        1.3444144215
 H         -1.0379073295       -1.9528209891        2.4938044080
 H         -2.9318090162        1.2718912696       -1.9150590691
 H         -4.3706456828       -0.8481048854       -0.6566747782
 H         -0.8048192862        4.0882543862        0.2115810539
 H          2.5926203990        0.1988121589        0.6687196740
 H          0.9576761404       -0.3549382778        0.7947800137
 H          1.7201652649       -3.8916669116       -0.2469652439
 H          0.0474721955       -2.7343840669       -2.6523567731
 H          3.4898547657        4.7776678842        0.3781039512
 H          5.0788372731        4.0605492756        0.5799834792
  37
        -73.92003481
 P         -0.3272404366       -3.2531479075       -0.5529637434
 O         -1.2302045378        0.3741671596        1.3958080859
 O         -1.9826579952        1.2630012184       -1.9935016953
 O         -3.7471846352       -0.1388909245       -0.6515070073
 O         -0.2617099668       -2.2652043181        0.7051383844
 O          0.8266155364       -4.2945924771       -0.3099222208
 O          0.1643112228       -2.2922303425       -1.7105662248
 O         -1.6335393044       -3.8951952380       -0.7550647335
 O          4.1573405325        1.6868059884        0.5961952386
 N         -0.0436450335        2.0890202553        0.3727792300
 N          1.2794382211        3.8732978968        0.3458050716
 N          1.5979997319        0.3098957832        0.3852584958
 N          4.0824947421        3.9504166836        0.4677439217
 C         -1.4770531763        0.5121189048       -0.9410305731
 C         -2.4335678474       -0.5919374442       -0.4393825433
 C         -1.2517492405        1.3289411885        0.3572606791
 C         -2.1016815378       -0.7055263130        1.0649386626
 C         -1.4397014759       -2.0245781118        1.4572883206
 C          1.2394998158        1.6134032472        0.4132117233
 C          0.0547787068        3.4598410224        0.3347298731
 C          2.0590597277        2.7377154020        0.3996876605
 C          3.5049119014        2.7393590073        0.4904571456
 H         -0.5240629724        0.0830765302       -1.2620013214
 H         -2.2535323806       -1.5387792813       -0.9510970792
 H         -2.0894700066        2.0325313227        0.4924934143
 H         -3.0268980023       -0.5945404763        1.6469184553
 H         -2.1443082805       -2.8453224600        1.3029255322
 H         -1.1323148686       -1.9738867307        2.5034580585
 H         -2.9532556707        1.2911048916       -1.9071906606
 H         -4.3566179217       -0.8838835960       -0.7351273306
 H         -0.8077693832        4.0921403887        0.2923704399
 H          0.9453268845       -0.3696470247        0.7471561808
 H          2.5798616476        0.1787762541        0.5942643940
 H          1.6963731491       -3.9446582643       -0.0797800719
 H          0.2727822727       -2.6973905858       -2.5783384646
 H          3.4913910960        4.7603483788        0.3919633488
 H          5.0815425571        4.0332402516        0.5421521518
  37
        -73.92003879
 P         -0.1028381022       -2.9398812626        1.0503928888
 O         -0.6888515483       -0.5441300592       -0.0000413978
 O         -2.9973279514        2.0141829549        0.2769480552
 O         -4.0686582476       -0.0503101799       -0.9877449193
 O         -0.8514882381       -3.2644549385       -0.3396890308
 O          1.2565186788       -2.2160755961        0.7417821250
 O          0.3952163718       -4.4072996750        1.3745679943
 O         -0.9209983128       -2.3273191620        2.1082944907
 O          3.5696339205        2.3710941432       -2.0681576733
 N          0.2512466658        1.5381156623        0.4071125051
 N          1.8582738197        2.9118785052        1.0795202981
 N          0.9697106908        1.0337730272       -1.8431227014
 N          4.1818486024        3.6684549499       -0.3111213809
 C         -2.0695065030        1.3107263334       -0.4968492147
 C         -2.6859192942        0.0128408953       -1.1137027426
 C         -0.9508076135        0.7713348124        0.4361512600
 C         -1.9434581336       -1.1024394602       -0.3425844763
 C         -1.6640035097       -2.3837607105       -1.0987505190
 C          1.1428256663        1.6217919301       -0.6293547503
 C          0.7496042327        2.3339218255        1.4092164575
 C          2.1412691676        2.4848221850       -0.2002814507
 C          3.3419093346        2.8336337615       -0.9388293643
 H         -1.6225053167        1.9421522788       -1.2702542197
 H         -2.4663324720       -0.0538804834       -2.1819796635
 H         -1.3331240445        0.7660741864        1.4693630156
 H         -2.4935272310       -1.3391882327        0.5797603496
 H         -1.1317598653       -2.1612207791       -2.0291525072
 H         -2.5984485106       -2.9049967038       -1.3188760338
 H         -3.5235655932        2.6020705612       -0.2857824086
 H         -4.3224160558        0.2878755766       -0.1112006877
 H          0.2462519183        2.4506468531        2.3464586309
 H          1.8133876881        1.0852239685       -2.4035122847
 H          0.5096123418        0.1350328020       -1.8189303487
 H          1.9108763865       -2.7870594089        0.3194794461
 H         -0.2722985276       -4.9980088466        1.7370386021
 H          3.9404393113        3.9860335188        0.6119902882
 H          5.0454834733        3.9374554177       -0.7503825876
  37
        -73.92002861
 P          0.0502202973       -2.7453162315       -0.8051404665
 O         -1.9666072227        0.3781012214        1.6538152409
 O         -2.3099065487        1.5446869061       -1.5655618749
 O         -3.9475849131       -0.2356012524       -0.6381926855
 O         -0.1402491792       -1.7724684415        0.4633467371
 O          1.5125051909       -3.3148073618       -0.6589280026
 O          0.1929317267       -1.7767969444       -2.0308344828
 O         -1.0359722194       -3.7332806876       -0.9116669544
 O          3.3982379502        3.2544592433       -0.8053104868
 N          0.0205869985        1.3596972655        0.8922147948
 N          2.0206195516        1.1985119636        1.8420353466
 N          0.5572395041        2.6560527321       -1.0741882466
 N          4.4494256474        2.2961935010        0.9623907541
 C         -1.7204956616        0.6153704840       -0.7127123088
 C         -2.6158008848       -0.6059751982       -0.4008510748
 C         -1.4060967044        1.2154829248        0.6881716177
 C         -2.3357146500       -0.8755526281        1.0880278521
 C         -1.2701267015       -1.9557127857        1.3004108601
 C          0.8796670498        2.0548490620        0.0867856431
 C          0.7727731769        0.8707671333        1.9316832937
 C          2.1320127850        1.9468486119        0.6884336518
 C          3.3594932725        2.5495304793        0.2183545110
 H         -0.7884351428        0.2807374291       -1.1752188291
 H         -2.3227881980       -1.4649635850       -1.0127318116
 H         -1.8730630607        2.2085456644        0.7861551357
 H         -3.2425138447       -1.1790719374        1.6191904669
 H         -1.7148115127       -2.9320120609        1.0894998778
 H         -0.9153654482       -1.9151779797        2.3321265637
 H         -3.2769253312        1.4338990940       -1.5152001532
 H         -4.5022783517       -1.0170088259       -0.7629539169
 H          0.3370847481        0.3008184595        2.7243573955
 H          1.2887740203        3.2280389932       -1.4688595146
 H         -0.4013073555        2.7957789529       -1.3435013401
 H          1.6271613650       -4.0568263126       -0.0553204636
 H          1.0952878425       -1.6560161237       -2.3498231411
 H          4.3411507088        1.7399985220        1.7928286851
 H          5.3337791818        2.7037929486        0.7133716928
  37
        -73.92002137
 P          0.7632699242       -1.8400114874       -0.3858187942
 O         -1.7313175482        0.3890637841        1.4194036635
 O         -3.9069069614        1.5617300195       -0.3138522235
 O         -3.6156777714       -0.9065138523       -1.2959009919
 O         -0.6539214591       -2.4634639430        0.0347037426
 O          1.4216306682       -3.0870872788       -1.0855179100
 O          1.4955850321       -1.6057449046        0.9849145493
 O          0.6814565915       -0.7006490463       -1.3120293495
 O          3.4275835610        0.1078249615        0.8833464279
 N         -0.3276953354        1.7979732302        0.1864393596
 N          1.4115815381        2.2990104237       -1.1083425578
 N          0.8112487920        0.9686922092        2.1440426456
 N          4.1229626292        1.5833388611       -0.6876376893
 C         -2.6024886378        1.1602820636       -0.6197706595
 C         -2.4705712183       -0.3743409500       -0.6955457688
 C         -1.6997044725        1.5126773452        0.5717789372
 C         -2.3140769557       -0.7514030800        0.7891764341
 C         -1.4802888357       -2.0081897368        1.0933445605
 C          0.7849919595        1.3531278504        0.8476954979
 C          0.1287985305        2.3634125289       -0.9840710425
 C          1.8653970923        1.6351827585        0.0112209194
 C          3.1828577882        1.0674097758        0.1055004371
 H         -2.2661942101        1.6259005054       -1.5522687493
 H         -1.5593910658       -0.6202229632       -1.2485366816
 H         -2.1173324574        2.3689261302        1.1207184860
 H         -3.3155015410       -0.8829013302        1.2219530182
 H         -2.1444130191       -2.8508890595        1.2946918145
 H         -0.8685852992       -1.8042661279        1.9751235810
 H         -4.5214651871        1.0095713739       -0.8263649720
 H         -3.4482386586       -1.8050717056       -1.6085350404
 H         -0.5188453784        2.8334552333       -1.6935778213
 H          1.6665600825        0.5156722988        2.4288556812
 H         -0.0484595221        0.6093908821        2.5298797752
 H          1.5205126229       -3.8721905068       -0.5326824684
 H          2.2853929926       -0.9711687975        0.9577347108
 H          3.8429303716        2.2832660701       -1.3545823782
 H          5.0231855595        1.1367802589       -0.7498044124
  37
        -73.91999511
 P          0.2215436532       -2.5645289551       -0.7848064109
 O         -2.0066966934        0.2845965863        1.6117367705
 O         -2.2443649908        1.5576790273       -1.5577248181
 O         -4.0344092846       -0.2679045431       -0.7260098800
 O         -0.1900724266       -1.8505255054        0.5800124191
 O         -0.2142753399       -4.0716456065       -0.5403592195
 O          1.7839591557       -2.4938218264       -0.7212525319
 O         -0.3128841567       -1.9850853063       -2.0269843990
 O          3.2992514702        3.2924383969       -0.8224519393
 N         -0.0169886381        1.3031444654        0.8860963535
 N          2.0224532586        1.0431462075        1.7157973202
 N          0.3787435507        2.9673941798       -0.8159143964
 N          4.4178219049        2.1936825212        0.8171843042
 C         -1.7210333108        0.5500011171       -0.7397689653
 C         -2.7057081744       -0.6103223870       -0.4648491533
 C         -1.4356747866        1.1370173255        0.6626796696
 C         -2.4399786502       -0.9378086994        1.0144662114
 C         -1.4357607545       -2.0751046907        1.2283625633
 C          0.8016060404        2.1049520978        0.1391617487
 C          0.7811407614        0.6913857603        1.8174119654
 C          2.0781717888        1.9319689548        0.6627220314
 C          3.2967954786        2.5314629241        0.1600952256
 H         -0.7960014904        0.1345886957       -1.1619180666
 H         -2.4846696928       -1.4619162152       -1.1105562304
 H         -1.9080593527        2.1287524214        0.7490140456
 H         -3.3676282823       -1.2164307488        1.5249536839
 H         -1.8738804027       -3.0132393913        0.8851230339
 H         -1.2064670348       -2.1425773098        2.2949848940
 H         -2.6114832182        1.1649437931       -2.3639868319
 H         -4.2748935926        0.5377819600       -0.2429304495
 H          0.3853952135        0.0184454208        2.5474503604
 H          1.1418852587        3.3622750259       -1.3497731853
 H         -0.4740932416        2.7565276835       -1.3131480071
 H         -0.3618870589       -4.5801663666       -1.3455031364
 H          2.2026781118       -2.9310038622        0.0319037114
 H          4.3407888988        1.5714719432        1.6032678753
 H          5.3044689078        2.5642001230        0.5222528482
  37
        -73.91999090
 P          0.7618481671       -2.3418321541        0.3376232779
 O         -1.6234420485       -0.3294368303        0.8866476827
 O         -3.8360159305        1.6725575535        0.7893612013
 O         -4.4134431803       -0.0098855155       -1.0996667238
 O         -0.5913595051       -2.6336465048       -0.4872137105
 O          1.6781199282       -1.5138712480       -0.6407307856
 O          1.3925987404       -3.7862373658        0.3333807916
 O          0.6221384064       -1.7367003743        1.6677720423
 O          3.8799961202        1.5994144594        0.9393093347
 N         -0.2550267882        1.3980301735        0.0324174432
 N          1.2400879854        1.9534995927       -1.5138811560
 N          1.1413868274        1.1507532709        1.9820724568
 N          4.0216686368        2.1345948517       -1.2595552163
 C         -2.7498590211        1.4870673582       -0.0740966543
 C         -3.0555337478        0.2395280552       -0.9467187971
 C         -1.4896637101        1.0570965636        0.7029713234
 C         -2.2905617813       -0.9059428947       -0.2241934547
 C         -1.2936649112       -1.6006061100       -1.1542777008
 C          0.9706764337        1.3777550957        0.6495813068
 C         -0.0136665584        1.7342231251       -1.2788890715
 C          1.8927810121        1.7415008609       -0.3204713085
 C          3.3331520513        1.8218267690       -0.1518211759
 H         -2.5694450258        2.3779735435       -0.6814702904
 H         -2.6517991957        0.3687284405       -1.9550383978
 H         -1.4478618200        1.4943013064        1.7071874068
 H         -2.9837532636       -1.6509489681        0.1787876208
 H         -0.5831329508       -0.8656997412       -1.5457463394
 H         -1.8306807293       -2.0825153261       -1.9741070437
 H         -3.7954670334        2.5394650375        1.2157552870
 H         -4.8712082802        0.2565221989       -0.2827039084
 H         -0.7848809453        1.8199020527       -2.0152661566
 H          2.1323966192        1.1075493381        2.2008126491
 H          0.6379750678        0.3410715344        2.3285889516
 H          2.0851203925       -2.0504658246       -1.3338746172
 H          1.1391822523       -4.3382886424        1.0796200359
 H          3.5105597749        2.3130992489       -2.1071785243
 H          5.0236477364        2.2102358971       -1.2228046056
  37
        -73.91996175
 P         -0.1738178581       -3.1806009364       -0.9614425909
 O         -1.4899373309        0.6167692911        1.4833192337
 O         -2.7578056962        1.2712938156       -1.6749544410
 O         -3.7738992449       -0.5016644226       -0.0379088761
 O         -0.3486145251       -2.7578889805        0.5878050252
 O         -1.5275755041       -3.8672112387       -1.3505226198
 O          0.8189845371       -4.4038021866       -0.9002777824
 O          0.2071144818       -2.0509165981       -1.8206546585
 O          3.7072726396        2.5487633787        2.0734616404
 N         -0.0067767043        1.9017254704        0.1603637503
 N          1.6729026840        2.8983817691       -0.9025496339
 N          1.0614320360        1.3775901081        2.2770864014
 N          4.2422535592        3.4627940100        0.0674864996
 C         -1.8401407679        0.5974823358       -0.8796379865
 C         -2.3974746888       -0.6901114061       -0.2327952637
 C         -1.3657421444        1.4303166297        0.3504560373
 C         -1.6226426121       -0.7437820106        1.0913142749
 C         -0.2411601832       -1.3962903058        0.9454846944
 C          1.0415245951        1.9253321591        1.0401206874
 C          0.4417034772        2.5122979059       -0.9889769972
 C          2.0891836734        2.5436546508        0.3617601603
 C          3.3981524054        2.8408356142        0.9053989621
 H         -0.9795657681        0.3449061286       -1.5075119687
 H         -2.1945629254       -1.5572926283       -0.8658758309
 H         -2.0197379407        2.3043628703        0.4882093531
 H         -2.1913936707       -1.2401350102        1.8814883896
 H          0.2861626836       -1.3507688912        1.9002211560
 H          0.3351526137       -0.8614506717        0.1858770275
 H         -3.6507487010        1.0885045205       -1.3287550194
 H         -4.2141460539       -1.3432127256        0.1423777370
 H         -0.1900736001        2.6478971112       -1.8423775062
 H          1.8749302167        1.6573540559        2.8109015951
 H          0.1802753520        1.2723895144        2.7544457210
 H         -1.6929385629       -4.7198506025       -0.9261643430
 H          1.7559977160       -4.1998431345       -0.8079821319
 H          3.9193266972        3.6845066181       -0.8585662245
 H          5.1625518680        3.7202204890        0.3793535861
  37
        -73.91993138
 P         -2.0309074088       -3.8269284216       -0.0460503227
 O         -0.1061165989        0.1384175648        1.0910426390
 O         -2.0124609183        1.3797455738       -1.4975658411
 O         -1.9865711673       -1.2595416555       -1.5897095207
 O         -0.5029032623       -3.3009654503        0.0350239184
 O         -1.9666485422       -5.2980755457        0.5030864428
 O         -2.2516210596       -4.0532319661       -1.5871493520
 O         -3.0022110592       -3.0056604527        0.6887268885
 O          4.6199104151        2.9532484634        0.0195498888
 N          0.4702079459        2.3082003113        0.4877073287
 N          1.3535180288        4.3225771520        0.7803795755
 N          2.4009396535        1.0412491257       -0.2174196904
 N          4.0458568089        5.0851437704        0.5418920095
 C         -0.7919159279        0.8354799175       -1.0814879189
 C         -0.8584805395       -0.7170216700       -0.9739531343
 C         -0.5210409651        1.2867963567        0.3783519675
 C         -0.8225827660       -0.9569523594        0.5518587085
 C         -0.1442436570       -2.2700794231        0.9314187520
 C          1.8093765511        2.1824440355        0.2251711542
 C          0.2655611109        3.6254263877        0.8213402665
 C          2.3511404684        3.4467228111        0.4102564734
 C          3.7561175009        3.7986592792        0.3024032488
 H          0.0357299977        1.1532815767       -1.7210035093
 H          0.0110740850       -1.1803953601       -1.4460695671
 H         -1.4639674394        1.6804981670        0.7900628076
 H         -1.8541735423       -0.9585253724        0.9284882108
 H         -0.4094932869       -2.5402915081        1.9557772274
 H          0.9402072201       -2.1683590911        0.8455369594
 H         -2.0424225365        1.4398821472       -2.4636432954
 H         -2.7418523428       -0.6697213164       -1.4146398196
 H         -0.7018195390        4.0065414794        1.0747982547
 H          3.4121009766        1.1130453809       -0.1958568144
 H          2.0117250664        0.1861344251        0.1534471696
 H         -1.3869349537       -5.8990185824        0.0177141101
 H         -2.3046437605       -3.2261215837       -2.0855823155
 H          3.2946199124        5.7100558195        0.7801522453
 H          4.9999782548        5.4006485754        0.5081211303
  37
        -73.91991844
 P          1.1421834767       -1.8204391710        0.0602537226
 O         -2.2539844458        0.7753953034        1.4772231778
 O         -3.1940519350        1.0933973346       -1.7843026188
 O         -4.4598504032       -0.4647261178       -0.0368255654
 O         -0.3586264187       -1.2653471973        0.1165316541
 O          1.5693089300       -1.5002189236       -1.4023003747
 O          0.8790399230       -3.3866823934        0.0717174957
 O          2.0170171027       -1.3651823597        1.1575644530
 O          3.1978021414        0.5002097763       -1.5080962094
 N         -0.4434834961        1.6139355029        0.2907198594
 N          1.4959360101        1.8255093461        1.3646112954
 N          0.3372032770        1.1696825047       -1.9606348709
 N          4.0926944350        1.5358092411        0.2997647276
 C         -2.3648147564        0.4376885642       -0.8733941048
 C         -3.0811281226       -0.7003015013       -0.0997490750
 C         -1.8783921248        1.3838309333        0.2624592303
 C         -2.4008502861       -0.6252917079        1.2722754569
 C         -1.0789528520       -1.4058487156        1.3353288189
 C          0.5335686202        1.3743829644       -0.6366777091
 C          0.2118949509        1.8796064839        1.4737697001
 C          1.7432520682        1.4836489520        0.0534594251
 C          3.0516140516        1.1357398487       -0.4321469586
 H         -1.5129305150        0.0122215821       -1.4040684543
 H         -2.9459975768       -1.6648175396       -0.5879135098
 H         -2.3910774367        2.3546852733        0.2072561663
 H         -3.0435932509       -0.9819368689        2.0804168452
 H         -1.2920692824       -2.4655607263        1.4976621507
 H         -0.4630625442       -1.0336503362        2.1604079937
 H         -4.1121052529        0.8040353076       -1.6230081943
 H         -4.6447837454        0.2222000813        0.6229919061
 H         -0.3239872295        2.0958786550        2.3744690421
 H          1.1848114829        1.1388807023       -2.5065747316
 H         -0.4828915579        1.5542916269       -2.3999854246
 H          2.2222244791       -0.7385845597       -1.5132615804
 H          1.6567153513       -3.9203817076        0.2663129473
 H          3.8996432079        1.9294348783        1.2063356670
 H          5.0133749337        1.1972245475        0.0721471940
  37
        -73.91990335
 P          0.8192325178       -2.5316672803       -0.3555658042
 O         -1.9526863259       -0.1495551225        1.6088577527
 O         -2.6328403908        2.0265601263       -1.0657634041
 O         -4.3837972350        0.3143938375       -0.1314016692
 O         -0.5911082712       -1.7392467872       -0.4706174788
 O          1.8686422012       -1.4901260318       -0.8855011432
 O          0.7713633959       -3.6128497966       -1.4959540497
 O          1.0307749181       -3.1145063358        0.9752239674
 O          2.9189067354        3.3873416565       -0.9879346393
 N         -0.1097790326        1.0905809896        0.8593733510
 N          2.0248535130        0.5311447907        1.0558124562
 N          0.0619120829        3.1480519275       -0.3931788054
 N          4.2711300144        1.8546006166       -0.0073313753
 C         -2.1146918001        0.8396361579       -0.5603305201
 C         -3.1518122466       -0.2906198725       -0.4191277859
 C         -1.5528506341        0.9775607119        0.8855497065
 C         -2.5941117160       -1.1008611726        0.7635393769
 C         -1.6573741815       -2.2336206559        0.3307790600
 C          0.5966115221        2.0450126374        0.1752481871
 C          0.8030132042        0.2135213443        1.3705752617
 C          1.9339776848        1.6876133566        0.3064707106
 C          3.0663043452        2.3817951896       -0.2757974560
 H         -1.3048805468        0.5157893269       -1.2221670120
 H         -3.2037542443       -0.8956722926       -1.3284787429
 H         -1.9606691821        1.8750224337        1.3750833505
 H         -3.3928720286       -1.5419594461        1.3669077396
 H         -2.2213710635       -2.9736668134       -0.2433964945
 H         -1.2339750225       -2.7154841365        1.2164677292
 H         -3.5666777397        2.0953167758       -0.7961255416
 H         -5.1036730159       -0.3283103001       -0.1896473396
 H          0.5222084257       -0.6273642098        1.9705373943
 H          0.7348077609        3.6649352450       -0.9450840824
 H         -0.8846900146        3.1034950158       -0.7438796732
 H          2.1813207753       -0.8799177101       -0.1899137156
 H          0.8196417839       -3.2735921108       -2.3991717436
 H          4.3289289561        1.0596652663        0.6051050227
 H          5.0998738644        2.2966150760       -0.3661837193
  37
        -73.91987882
 P         -1.6410069103       -4.0057211774       -0.3420333900
 O          0.2029927038       -0.1381337759        0.5258583196
 O         -2.3814509264        1.8359709035       -1.0034736846
 O         -2.9880664509       -0.4750983725        0.1418036487
 O         -0.5849304510       -3.2301138013       -1.2817586405
 O         -0.8693798831       -4.4453726788        0.9508420713
 O         -1.8380133578       -5.3292211872       -1.1591522839
 O         -2.8677483211       -3.2432896030       -0.0526528217
 O          4.2691710725        3.4074902439        1.7183246818
 N          0.5546312834        2.1287704244        0.1522344175
 N          1.5806721488        3.9235073041       -0.6556299201
 N          2.0141923677        1.5401517240        1.9795804209
 N          4.0360757418        5.0209903241        0.1405461361
 C         -1.3568356655        0.9096415148       -0.8849410795
 C         -1.8366213612       -0.5370403702       -0.6547838306
 C         -0.4381466935        1.1113738137        0.3412061707
 C         -0.6434993938       -1.1876995259        0.0689116391
 C          0.1662573374       -2.1197230358       -0.8298351792
 C          1.6895129856        2.2908165960        0.9020506736
 C          0.5480647880        3.1531860939       -0.7666020699
 C          2.3298146589        3.4092755195        0.3815230865
 C          3.6100187502        3.9377217844        0.8084875474
 H         -0.7464868940        0.9654433909       -1.7922339675
 H         -2.0489687154       -1.0513340517       -1.5986074712
 H         -1.0517844476        1.3517131080        1.2272382762
 H         -1.0039323166       -1.7552015817        0.9379041410
 H          1.0436039049       -2.4613493984       -0.2740634408
 H          0.4936790597       -1.5890359998       -1.7274212076
 H         -3.1278012568        1.5358329608       -0.4551940683
 H         -3.3267860272       -1.3818589122        0.2473609291
 H         -0.2533421513        3.2948033515       -1.4609652942
 H          2.9630360297        1.6977310929        2.2939625174
 H          1.6658816625        0.5941292021        1.9930529354
 H         -0.2950582731       -5.2166475088        0.8564658238
 H         -2.4595301266       -5.2841566173       -1.8934544183
 H          3.4505346961        5.3947064742       -0.5865948970
 H          4.9186264135        5.4418532295        0.3741429509
  37
        -73.91987501
 P         -1.6002193744       -3.9634917568       -0.3060305936
 O         -0.4270558060        0.2269327731        1.1477915604
 O         -1.4884499745        1.4733417300       -2.0399426026
 O         -2.7982692656       -0.5464596056       -1.0267863013
 O         -0.7454536443       -3.3695850639        0.8991161308
 O         -1.8438447238       -5.4312891309        0.1746157041
 O         -0.5434865807       -3.9992221208       -1.4922201724
 O         -2.8583027036       -3.2745076361       -0.6400781670
 O          4.4719063139        2.8811257111        0.5951898136
 N          0.2850000332        2.3253750944        0.4344802928
 N          1.1653996942        4.3605490264        0.5410155596
 N          2.2768438989        0.9606924585        0.2927360269
 N          3.8776192096        5.0692448982        0.6682766133
 C         -0.7795018285        0.7025386560       -1.1300221927
 C         -1.4157602889       -0.6734818604       -0.8405235349
 C         -0.7141954569        1.3143922540        0.2941180943
 C         -1.0417865032       -0.9519496398        0.6333759541
 C         -0.0792325048       -2.1231968229        0.8330790392
 C          1.6440387687        2.1566119253        0.4255575482
 C          0.0666735078        3.6796919438        0.5027915846
 C          2.1844526285        3.4337584390        0.4980772958
 C          3.5957916047        3.7611202724        0.5832430569
 H          0.2421158893        0.5936549261       -1.5072293094
 H         -1.0062091463       -1.4469878440       -1.4978223587
 H         -1.6880233295        1.7643317342        0.5429894603
 H         -1.9612534373       -1.1539065040        1.2010784275
 H          0.4118761301       -2.0086565051        1.8025269772
 H          0.6663741131       -2.1439653294        0.0337484906
 H         -2.4248838274        1.2074530262       -1.9946436099
 H         -3.1906337654       -1.4379266059       -0.9891601774
 H         -0.9176678458        4.0995008967        0.5148816992
 H          3.2691039988        1.0409307418        0.4847331813
 H          1.8020489585        0.1741860635        0.7120032400
 H         -1.0745272226       -5.9152360390        0.5030655189
 H         -0.8784848164       -4.3159253129       -2.3383357486
 H          3.1143772053        5.7240749888        0.6569211896
 H          4.8327224317        5.3753781238        0.7390080012
  37
        -73.91987073
 P         -0.2913196046       -3.2681864738       -1.1416146786
 O         -1.3913816367        0.4088834828        1.5612377457
 O         -3.3299954932        1.5901714511       -0.5966802059
 O         -3.4035288098       -1.0150975227       -0.6161823347
 O         -0.4346044399       -2.9396578574        0.4309964863
 O         -1.7386964360       -3.5559441637       -1.6669421665
 O          0.3655804218       -4.6992434281       -1.1318703132
 O          0.4123877471       -2.2143073754       -1.8894216384
 O          3.4205266462        3.8751986885        1.9059017917
 N          0.1579088076        1.6975639951        0.3246158910
 N          2.1623939212        1.6255991357       -0.6389589556
 N          0.6633065635        3.0599385879        2.2612215524
 N          4.5164731702        2.9442055348        0.1514536666
 C         -2.0534845951        1.0269461259       -0.6211329590
 C         -2.0950177155       -0.5267414103       -0.5187202945
 C         -1.2311172664        1.4426163523        0.6187725645
 C         -1.5599879201       -0.8323465053        0.8952721983
 C         -0.2438361521       -1.6193793303        0.8911732306
 C          0.9922627349        2.4639850391        1.1005647388
 C          0.9409454637        1.2085209162       -0.7035000860
 C          2.2378133968        2.4214371945        0.4827125522
 C          3.4252917117        3.1330979690        0.9093379234
 H         -1.5749264577        1.3747988635       -1.5388257611
 H         -1.4481963524       -0.9764807660       -1.2761784872
 H         -1.6573983196        2.3483924054        1.0662088327
 H         -2.3122972599       -1.4020903257        1.4520318881
 H          0.1285219947       -1.6920840665        1.9154477641
 H          0.4958438566       -1.1125473489        0.2646621453
 H         -3.9304883227        0.9926526007       -0.1154305473
 H         -3.6980285815       -0.9983957059       -1.5385086223
 H          0.5715843946        0.5529652447       -1.4652625645
 H          1.3697694321        3.6944925899        2.6081032582
 H         -0.2996028564        3.2131694983        2.5035986656
 H         -2.1484599845       -4.3638017577       -1.3310721881
 H          1.3131608482       -4.7351420437       -0.9613601812
 H          4.4475703485        2.3340016133       -0.6446639776
 H          5.3744246206        3.4158913615        0.3797924151
  37
        -73.91985581
 P          1.0962986476       -1.9841347698       -0.8621203983
 O         -1.9062235599        0.1627461467        1.4877518215
 O         -4.1152505450        1.6883559676        0.2755752301
 O         -4.1889472011       -0.5816416035       -1.0197435731
 O         -0.2785264710       -1.2134002904       -0.5807781015
 O          1.9324722464       -1.7394752654        0.4721170863
 O          1.7444502839       -1.1200187799       -1.9883601610
 O          0.9487217681       -3.4103718294       -1.1891533035
 O          3.4774068729        1.0835017002        1.8085270740
 N         -0.4309575319        1.5082169998        0.2657697028
 N          1.3207545532        1.3837126630       -1.0890806906
 N          0.6453216316        1.4530466462        2.4212775758
 N          4.0511337051        1.1265746812       -0.3823130041
 C         -2.8715316081        1.3559406438       -0.2769837061
 C         -2.9195494363       -0.1465742422       -0.6583975879
 C         -1.7721516321        1.3827858298        0.7974929323
 C         -2.3532905308       -0.8567328783        0.6011144586
 C         -1.2283216009       -1.8436873013        0.2736010433
 C          0.6791354684        1.4008451138        1.0691773595
 C          0.0261608204        1.4724052374       -1.0228599166
 C          1.7694173016        1.3436642155        0.2153304316
 C          3.1551606895        1.1763408908        0.6149190593
 H         -2.6348195020        1.9898763311       -1.1339551097
 H         -2.2607437066       -0.3474315114       -1.5071423914
 H         -1.9290540836        2.1767091940        1.5373605027
 H         -3.1453901590       -1.4064347506        1.1195200256
 H         -1.6318802814       -2.7248463254       -0.2306197355
 H         -0.7370494184       -2.1520477452        1.1996359480
 H         -4.2384509292        2.6471465428        0.3059230571
 H         -4.8422199487       -0.1064476521       -0.4752765050
 H         -0.6104468126        1.5203226498       -1.8804353507
 H          1.5473652673        1.2346624025        2.8286508974
 H         -0.1580941357        1.0372241123        2.8688950298
 H          2.4587943846       -2.5036908730        0.7294480130
 H          1.6931678836       -0.1400809463       -1.8324658657
 H          3.7379622623        1.1925460655       -1.3349411699
 H          5.0225360350        0.9784742991       -0.1683384020
  37
        -73.91984142
 P          0.5200980351       -2.3008181555        0.2310246651
 O         -1.4774941123       -0.6357832439        0.7123003469
 O         -3.5131518723        1.7307878147        1.0526638763
 O         -4.4236098336       -0.0750710589       -0.6067150613
 O          0.0429081030       -1.5616864442       -1.0983802217
 O          1.5536589800       -3.3654232092       -0.3580266230
 O         -0.6924333956       -3.2127279342        0.6502835750
 O          1.1567713498       -1.4653295765        1.2630427157
 O          3.9719651572        2.0444652009        0.9553464276
 N         -0.0875521811        1.1950652314        0.0824337858
 N          1.3214344626        1.8514428669       -1.5061621072
 N          1.3244802608        1.3023040069        2.0403899624
 N          4.0457774014        2.4481256011       -1.2740386212
 C         -2.5651534131        1.3653869656        0.0997842992
 C         -3.0758655293        0.2226404861       -0.8321745800
 C         -1.2923503479        0.7630046198        0.7422664372
 C         -2.2407577536       -1.0085923857       -0.4219073287
 C         -1.3066603438       -1.5692748084       -1.5258873567
 C          1.1227866725        1.3946443918        0.6946540304
 C          0.1113885330        1.4750157009       -1.2474944180
 C          1.9900752411        1.8160967460       -0.3018430129
 C          3.4024486872        2.1133670551       -0.1453574135
 H         -2.3230439141        2.2780515554       -0.4481023719
 H         -2.9068345312        0.4769974884       -1.8846522449
 H         -1.2039342641        1.0498782530        1.7958522129
 H         -2.9206071021       -1.7985509289       -0.0876083618
 H         -1.3160054428       -0.9509795694       -2.4252166528
 H         -1.6021693062       -2.5891430034       -1.7781061031
 H         -3.9437081276        0.9340302009        1.4050189835
 H         -4.9821841813        0.6632780565       -0.8943546291
 H         -0.6625885084        1.4020564205       -1.9818858862
 H          2.3124404350        1.4242974700        2.2451448976
 H          0.9548305192        0.4511949880        2.4465974939
 H          2.4766291813       -3.1075666961       -0.2869881074
 H         -0.5876545819       -3.6253146848        1.5147666557
 H          3.5211499150        2.4863095871       -2.1311286393
 H          5.0274197687        2.6641783406       -1.2471731015
  37
        -73.91982896
 P         -2.0215546769       -4.0396369706       -0.6434742469
 O          0.7560925987       -0.6437407815        0.0423492339
 O         -1.8505406971        1.7248107630        0.4846261432
 O         -2.6949541711       -0.6678750850        0.1263872480
 O         -0.4690426615       -3.7782479172       -0.9803443315
 O         -2.1401023540       -4.1121929841        0.9168507542
 O         -2.2106276240       -5.5324198738       -1.0898740078
 O         -2.9244812989       -3.0397245487       -1.2399061205
 O          2.2826900293        5.5689821830        1.3864709093
 N          1.3648515456        1.5631626160        0.3773847952
 N          3.2605956179        2.5046350248       -0.2803416918
 N          0.3899335248        3.3220206049        1.7083131909
 N          4.1643287708        5.1099366100        0.2058782831
 C         -0.9672798597        0.9398921624       -0.2518490973
 C         -1.5300220646       -0.4550380692       -0.6186904554
 C          0.3226083691        0.5923946881        0.5429204916
 C         -0.3896031813       -1.4353726213       -0.2338652130
 C         -0.0106862170       -2.4769167449       -1.2888722620
 C          1.3555434845        2.8324264302        0.8902331459
 C          2.5369167981        1.4326629173       -0.3240080657
 C          2.5493366666        3.4117463957        0.4765931501
 C          2.9778607599        4.7727510697        0.7345579358
 H         -0.6823072943        1.4915605123       -1.1559058793
 H         -1.7454033245       -0.5163635002       -1.6905119521
 H          0.0697560723        0.5224360516        1.6160067750
 H         -0.7000280041       -1.9579003708        0.6845531467
 H          1.0785110201       -2.5502622680       -1.3205550783
 H         -0.3900648767       -2.1791736546       -2.2694053390
 H         -2.5924859766        1.1566670610        0.7666509241
 H         -3.1330121220       -1.4642122949       -0.2249512127
 H          2.7946349446        0.5249915629       -0.8265128088
 H          0.5013061082        4.3154522091        1.8709353499
 H         -0.5558381580        3.0056981383        1.5365061348
 H         -1.7264919420       -4.8783604475        1.3351169977
 H         -2.2764544826       -5.6962328771       -2.0369629442
 H          4.6711432898        4.4138578617       -0.3136262665
 H          4.5260710035        6.0390734452        0.3335553010
  37
        -73.91982689
 P          0.5950548887       -2.3251948054        0.7419427966
 O         -1.3381754536       -0.3783985129        0.9870347888
 O         -3.4323060635        1.9819094851        0.0038421657
 O         -3.9913099815       -0.2132511681       -1.3285767069
 O         -0.4828981053       -2.3611042683       -0.4422035839
 O          1.2978177416       -3.7128817132        0.4438115098
 O         -0.1665173063       -2.6091781749        2.0991388427
 O          1.5220709908       -1.1828265667        0.7365739476
 O          3.2451687222        1.4035223054       -2.1695167482
 N         -0.0098670702        1.5087437541        0.5304163044
 N          1.8073377728        2.7398966323        0.8753139973
 N          0.5340720279        0.4648556831       -1.5981687217
 N          4.1502412717        2.8313383929       -0.6589821038
 C         -2.2936867598        1.3038105968       -0.4392174692
 C         -2.6416686171       -0.1063095001       -0.9789797635
 C         -1.3392133126        1.0206966108        0.7483730951
 C         -2.3588666219       -1.0125628727        0.2313415616
 C         -1.8680280256       -2.4149511565       -0.1425629467
 C          0.8341748178        1.2553298095       -0.5187415059
 C          0.6474192877        2.4032566944        1.3372881105
 C          1.9575486906        2.0355375680       -0.2982639348
 C          3.1554449189        2.0601455699       -1.1196040690
 H         -1.7789933609        1.9150254563       -1.1892875571
 H         -1.9744120394       -0.3645903172       -1.8041815663
 H         -1.7259438343        1.5354625936        1.6401422777
 H         -3.2780454858       -1.0875431393        0.8283120858
 H         -2.3687707236       -2.7708815159       -1.0434139602
 H         -2.0389915014       -3.1074416608        0.6821346533
 H         -4.2134226243        1.4390892446       -0.2237637981
 H         -4.1216064059        0.0342247903       -2.2558214356
 H          0.2168280351        2.7784857006        2.2427537174
 H          1.3616807997        0.4004288719       -2.1880903625
 H          0.2009838615       -0.4559779101       -1.3363857926
 H          2.2031253023       -3.7853698995        0.7611132232
 H         -0.2079429371       -1.8520816613        2.6915796360
 H          4.0126094774        3.3214443387        0.2085889278
 H          5.0232419157        2.8759640204       -1.1562272786
  37
        -73.91982588
 P         -0.7893616542       -3.5477633035       -1.0711018691
 O         -0.9175270754       -0.1775023592        1.5167020575
 O         -2.5188092953        1.8562877242       -0.5848771214
 O         -2.9326506192       -0.6188150008       -1.4011499134
 O         -0.6117047551       -2.9668282139        0.4203950784
 O         -0.3256310048       -5.0514204861       -0.9692715666
 O          0.3652211095       -2.8905693408       -1.8986189184
 O         -2.1414814182       -3.3248202864       -1.6125458843
 O          2.9722965400        4.9125957512        0.2749266838
 N          0.5761268884        1.4915567511        0.9264987642
 N          2.7881053720        1.3617430961        0.9698604724
 N          0.2460917574        3.8603860724        0.6000224753
 N          4.6531345278        3.4231971479        0.5997394668
 C         -1.4059428373        1.0162744979       -0.4993689323
 C         -1.7679896925       -0.4751539357       -0.6478191278
 C         -0.8038875838        1.0954628991        0.9304092398
 C         -1.9088889824       -0.9182972688        0.8209138018
 C         -1.7325030498       -2.4100442161        1.0847397276
 C          1.0346116796        2.7627369390        0.7126700277
 C          1.6837416613        0.6937792488        1.0655758391
 C          2.4211933133        2.6715936474        0.7445875072
 C          3.3563743610        3.7588056889        0.5268594545
 H         -0.6552767067        1.3124722127       -1.2466620308
 H         -0.9222195100       -0.9982535176       -1.1077127818
 H         -1.3806618989        1.8368431433        1.5082818597
 H         -2.9070448778       -0.6222856009        1.1788376007
 H         -2.6429047994       -2.9216407488        0.7667433461
 H         -1.5557854803       -2.5594607740        2.1509112603
 H         -3.1800405378        1.4260361508       -1.1545300562
 H         -2.9873879974       -1.5418172717       -1.7057192908
 H          1.6001180116       -0.3553823255        1.2547705268
 H          0.7687864065        4.6815894142        0.3215492249
 H         -0.6710033034        3.7490850739        0.1964430491
 H         -0.9931096005       -5.7000144087       -0.7204481930
 H          1.2444396401       -3.2650398391       -1.7606757857
 H          4.8878884882        2.4688307656        0.8131321336
 H          5.3629316447        4.1217037235        0.4619035346
  37
        -73.91982444
 P          0.5863390998       -2.3419328438        0.7094388817
 O         -1.3086130487       -0.3781507990        0.9638800406
 O         -3.4144646592        2.0086492452       -0.0264609027
 O         -4.0204826334       -0.2173281471       -1.2823373169
 O         -0.5320849648       -2.4208013802       -0.4331727949
 O          1.3621498125       -3.7145877478        0.4741675459
 O         -0.1794799280       -2.6130710445        2.0561020331
 O          1.4958647566       -1.1867693434        0.6422606535
 O          3.2616789564        1.4214690386       -2.1432923778
 N         -0.0122685346        1.5278191332        0.5318426090
 N          1.8130596163        2.7371145335        0.9058549248
 N          0.5312981559        0.5110258691       -1.6076306094
 N          4.1654966684        2.8310871155       -0.6149743827
 C         -2.2893258088        1.2980932940       -0.4523830824
 C         -2.6631556388       -0.1173062445       -0.9627401968
 C         -1.3357573014        1.0220128727        0.7400505903
 C         -2.3618950914       -1.0073991946        0.2559364118
 C         -1.9105832847       -2.4264782374       -0.1001802723
 C          0.8347202471        1.2835220278       -0.5161591976
 C          0.6481288476        2.4019815837        1.3570649385
 C          1.9637134108        2.0502134820       -0.2783234127
 C          3.1681064053        2.0718789680       -1.0897534933
 H         -1.7649895711        1.8845912996       -1.2148124695
 H         -2.0169025256       -0.3966209059       -1.7982091044
 H         -1.7346570290        1.5240856477        1.6340930197
 H         -3.2645287536       -1.0539568219        0.8811726368
 H         -2.4407411090       -2.7876659390       -0.9821867314
 H         -2.0793096779       -3.0950372431        0.7436770653
 H         -4.2029329606        1.4559439690       -0.1977233808
 H         -4.1698835033        0.0379150898       -2.2048559832
 H          0.2157129600        2.7654071150        2.2664997997
 H          1.3630267953        0.4369823227       -2.1903559630
 H          0.1759018122       -0.4035678643       -1.3550365866
 H          2.2036628431       -3.6258508508        0.0178835526
 H          0.3041334418       -2.3309870087        2.8397786926
 H          4.0237543804        3.3164496207        0.2545782130
 H          5.0429968630        2.8727593054       -1.1045038820
  37
        -73.91980021
 P          0.0639554445       -3.3150849793       -0.6193960536
 O         -0.8699770048       -0.8003636767        0.3429606016
 O         -2.7755064741        1.5167088528        1.5625102312
 O         -4.0243049437        0.6141546371       -0.5827296000
 O         -1.5450522063       -3.2313247266       -0.7168547217
 O          0.2860080163       -4.8727749884       -0.7952311879
 O          0.4955257756       -3.1067900036        0.8700009575
 O          0.7450971426       -2.4557737010       -1.5978899181
 O          2.9211279139        4.4733597583        1.1543132668
 N          0.5043324038        1.0847030052        0.4075763148
 N          2.4208711104        1.3801930556       -0.6652770805
 N          0.3711482716        3.1338901809        1.6874137050
 N          4.2465223511        3.4931940965       -0.4047232597
 C         -1.9703442373        1.3161331602        0.4379547474
 C         -2.6452853322        0.4105253423       -0.6152701260
 C         -0.7282350884        0.4975891593        0.8650737289
 C         -2.1902345578       -0.9865470331       -0.1492913475
 C         -2.1200414370       -2.0491920597       -1.2361878640
 C          1.0082278819        2.2794841922        0.8489042241
 C          1.4058261028        0.5933118712       -0.5065345388
 C          2.2071031459        2.4562854746        0.1702807874
 C          3.1376479189        3.5533934574        0.3480153342
 H         -1.6707762906        2.2794833592        0.0047343715
 H         -2.2130128881        0.6229556275       -1.5999901145
 H         -0.7073023829        0.4501189753        1.9678383084
 H         -2.8406428766       -1.3259974851        0.6708233680
 H         -1.4940183012       -1.6819685947       -2.0553347542
 H         -3.1142861999       -2.3241162308       -1.5885849389
 H         -3.6917489401        1.6461720625        1.2639718473
 H         -4.4452521048        0.2811671308       -1.3862072564
 H          1.2681384515       -0.3500256686       -0.9926991315
 H          0.9740848980        3.8808159721        2.0094501964
 H         -0.2921648948        2.7590850655        2.3465057137
 H          0.2129349477       -5.2074346849       -1.6949234373
 H          0.1715940020       -3.7807274281        1.4811159078
 H          4.3614061969        2.7065321395       -1.0206719962
 H          4.9518813146        4.2046143780       -0.3206869904
  37
        -73.91976338
 P          0.4940189771       -2.5950218473       -0.0327910460
 O         -1.4119921329       -0.6902481224        0.9331904512
 O         -2.6357921378        2.3442625297       -0.5040533629
 O         -4.3139341366        0.3933727257        0.3376496958
 O         -1.0070310881       -3.0729269024       -0.3955528511
 O          1.3077459195       -3.9253289286       -0.3187961103
 O          0.6003474704       -2.5105475976        1.5271057157
 O          0.9233116008       -1.4150092608       -0.7940758414
 O          2.9854556283        3.4709544598       -1.3212207502
 N          0.1066850471        1.0654471777        0.6400461012
 N          2.2512334343        1.0022276337        1.2259388319
 N          0.2135305794        2.6485038486       -1.2176880275
 N          4.3821258324        2.4552737002        0.1483388884
 C         -2.1335658342        1.0455244440       -0.5080896127
 C         -3.2341974163       -0.0368195876       -0.4425190531
 C         -1.2839277240        0.7080322267        0.7368930247
 C         -2.4682103922       -1.2298161408        0.1334909187
 C         -1.8795149730       -2.1211465673       -0.9640534126
 C          0.7585762083        1.9244131808       -0.2051272520
 C          1.0682764044        0.5491269502        1.4767542186
 C          2.0969956427        1.8742443849        0.1697420183
 C          3.1739507075        2.6542553766       -0.4023798815
 H         -1.5183783837        0.9012434579       -1.4008979213
 H         -3.6468642163       -0.2496959951       -1.4297677769
 H         -1.6971096667        1.2218092281        1.6258739699
 H         -3.0846845431       -1.8442186768        0.7990125913
 H         -1.3187998977       -1.5050297015       -1.6727270146
 H         -2.6650585649       -2.6827398583       -1.4704958998
 H         -3.5558158378        2.3208803212       -0.1798979167
 H         -4.0982975662        0.3485612938        1.2808444687
 H          0.8240646539       -0.1602678855        2.2384492699
 H          0.8892037271        3.3040286573       -1.5961179790
 H         -0.7243521855        3.0034156638       -1.0955993279
 H          1.5314286403       -4.0884269296       -1.2403370934
 H          0.4807315915       -3.3595927423        1.9729692202
 H          4.4628344165        1.7658898597        0.8759650299
 H          5.1831897881        2.9509486464       -0.2027225168
  37
        -73.91975937
 P         -1.5921269149       -3.9161007687       -0.8091672452
 O         -0.4975337872       -0.1813599860        1.4753247772
 O         -1.5822181997        1.6997860285       -1.3314784395
 O         -2.9261199054       -0.3954699225       -0.5477444222
 O         -0.3884109581       -3.5880954135        0.2064558658
 O         -1.6704551640       -5.4728484732       -0.6635809244
 O         -1.0523770148       -3.6003448522       -2.2636175886
 O         -2.8619195510       -3.2214699893       -0.5635875942
 O          2.7728070964        5.2597054300       -0.1408502925
 N          0.7974712937        1.6637830183        0.8960233657
 N          2.9340545114        1.9832104568        1.3959870271
 N          0.2149205637        3.7896029482       -0.0849630683
 N          4.5245654715        4.2258924746        0.8636502073
 C         -0.8282008350        0.7082322612       -0.7135801864
 C         -1.5504357348       -0.6484795210       -0.6152606146
 C         -0.4920812939        1.0283722681        0.7681621983
 C         -0.9939040988       -1.2568409383        0.6826733097
 C          0.1130452257       -2.2867231688        0.4430919060
 C          1.1064064711        2.9222484929        0.4551997487
 C          1.9437046906        1.1513967212        1.4484470317
 C          2.4462789570        3.1132545848        0.7746428404
 C          3.2440238719        4.2836627719        0.4657648268
 H          0.1089859450        0.6057853006       -1.2727611955
 H         -1.3227432144       -1.2833784797       -1.4782392345
 H         -1.2526608587        1.7102573393        1.1822500712
 H         -1.7974908898       -1.7404995501        1.2495744948
 H          0.7158049379       -2.3685146514        1.3510618381
 H          0.7479292636       -1.9718979242       -0.3907223633
 H         -2.5241899085        1.4750659839       -1.2200647730
 H         -3.3895296072       -1.2481979942       -0.5948071441
 H          1.9734195565        0.1742335209        1.8812500388
 H          0.6664964073        4.6142610230       -0.4605700631
 H         -0.5358512124        3.3996056969       -0.6391459754
 H         -0.9323305618       -5.9136129605       -0.2225618065
 H         -0.4126692743       -4.2105160975       -2.6522475679
 H          4.8354121054        3.4058643760        1.3557849207
 H          5.1417197907        4.9994457441        0.6869901819
  37
        -73.91975124
 P         -0.5266024979       -3.3384698420       -1.1952551557
 O         -1.3009765167        0.3895697088        1.5053486062
 O         -3.4492890093        1.5791950844       -0.2461174727
 O         -3.2219321828       -0.8837770746       -0.9671848542
 O         -0.1387734746       -2.8350880049        0.2631149655
 O         -0.0796440913       -4.8360139998       -1.1459952715
 O          0.4880114268       -2.5418706783       -2.1222611145
 O         -1.9374612805       -3.2024328866       -1.5969331402
 O          3.5983880489        3.2011346078        2.3321171314
 N          0.1168955267        1.8506715904        0.3399117031
 N          2.0616914002        2.0099728844       -0.7234370594
 N          0.7090186196        2.7055364403        2.5143161959
 N          4.5300550072        2.8862244371        0.2876379027
 C         -2.1334104890        1.2049434981       -0.5314862554
 C         -1.9752301821       -0.3302251266       -0.6713199111
 C         -1.2495684376        1.5313431789        0.6804705564
 C         -1.4068078611       -0.7775582482        0.7002763408
 C         -0.0396434051       -1.4674719986        0.6100579528
 C          1.0209728829        2.3372898358        1.2503241454
 C          0.8209220713        1.6595699046       -0.8275395115
 C          2.2291678354        2.4426078631        0.5734803134
 C          3.4931470548        2.8787904407        1.1380032432
 H         -1.7989731443        1.7355370418       -1.4308490746
 H         -1.2505208967       -0.5633679828       -1.4607180009
 H         -1.6750724117        2.3632714259        1.2523386312
 H         -2.1097920808       -1.4533690589        1.1995167092
 H          0.4203121208       -1.4533602722        1.6016501494
 H          0.6098204338       -0.9484545357       -0.1007228748
 H         -4.0326611387        0.8426609884       -0.5033752905
 H         -3.0856116359       -1.8037698965       -1.2645456200
 H          0.3783519503        1.2791773732       -1.7236797005
 H          1.5290002673        2.9246929367        3.0663755224
 H         -0.0294412064        2.1983815886        2.9762223166
 H          0.7969690605       -5.0215104363       -0.7842137102
 H          0.3957550717       -2.7053807316       -3.0678593745
 H          4.3682108079        2.6199377094       -0.6684793412
 H          5.4383926592        3.1779957727        0.6049099455
  37
        -73.91974462
 P          1.0339233207       -2.2568024905       -0.4954935272
 O         -1.9542917918        0.1422935131        1.4326530705
 O         -3.0939936960        1.8922554260       -1.4058968403
 O         -4.4754650116       -0.0470931980       -0.2975793993
 O         -0.2593397146       -1.3362221070       -0.2450810652
 O          1.4733655022       -2.6474496172        0.9844443074
 O          2.0842526276       -1.2656980699       -1.0658404930
 O          0.7468290346       -3.4194099987       -1.3541150832
 O          3.4602068690        0.2797379296        0.4573467975
 N         -0.4620088701        1.7448062399        0.5117255271
 N          1.1651526343        2.8544795280       -0.5238312734
 N          0.8243512831        0.2449670957        1.8891701145
 N          3.9653067945        2.3472924210       -0.3228741906
 C         -2.3527277647        0.8878699571       -0.8001517292
 C         -3.1424602814       -0.4094360025       -0.5409474800
 C         -1.8276021581        1.2715895599        0.6155732643
 C         -2.4554742629       -0.9814136517        0.7092581548
 C         -1.3441163875       -1.9921348040        0.4037006206
 C          0.7043758774        1.1436530380        0.8911478710
 C         -0.1108596921        2.7646329106       -0.3473284506
 C          1.7189883509        1.8362666910        0.2237064670
 C          3.0994298881        1.4443442771        0.1354319692
 H         -1.4908898295        0.6734450955       -1.4417139219
 H         -3.0579808305       -1.0927897001       -1.3901977735
 H         -2.4366373917        2.0863400498        1.0364964031
 H         -3.1836883155       -1.4657995445        1.3679674702
 H         -1.7156603060       -2.7973823394       -0.2361899328
 H         -0.9830644013       -2.4253228459        1.3400818781
 H         -4.0227643399        1.7979524779       -1.1244616305
 H         -5.0563985561       -0.8176386113       -0.3584155044
 H         -0.8467166267        3.3879548969       -0.8120065720
 H          1.6993673402       -0.2566606545        1.9126506492
 H         -0.0105927994       -0.2511587029        2.1581329401
 H          1.9340790797       -3.4912046684        1.0440649328
 H          2.6238418881       -0.7186776567       -0.4006660438
 H          3.6095335641        3.2357488961       -0.6344347772
 H          4.9211297363        2.0805114735       -0.4930510727
  37
        -73.91974455
 P         -2.1074028266       -3.9779371384       -0.7067037494
 O          0.8073789342       -0.6783997609        0.3278265264
 O         -1.8342274063        1.6634985613        0.2187318133
 O         -2.6374734427       -0.7255499070       -0.2481929200
 O         -0.5175113765       -3.8837616615       -0.4626707135
 O         -2.7944940703       -3.7221505046        0.6767176747
 O         -2.3159968030       -5.5177432634       -0.9339541978
 O         -2.5881061120       -3.0694230363       -1.7622449613
 O          2.2048687679        5.6520702139        1.1688457783
 N          1.3970711662        1.5575415547        0.4776575880
 N          3.3526457745        2.4457383321       -0.0676039032
 N          0.2871029605        3.4307044351        1.5123883967
 N          4.2010364890        5.0974181314        0.2446245175
 C         -0.8472281597        0.8672878717       -0.3576690969
 C         -1.3285262639       -0.5626681038       -0.7152628623
 C          0.3330447116        0.6084837633        0.6213322467
 C         -0.3137368307       -1.4865645507        0.0085467823
 C          0.1778210235       -2.6968259011       -0.7851776337
 C          1.3345758668        2.8718025697        0.8552302725
 C          2.6361185822        1.3679195552       -0.0798228045
 C          2.5663489832        3.4177796252        0.5143759131
 C          2.9656116804        4.8022560537        0.6775207959
 H         -0.4608376541        1.3780885303       -1.2485640216
 H         -1.2816575299       -0.7222493745       -1.7964714203
 H         -0.0514795693        0.6631927003        1.6555263337
 H         -0.7895961855       -1.8387488966        0.9374943272
 H          1.2199678326       -2.8824481354       -0.5174662943
 H          0.0982096105       -2.5012686472       -1.8573678712
 H         -2.6258452748        1.1083588522        0.3553074178
 H         -3.0488875870       -1.4537780398       -0.7417218268
 H          2.9434901867        0.4166483435       -0.4587612835
 H          0.3813517469        4.4362244303        1.5872729073
 H         -0.6356179747        3.0888155787        1.2783051130
 H         -2.6912194796       -4.4227310236        1.3330107524
 H         -2.0526813615       -5.8672903083       -1.7921665722
 H          4.7599806006        4.3580094004       -0.1454283850
 H          4.5487050683        6.0378605048        0.3171660290
  37
        -73.91974321
 P          0.0497345548       -3.3481587716       -0.5891752333
 O         -0.8744382571       -0.8071616274        0.3995570776
 O         -2.8206224344        1.3910704908        1.6145805125
 O         -3.9382387338        0.6906112645       -0.6937639924
 O         -1.5379855407       -3.1884330430       -0.8303957649
 O          0.2203345057       -4.9077450790       -0.7967893040
 O          0.3476983257       -3.2034323546        0.9400100227
 O          0.8541200019       -2.4900600044       -1.4701721737
 O          2.9175230117        4.4865495108        1.1255198559
 N          0.5046423360        1.0820453001        0.4403178851
 N          2.3777399077        1.4041274567       -0.7003116274
 N          0.4035030851        3.1204921332        1.7438110855
 N          4.1928049207        3.5320027135       -0.4901129003
 C         -1.9622198199        1.3099032411        0.5145008337
 C         -2.5625865637        0.4727265736       -0.6340313723
 C         -0.7184845947        0.4887217618        0.9223335544
 C         -2.1540842161       -0.9500390067       -0.2067986457
 C         -2.0166594163       -1.9590298713       -1.3373376531
 C          1.0155336402        2.2769336188        0.8733999813
 C          1.3759842741        0.6068658833       -0.5103503336
 C          2.1856567260        2.4709644713        0.1514814934
 C          3.1126602065        3.5754936091        0.3039300431
 H         -1.6747282937        2.3134554004        0.1751278626
 H         -2.0549191995        0.7333124578       -1.5705081188
 H         -0.6731831077        0.4325345435        2.0226126378
 H         -2.8682508279       -1.3218752124        0.5429899399
 H         -1.3039389808       -1.5777372915       -2.0752648032
 H         -2.9824513774       -2.1755828625       -1.7945295629
 H         -3.7207066808        1.5580549647        1.2876622024
 H         -4.3040771633        0.3812447258       -1.5329130270
 H          1.2353832737       -0.3377683584       -0.9930204358
 H          1.0166630618        3.8710648461        2.0389228722
 H         -0.1994599893        2.7250273947        2.4477952382
 H          0.2053024346       -5.2141429313       -1.7092397009
 H         -0.0795418031       -3.8665733035        1.4973616952
 H          4.2938075317        2.7501579856       -1.1146802986
 H          4.8948541037        4.2487288689       -0.4252449850
  37
        -73.91977381
 P         -1.6949781035       -4.0691031169       -0.9235528845
 O          0.2672863929       -0.4210086459        1.2344735064
 O         -1.7397212085        1.6297656365       -0.7438458329
 O         -2.6159041320       -0.8592483303       -0.7538397469
 O         -1.2680261128       -3.6462243165        0.5782778198
 O         -3.1716924876       -3.5451738631       -1.1032824280
 O         -1.8948506704       -5.6161577942       -0.8234175471
 O         -0.7106363165       -3.6610032049       -1.9373040415
 O          2.2543590924        5.7267522458        0.3459011374
 N          1.1285685588        1.6750479503        0.7395867883
 N          3.2640295067        2.2632000576        0.6850623382
 N          0.0365858618        3.8238300861        0.6606811504
 N          4.3430419002        4.8453995616        0.4354724493
 C         -0.7126100213        0.6905059126       -0.6138496198
 C         -1.2318944169       -0.7748794208       -0.5783405704
 C         -0.0524415002        0.8664827771        0.7765208495
 C         -0.7610075590       -1.2953017874        0.8018878355
 C         -0.2199693688       -2.7228375613        0.7738465519
 C          1.1435789587        3.0406771204        0.6392092273
 C          2.4397710121        1.2683009513        0.7540059064
 C          2.4854075596        3.3989539485        0.6091542226
 C          3.0058968645        4.7446787927        0.4604403421
 H          0.0477582382        0.8127388095       -1.3938774445
 H         -0.7798110588       -1.3686585460       -1.3757987779
 H         -0.7842709373        1.3526041354        1.4465843043
 H         -1.6071911410       -1.2539620684        1.5059815863
 H          0.2375194073       -2.9572685655        1.7368588744
 H          0.5208980329       -2.8222152300       -0.0241867265
 H         -2.1008181555        1.6019062373       -1.6434503723
 H         -3.0459241464       -0.1310613248       -0.2698177646
 H          2.7080191575        0.2360190105        0.8310879422
 H          0.2497768040        4.7915070163        0.4526360664
 H         -0.8082639698        3.4499130888        0.2531342468
 H         -3.2507107602       -2.5773014678       -1.1610376323
 H         -2.5763175110       -5.9071087061       -0.2034387553
 H          4.8883837597        4.0065255915        0.5361432472
 H          4.7783783863        5.7457269020        0.3321261580
  37
        -73.91973780
 P          0.6555536310       -1.7574983388       -0.3309884036
 O         -1.4199193293        0.1226485886        1.2362027358
 O         -3.8464940216        1.5584527148       -0.2672201086
 O         -3.8094293156       -0.9084542348       -1.2191801565
 O         -0.6669283290       -2.5780638670        0.0206480630
 O          1.4805785398       -2.8879401014       -1.0579753802
 O          1.3497968230       -1.4995734949        1.0632541428
 O          0.4795909507       -0.6008166614       -1.2205441528
 O          3.4402211089        0.1293643213        0.9201784622
 N         -0.2503962373        1.8075915001        0.1605213631
 N          1.4801674390        2.2646565645       -1.1640608125
 N          0.9035541506        1.1273242190        2.1670104013
 N          4.2093473417        1.5198537914       -0.6975634093
 C         -2.5582815757        1.1164969564       -0.6030177868
 C         -2.6076103206       -0.4273093818       -0.7164751950
 C         -1.5684670640        1.3609585661        0.5592538436
 C         -2.3144441514       -0.8542620907        0.7316596365
 C         -1.7041459474       -2.2375134801        0.9231469604
 C          0.8750698203        1.4304571326        0.8455053794
 C          0.1956447082        2.2972793251       -1.0480791056
 C          1.9481005901        1.6830047375       -0.0033528783
 C          3.2480732334        1.0728994234        0.1129666318
 H         -2.2068062565        1.5550748335       -1.5363145566
 H         -1.8047601850       -0.7763104136       -1.3700754879
 H         -1.9994510633        2.0888811139        1.2666546843
 H         -3.2495095253       -0.8158619426        1.3125960221
 H         -2.4728100456       -2.9946868540        0.7544956284
 H         -1.3215122953       -2.3000045755        1.9457103904
 H         -3.9871188736        2.4724075647       -0.5509371168
 H         -4.5282033929       -0.3447642893       -0.8788082554
 H         -0.4545047052        2.6986239284       -1.7962301441
 H          1.7805389776        0.7180775563        2.4584338402
 H          0.0830250802        0.6690613756        2.5340346924
 H          1.6212692392       -3.6964810672       -0.5501031049
 H          2.1710909317       -0.9275271203        1.0306141087
 H          3.9580241140        2.1994656007       -1.3961111605
 H          5.0844547030        1.0245009396       -0.7514911295
  37
        -73.91973567
 P          0.2351479680       -2.1268007357       -1.2658562878
 O         -1.6585519564        0.4461064780        1.5191660212
 O         -3.3316095474        1.5041867471       -1.0423113545
 O         -4.1593712500       -0.7859900544       -0.0885140537
 O          0.1289242561       -1.5045414379        0.1960151632
 O         -0.1393167278       -3.6524968280       -1.0187611166
 O          1.7723980286       -2.0493873402       -1.5482074592
 O         -0.5539247433       -1.4915403627       -2.3331579653
 O          3.4673678800        2.2283520239        2.3491830872
 N         -0.0222428109        1.3552794931        0.1098287000
 N          1.9856815023        1.3561493619       -0.8395569536
 N          0.5308510773        2.0881752096        2.3429589094
 N          4.4737086776        1.8453967065        0.3521346038
 C         -2.2705586850        0.6305596349       -0.7678533468
 C         -2.7694757852       -0.7346456253       -0.2074865519
 C         -1.4423104278        1.2398947165        0.3772240203
 C         -2.0544321361       -0.8685386581        1.1515969189
 C         -0.8757920809       -1.8467009840        1.1421987434
 C          0.8719651304        1.7089364799        1.0884873240
 C          0.7228214944        1.1517833168       -1.0288005105
 C          2.1231608692        1.7021712552        0.4875260332
 C          3.3920164017        1.9556422921        1.1394442061
 H         -1.6569519266        0.4567891733       -1.6518437788
 H         -2.4859210989       -1.5483253412       -0.8777813160
 H         -1.8266667102        2.2441377176        0.6100267759
 H         -2.7585275893       -1.2057172502        1.9196790133
 H         -1.2451000953       -2.8551196808        0.9499427052
 H         -0.3771764950       -1.8100248090        2.1141087961
 H         -3.7751199592        1.2362366509       -1.8610238739
 H         -4.4852351214        0.0809956545        0.2091919378
 H          0.3078494028        0.8704189809       -1.9725591023
 H          1.3344697082        2.1727683827        2.9526173995
 H         -0.3068899418        1.6828313007        2.7319875328
 H         -0.4025855923       -4.1298594941       -1.8131701383
 H          2.3561168921       -2.4880342561       -0.9153801809
 H          4.3336108351        1.6404569215       -0.6223782721
 H          5.3891500679        2.0253927073        0.7266516665
  37
        -73.91973105
 P          0.9579570871       -2.0093202405       -0.3658212297
 O         -1.7636366339        0.1144705448        1.4188849546
 O         -3.8416201270        1.9406045753        0.1272647739
 O         -4.4201254329       -0.5219771658       -0.6984013696
 O         -0.5956031105       -1.7700222128       -0.6623353922
 O          1.6504582299       -1.6314056500       -1.7208867407
 O          1.0460616766       -3.5867877219       -0.3357643586
 O          1.4608867725       -1.3603630152        0.8594140366
 O          3.6685089677        1.9070233455        1.3798437579
 N         -0.2963115125        1.3342010785        0.0503221329
 N          1.4190554692        1.0447972419       -1.3262309327
 N          0.8346821292        2.0556852568        2.0544418664
 N          4.1751278811        1.3539462262       -0.7561807801
 C         -2.7444312510        1.2488436868       -0.4065909640
 C         -3.0580922188       -0.2680320543       -0.5633303422
 C         -1.6170769201        1.2715686863        0.6336963189
 C         -2.4367951563       -0.9129128255        0.7004566451
 C         -1.5098200995       -2.0906781310        0.3838900173
 C          0.8367164627        1.6134993846        0.7723668585
 C          0.1267881697        0.9739217605       -1.1983637214
 C          1.9002353541        1.4580152141       -0.1033577879
 C          3.3048509314        1.5920980967        0.2371368325
 H         -2.4174304210        1.7034532143       -1.3443898026
 H         -2.5771907805       -0.6741969460       -1.4556546828
 H         -1.7314425409        2.1335169519        1.3025143769
 H         -3.2249166628       -1.2908685852        1.3626335477
 H         -2.1063763023       -2.9429519941        0.0518283782
 H         -0.9532524033       -2.3509231761        1.2874739320
 H         -4.4634429196        2.1676094646       -0.5805857243
 H         -4.8969669919       -0.0595522257        0.0127589499
 H         -0.5350193934        0.6821451277       -1.9867585127
 H          1.7769145975        2.0782397896        2.4306174281
 H          0.1445610426        1.6407522762        2.6634010357
 H          1.7568209446       -0.6626890116       -1.8400653679
 H          1.8803386314       -3.9410435576       -0.0088594640
 H          3.8295257550        1.1054021608       -1.6661791099
 H          5.1625757924        1.4038615287       -0.5720672207
  37
        -73.91970271
 P          0.6056120514       -2.6742256636        0.6264000553
 O         -1.4207943515       -0.2047676855        1.0228983074
 O         -3.4329162356        2.0612397293       -0.4561951047
 O         -3.9791032879       -0.3244238094       -1.3863741557
 O         -0.5891418292       -2.3525615173       -0.3908896334
 O          1.1910703718       -1.2960342452        1.1105758531
 O          1.7210855084       -3.1754441764       -0.3658783127
 O          0.2171016833       -3.5958189370        1.7099691898
 O          3.4435276631        1.3386874285       -1.6895697245
 N         -0.1378852934        1.6858013017        0.5392853693
 N          1.5941258926        3.0200000679        0.9326798479
 N          0.6924312719        0.4003076628       -1.3482116847
 N          4.0956353477        3.0293215368       -0.3258397527
 C         -2.2886587497        1.2855375067       -0.6545999973
 C         -2.6393936274       -0.1824648903       -1.0124691255
 C         -1.4662932930        1.1624835643        0.6575444145
 C         -2.4055813096       -0.9311707085        0.3124823505
 C         -1.9135821712       -2.3615176033        0.1180901551
 C          0.8363701052        1.3263829603       -0.3559188486
 C          0.3910397604        2.7070055183        1.2890276399
 C          1.9092810689        2.1696798119       -0.1045670047
 C          3.1974031067        2.1415717120       -0.7754368775
 H         -1.6752084701        1.7600214549       -1.4280200664
 H         -1.9533847283       -0.5599957240       -1.7748787337
 H         -1.9725418199        1.7409992607        1.4450223924
 H         -3.3503858754       -0.9467915493        0.8749670083
 H         -2.5432181336       -2.8728860113       -0.6118586841
 H         -1.9198815990       -2.8993868729        1.0684965800
 H         -4.2128686770        1.4799873946       -0.5564402191
 H         -4.0821436038       -0.1670118533       -2.3365396756
 H         -0.1604508041        3.1830072575        2.0732698832
 H          1.5885933443        0.2421828420       -1.8013744584
 H          0.2389377380       -0.4594469556       -1.0679153175
 H          1.5850764654       -1.3684789172        1.9853478438
 H          1.6483775661       -4.0911004756       -0.6567678744
 H          3.8238902135        3.6495942314        0.4178725263
 H          5.0133002363        3.0684295145       -0.7349741107
  37
        -73.91969490
 P         -0.0312100627       -3.1099624423       -1.2000490228
 O         -1.5228533833        0.4792785924        1.5647394927
 O         -3.4611294805        1.7114999428       -0.5804632185
 O         -3.6665982292       -0.8825249335       -0.5075923866
 O         -0.6913030031       -2.8260875492        0.2333196884
 O         -0.9644929294       -4.2297627573       -1.7647053958
 O          1.3464801083       -3.8101364201       -0.8475980392
 O          0.1025673167       -1.9327230519       -2.0717136395
 O          3.4658751798        3.3980358065        2.0799039893
 N          0.0474686271        1.6740516966        0.2787516956
 N          2.0443184383        1.5406465742       -0.6856556965
 N          0.5626447871        3.0033982562        2.2260821529
 N          4.4892483026        2.5781791641        0.2286943610
 C         -2.2146066812        1.0855624312       -0.6157256731
 C         -2.3299443589       -0.4621203510       -0.4751119897
 C         -1.3489444540        1.4906104933        0.5962196146
 C         -1.7502502108       -0.7637835318        0.9219356718
 C         -0.4509911410       -1.5812187489        0.8613286649
 C          0.9220719821        2.3424962929        1.0982564844
 C          0.7991935358        1.1998962081       -0.7741943983
 C          2.1622874779        2.2652256564        0.4804989012
 C          3.4104801891        2.7986049305        0.9941684451
 H         -1.7374637862        1.3854332078       -1.5507944635
 H         -1.7382332570       -0.9631465246       -1.2439535033
 H         -1.7177538280        2.4254926272        1.0347184357
 H         -2.4938592926       -1.3094081908        1.5118421207
 H         -0.0978243390       -1.7770625943        1.8764332396
 H          0.3101165870       -1.0218539005        0.3115837039
 H         -4.0854632923        1.1408155176       -0.0960972978
 H         -3.9746116834       -0.9525241777       -1.4227458619
 H          0.3963888694        0.6048498232       -1.5681726418
 H          1.3691223471        3.3377635427        2.7403342245
 H         -0.1808267562        2.6024034326        2.7768927253
 H         -1.1007451576       -4.9968108317       -1.1933131382
 H          2.1046641064       -3.5034609350       -1.3558432322
 H          4.3666234271        2.0932297693       -0.6436995115
 H          5.3895871497        2.9196411524        0.5184118071
  37
        -73.91967099
 P          0.8000591074       -2.3558940979       -0.2534129820
 O         -2.0046833275        0.0369784283        1.6370096036
 O         -2.6739070094        1.8005899078       -1.2999684839
 O         -4.4470511852        0.1655294748       -0.1652391489
 O         -0.7165926074       -1.8328630175       -0.3672722499
 O          1.5694494322       -1.2573903748       -1.0598849637
 O          0.8491737510       -3.6258639151       -1.2082765276
 O          1.2280905016       -2.6282785162        1.1238427183
 O          3.0562842729        3.0717629013       -1.2560462134
 N         -0.1043382557        1.0806608376        0.7292466339
 N          2.0117775110        0.7063051267        1.2799542444
 N          0.1510579241        2.8544171091       -0.8942991398
 N          4.3179805390        1.8188500956        0.1534904141
 C         -2.1335768202        0.6896005813       -0.6559838654
 C         -3.1803042172       -0.4043925573       -0.3425470896
 C         -1.5496836017        1.0214494012        0.7484725292
 C         -2.6134072169       -1.0432260096        0.9303891124
 C         -1.6500843028       -2.1990360671        0.6382971296
 C          0.6458961527        1.9081004810       -0.0614985808
 C          0.7814164515        0.3868307299        1.5161209095
 C          1.9696952913        1.6572675484        0.2827325425
 C          3.1408597540        2.2436000048       -0.3329792348
 H         -1.3360656552        0.2740114194       -1.2789098011
 H         -3.2736762341       -1.1187282463       -1.1605277117
 H         -1.9194443117        2.0002819417        1.0941843881
 H         -3.4016185808       -1.4259862237        1.5852139161
 H         -2.2259605865       -3.0589947232        0.2866679019
 H         -1.1073164229       -2.4638827172        1.5502995816
 H         -3.6463419441        1.7640295788       -1.2189227544
 H         -4.5060065255        0.5857965135        0.7062902976
 H          0.4593705925       -0.3162532538        2.2547276531
 H          0.8632876374        3.2619039858       -1.4858432312
 H         -0.7692171801        2.7322747697       -1.2892980241
 H          1.6364801693       -1.4398218338       -2.0060511765
 H          1.0618792455       -4.4554767992       -0.7679631603
 H          4.3057065850        1.1270360408        0.8831811710
 H          5.1790186919        2.1630428329       -0.2347543474
  37
        -73.91966410
 P          0.1573302019       -2.7834941615        0.1820508519
 O         -1.0839859398       -0.1435315747        1.0200179286
 O         -2.7190914948        1.7565844272       -1.4894183689
 O         -4.1365827501       -0.2667006314       -0.6418745575
 O         -1.4351608473       -2.9868109478        0.2171836344
 O          0.4414994316       -1.7132800458       -0.9276325310
 O          0.6077883996       -4.1108369781       -0.5380661250
 O          0.7451462399       -2.5386379819        1.5139531711
 O          4.2194775698        1.5510394635        0.2227007384
 N          0.0064514015        1.7808360455        0.1621375226
 N          1.2536094163        3.5256725359       -0.4216917062
 N          1.7405337897        0.1072089942        0.5550036284
 N          4.0544494772        3.7047591731       -0.4717839825
 C         -1.9343545352        0.7187965693       -1.0027802756
 C         -2.7628867478       -0.5401502940       -0.6075527064
 C         -1.2301938110        1.0787336404        0.3394862413
 C         -2.3256486958       -0.8107527940        0.8487173750
 C         -2.1721726766       -2.2829519950        1.1971648371
 C          1.3071870063        1.3730250082        0.2578807579
 C          0.0469186745        3.0906467928       -0.2549815855
 C          2.0758851093        2.4707173743       -0.1046787038
 C          3.5295835230        2.5290946329       -0.1064786697
 H         -1.1758482083        0.4770084098       -1.7529001858
 H         -2.4904547560       -1.3902813357       -1.2349928693
 H         -1.9079063128        1.7419709664        0.9085872214
 H         -3.0757828321       -0.3628559880        1.5182220778
 H         -3.1506427405       -2.7617192140        1.2423423337
 H         -1.6545192194       -2.3566753321        2.1572864103
 H         -3.6298051315        1.6211003841       -1.1593843593
 H         -4.5355612039       -0.6153694817       -1.4515087754
 H         -0.8440607563        3.6570525620       -0.4289508278
 H          2.7522839069        0.1078845550        0.6707679627
 H          1.2429941464       -0.3848353904        1.2888492340
 H          1.0702838302       -1.0264327922       -0.5808408292
 H          0.6900432927       -4.8837970183        0.0308871226
 H          3.4285766576        4.4513000040       -0.7236518705
 H          5.0526601900        3.8264230446       -0.4912005134
  37
        -73.91966115
 P         -0.2766597618       -3.4481654227       -0.6926758152
 O         -1.6364030813        0.4098664114        1.6247395893
 O         -1.8952968029        1.3447769720       -1.7463287793
 O         -3.5811028078       -0.2719693890       -0.5448019214
 O         -0.8442856177       -3.0757331553        0.7575793901
 O         -1.6151436124       -3.8532195431       -1.4419879823
 O          0.5240298047       -4.7836302271       -0.4716142655
 O          0.5167771341       -2.3892213221       -1.3301071616
 O          3.1553400182        4.1034636037       -0.9366118305
 N          0.1745298397        1.6793074830        0.8308108382
 N          2.2019487198        1.8299213979        1.7182378449
 N          0.3387241895        3.2613087682       -0.9855671694
 N          4.3852872873        3.3374621058        0.8082758434
 C         -1.3622661595        0.5382812238       -0.7471826901
 C         -2.2468056291       -0.6671794581       -0.3745901936
 C         -1.1982054350        1.2763291918        0.6147932990
 C         -1.8752737609       -0.8902774376        1.0972314448
 C         -0.6298868307       -1.7731575967        1.2631301625
 C          0.8688968286        2.5585774379        0.0449602171
 C          1.0352622204        1.2783401861        1.8205616959
 C          2.1379604042        2.6448311012        0.6079865458
 C          3.2500828974        3.4204633340        0.0967444684
 H         -0.3843867531        0.1846197765       -1.0928865154
 H         -2.0056972652       -1.5377635972       -0.9874887647
 H         -1.8245083066        2.1810264913        0.6337279291
 H         -2.7055698547       -1.3111160610        1.6703490140
 H         -0.3999627619       -1.8771178928        2.3257680040
 H          0.2187558653       -1.3144974739        0.7474517317
 H         -2.8674256750        1.3069187515       -1.6850184938
 H         -4.1718544167       -1.0359928759       -0.4969817532
 H          0.7358632970        0.5973394579        2.5887818207
 H          1.0468877203        3.7519863985       -1.5171775973
 H         -0.4093381808        2.8361708746       -1.5158337285
 H         -1.5115659640       -4.1733475897       -2.3459017733
 H          0.0880741058       -5.4611767958        0.0628678949
 H          4.3941990488        2.7557659428        1.6283490801
 H          5.2049299796        3.8352955758        0.5066998416
  37
        -73.91964868
 P          0.2026362759       -3.0603369586       -0.7491623575
 O         -1.0184147286       -0.7604673636        0.5546393069
 O         -2.5610793781        2.3737498161       -0.3114761678
 O         -3.9286110747        0.4764289790        0.9701494514
 O         -1.3824945775       -3.2998681925       -0.5639812590
 O          0.7148337063       -4.4819630035       -1.1550774028
 O          0.8051260143       -2.9068965221        0.7073887240
 O          0.5201149269       -2.0222712535       -1.7375659278
 O          3.3003373168        3.7077000744        1.7407143348
 N          0.2821567866        1.1694011766        0.2178702447
 N          2.0810030106        1.6605257830       -0.9883133129
 N          0.6845977563        2.5327289478        2.1904387701
 N          4.2511017797        3.2927116349       -0.2769393864
 C         -2.1229347676        1.0669541387       -0.4455834413
 C         -3.1893310854        0.0000736232       -0.1224268908
 C         -1.0079150960        0.6601877978        0.5475054277
 C         -2.3339456089       -1.2311847333        0.2377941888
 C         -2.2462813668       -2.2380025168       -0.9086640061
 C          1.0375232783        2.0252262405        0.9807500207
 C          0.9737106035        0.9946697696       -0.9608252020
 C          2.1534828398        2.3292781992        0.2146240585
 C          3.2659077744        3.1661318183        0.6230657590
 H         -1.7488765615        0.9465605533       -1.4662131288
 H         -3.8285266429       -0.1983367919       -0.9860627170
 H         -1.2767316370        1.0358185943        1.5469179435
 H         -2.7233678482       -1.7312344400        1.1329845274
 H         -1.8587171103       -1.7403100585       -1.8024797861
 H         -3.2204242149       -2.6866591323       -1.1062268690
 H         -3.1752879424        2.4208697450        0.4434724802
 H         -4.7709072544        0.0075212800        1.0477795918
 H          0.6453183363        0.3238645234       -1.7269145973
 H          1.4457283245        3.0662018258        2.5969785463
 H          0.1820057320        1.9364428319        2.8292812075
 H          0.5637093204       -5.1838537376       -0.5094689322
 H          0.5937639824       -2.0672435020        1.1267635956
 H          4.1555967663        2.8184444027       -1.1587426637
 H          5.0619453279        3.8472564731       -0.0624738528
  37
        -73.91964193
 P          0.8933162443       -2.1561381741       -0.4418084120
 O         -1.7103642804       -0.4045813488        1.1340006264
 O         -3.9002565403        1.5999221449        0.7510481743
 O         -4.2946218139       -0.0744947926       -1.2552582769
 O         -0.4442213089       -1.5333280631       -1.0508047760
 O          1.0549211115       -1.5511151961        1.0053456471
 O          1.9954961980       -1.4243056514       -1.2848166368
 O          0.9203153722       -3.6324337323       -0.4568433321
 O          3.7688284770        1.5208766762        1.4840984398
 N         -0.2754955574        1.2738346348        0.2724331449
 N          1.3345972335        1.7266105135       -1.1898221447
 N          0.9688441422        1.2145384593        2.3366731934
 N          4.0921990358        1.9591200616       -0.7176368303
 C         -2.7458302096        1.3751983354       -0.0109704178
 C         -2.9813631067        0.0877915972       -0.8317894445
 C         -1.5531891651        0.9752326335        0.8735067070
 C         -2.4910295972       -1.0294549109        0.1234026461
 C         -1.6779551746       -2.0938337842       -0.6156767834
 C          0.8968611718        1.3173772694        0.9817871643
 C          0.0695337350        1.5078685806       -1.0381936731
 C          1.8926851116        1.6116517991        0.0641637274
 C          3.3139537290        1.6933120209        0.3414970905
 H         -2.5110773097        2.2340389642       -0.6453072652
 H         -2.3556073552        0.0869925334       -1.7283956235
 H         -1.5788442861        1.4771450221        1.8488609698
 H         -3.3481436909       -1.5114689816        0.6084506909
 H         -2.2303577572       -2.4210527523       -1.4995881089
 H         -1.4776584378       -2.9519175289        0.0288242601
 H         -3.9001673087        2.4917337529        1.1255919667
 H         -4.8854514910        0.2556950625       -0.5555536400
 H         -0.6382431107        1.5223809905       -1.8395513930
 H          1.9350726676        1.1683772393        2.6417814438
 H          0.3637474068        0.5202919199        2.7505963359
 H          1.4711845365       -2.1907474197        1.5942951457
 H          2.2114765205       -1.8510014778       -2.1217843935
 H          3.6545164781        2.0523425185       -1.6181719021
 H          5.0917720683        1.9871790391       -0.6128077815
  37
        -73.91963880
 P         -0.4209443494       -3.0975110538       -1.2258453878
 O         -1.1236526620        0.0752340452        1.4664501765
 O         -3.2845602463        1.6778098245       -0.1336701095
 O         -3.2693650172       -0.7673101468       -1.2727527173
 O         -0.3015318077       -2.5597567669        0.2852968521
 O          0.3846132679       -4.4530506616       -1.2287367152
 O          0.5100983512       -2.1516221340       -2.0605011643
 O         -1.8150696164       -3.1787361496       -1.6966605665
 O          3.6398923225        3.4871499520        2.1396400031
 N          0.2514546784        1.6362196102        0.4097284824
 N          2.1960653780        1.7029306648       -0.6630351729
 N          0.7923098351        2.8802870463        2.4112050981
 N          4.6115356590        2.8535863551        0.1904563049
 C         -2.0331272593        1.1430025587       -0.4578154208
 C         -2.0926146406       -0.3854105816       -0.6296355621
 C         -1.1032402929        1.3044228529        0.7550614327
 C         -1.9887345606       -0.8571713060        0.8315240662
 C         -1.4777850335       -2.2819207530        1.0251370324
 C          1.1234863928        2.3100006739        1.2268453900
 C          0.9745213717        1.2804453410       -0.7057305338
 C          2.3291934243        2.3604119254        0.5404094702
 C          3.5647704572        2.9497148773        1.0228616585
 H         -1.6249792520        1.6442639741       -1.3446092963
 H         -1.2077221841       -0.7153120213       -1.1843038944
 H         -1.4944237284        2.1009266702        1.4024589166
 H         -2.9867665400       -0.7887767372        1.2903359316
 H         -2.2726869031       -2.9704870243        0.7311346567
 H         -1.2111311157       -2.4232488069        2.0734851944
 H         -3.9504199319        1.2525481442       -0.6998230222
 H         -3.1470724884       -1.6666054166       -1.6223290381
 H          0.5594936676        0.7155213126       -1.5141717088
 H          1.6078077485        3.2376612523        2.8957693731
 H          0.1122991488        2.4022681083        2.9815090741
 H         -0.1078386923       -5.2484364844       -0.9995449620
 H          1.4467318363       -2.3831038856       -2.0308959149
 H          4.4766290350        2.4073970589       -0.7005938285
 H          5.5006941584        3.2412944587        0.4549768503
  37
        -73.91963660
 P         -0.2332850835       -3.2241280779       -1.1467727909
 O         -1.3936975813        0.4433574223        1.5506690306
 O         -3.3975670893        1.5723334396       -0.5726827527
 O         -3.4238451109       -1.0430600859       -0.5599094079
 O         -0.3681016022       -2.8867226579        0.4254537383
 O         -1.6887783127       -3.5574583967       -1.6522574970
 O          0.5506443475       -4.5882092595       -1.1417567192
 O          0.3904444764       -2.1599613620       -1.9400472059
 O          3.4586884911        3.6062794308        2.0499287822
 N          0.1217195653        1.7140222928        0.2678378644
 N          2.1098897669        1.7059255262       -0.7227444280
 N          0.5849344326        3.0472169766        2.2253661145
 N          4.5069957180        2.8589674727        0.1821674058
 C         -2.1136494905        1.0296289257       -0.6193378691
 C         -2.1251020031       -0.5242784242       -0.5031344017
 C         -1.2636106867        1.4679927499        0.5908711059
 C         -1.5453772089       -0.8077658449        0.8968850507
 C         -0.2061988529       -1.5542595396        0.8607565686
 C          0.9682183309        2.4200514971        1.0856014721
 C          0.8853872435        1.2964153519       -0.8001984426
 C          2.2024130280        2.4200449346        0.4519235680
 C          3.4257111124        3.0138444826        0.9594642578
 H         -1.6718535789        1.3768811727       -1.5543943581
 H         -1.4899126371       -0.9676783422       -1.2755299507
 H         -1.6674341448        2.3838519994        1.0387961626
 H         -2.2655654060       -1.3938423629        1.4780996250
 H          0.2018739271       -1.6014593923        1.8730759499
 H          0.4975176918       -1.0359060220        0.2028015371
 H         -3.9377727199        1.0719572347        0.0625516439
 H         -3.7834916948       -0.9370996690       -1.4529726362
 H          0.5071964100        0.6892391689       -1.5970080948
 H          1.3784908209        3.4232154251        2.7312424396
 H         -0.1215926486        2.5931755412        2.7838899654
 H         -2.1304321285       -4.3266685738       -1.2703903791
 H          0.5801171122       -5.0797737875       -0.3109867954
 H          4.4057573248        2.3633855523       -0.6870627895
 H          5.3927266049        3.2372490144        0.4712718328
  37
        -73.91963608
 P          0.4293012823       -2.1451004988       -0.4409112013
 O         -2.0178299963        0.1538767076        1.5689732617
 O         -2.7647528941        1.7581159633       -1.2878819083
 O         -3.9739587272       -0.5535342616       -0.9948432406
 O         -0.3384512276       -2.0880520730        0.9473056337
 O         -0.1870197247       -3.4600022123       -1.1001480615
 O          1.8878608775       -2.4734448481        0.0190572024
 O          0.3860674828       -0.9740824301       -1.3303467724
 O          3.2816693154        2.9788349655       -1.0734892276
 N         -0.0465517680        1.1846248806        0.8177714591
 N          2.0253561890        0.7105099782        1.4571439317
 N          0.3717973713        2.9431461920       -0.7957549248
 N          4.4294404956        1.6791808742        0.3880015539
 C         -1.9367462524        0.7797674136       -0.7399339812
 C         -2.6247300482       -0.6061295639       -0.6213637766
 C         -1.4910650952        1.1194373653        0.7084881511
 C         -2.5413712803       -0.9700810914        0.8675986469
 C         -1.7337350812       -2.2408503921        1.1524643526
 C          0.7766283481        1.9602014834        0.0496995560
 C          0.7698809130        0.4602063553        1.6471999806
 C          2.0711452271        1.6490868531        0.4491394407
 C          3.2915421505        2.1588909902       -0.1391525609
 H         -1.0594645423        0.6918930461       -1.3837179678
 H         -2.0749260497       -1.3397205445       -1.2186916879
 H         -1.8951025748        2.1007670515        1.0048033757
 H         -3.5601762671       -1.1334272440        1.2424718376
 H         -2.1188824380       -3.0583674157        0.5395501147
 H         -1.8251865103       -2.4882590183        2.2123901428
 H         -3.6763094275        1.6125542837       -0.9769086976
 H         -4.0533443703       -0.5475233733       -1.9605214443
 H          0.3780943372       -0.1979118362        2.3929381292
 H          1.1362007667        3.2883265775       -1.3640059927
 H         -0.5211271466        2.8498172068       -1.2540360443
 H          0.0744930582       -3.6136269858       -2.0143594012
 H          1.9930178872       -3.1904425595        0.6584069698
 H          4.3613442669        0.9945184777        1.1212224507
 H          5.3165403356        1.9587468149        0.0063791415
  37
        -73.91961664
 P         -1.8606380125       -3.9558335054       -0.7881644180
 O         -0.0356587950       -0.3583806663        1.3204689903
 O         -1.4476981948        1.6843685154       -1.2437905207
 O         -2.7713847127       -0.4115673913       -0.4908159481
 O         -0.6484165447       -3.7546071223        0.2224098469
 O         -2.0954451325       -5.5017663471       -0.6886095807
 O         -1.2067827396       -3.7376298374       -2.2039861826
 O         -3.0622313262       -3.1351230627       -0.5193873395
 O          2.5788452149        5.5004003847        0.0568368609
 N          1.0106531813        1.6461212592        0.8312991986
 N          3.1444016078        2.1138412914        1.2123343309
 N          0.1695767944        3.7947185571        0.1251772127
 N          4.4906291664        4.5330473523        0.8027636512
 C         -0.6643541668        0.6592317665       -0.7240440235
 C         -1.4057153891       -0.6883557818       -0.6190269154
 C         -0.2202016186        0.9063810626        0.7421304828
 C         -0.8090199355       -1.3444793064        0.6421998982
 C          0.0850335283       -2.5519649021        0.3517300962
 C          1.1737348237        2.9662613797        0.5077872124
 C          2.2377434409        1.1907993377        1.2432315693
 C          2.5124508289        3.2496885057        0.7521511878
 C          3.1801551256        4.5142412877        0.5135659715
 H          0.2303820659        0.5636901620       -1.3497466594
 H         -1.2203759227       -1.3109662266       -1.5017804278
 H         -1.0073036499        1.4717091312        1.2707234998
 H         -1.6240778848       -1.6672865409        1.3041068332
 H          0.7489505611       -2.7061674683        1.2055569619
 H          0.6798411967       -2.3789781475       -0.5492976527
 H         -2.3836728142        1.4438439278       -1.1086714552
 H         -3.2490607960       -1.2624872291       -0.5073402079
 H          2.3862941693        0.1809143211        1.5610706254
 H          0.5204446711        4.6922944855       -0.1862171922
 H         -0.5669400218        3.3880281448       -0.4373176671
 H         -2.6696749753       -5.7906135388        0.0287453584
 H         -1.7515574182       -3.9811305782       -2.9615960837
 H          4.9104388190        3.6958131837        1.1691844383
 H          5.0261785208        5.3714756453        0.6587427320
  37
        -73.91959641
 P         -0.2940763507       -3.2277644489       -0.5272253396
 O         -1.2643415730        0.3993466643        1.3893493081
 O         -2.1011393980        1.3223750866       -1.9249957979
 O         -3.7932754025       -0.2359523018       -0.6257572544
 O         -0.2727569045       -2.2204536046        0.7331636913
 O          1.0199489933       -4.0760160133       -0.3396862410
 O          0.0620116931       -2.3376557859       -1.7714828522
 O         -1.5582341387       -3.9706850673       -0.6323838706
 O          4.1433997715        1.6255948256        0.5854505166
 N         -0.0519704206        2.0831795887        0.3475607944
 N          1.2953580092        3.8481807691        0.3164196343
 N          1.5629219581        0.2784838742        0.3702535397
 N          4.0981515223        3.8895071614        0.4471833631
 C         -1.5043295819        0.5208814828       -0.9487127513
 C         -2.4515509964       -0.5926131839       -0.4411117647
 C         -1.2710711672        1.3385925521        0.3400639626
 C         -2.1304899445       -0.6875152028        1.0632712398
 C         -1.4616741211       -1.9972475708        1.4696267156
 C          1.2253126669        1.5900756312        0.4003013519
 C          0.0649851254        3.4526322463        0.3044345604
 C          2.0591530985        2.7026094772        0.3801595985
 C          3.5061161806        2.6862318747        0.4754580496
 H         -0.5553619525        0.0901886423       -1.2760256890
 H         -2.2587053631       -1.5510486388       -0.9406555831
 H         -2.1001840914        2.0554376633        0.4558824503
 H         -3.0676309821       -0.5812530087        1.6252055525
 H         -2.1589863887       -2.8208514877        1.2997406972
 H         -1.1724017117       -1.9434922274        2.5206146316
 H         -1.8705825557        1.0076873885       -2.8108972985
 H         -3.8239135090        0.4841868233       -1.2848234492
 H         -0.7892261377        4.0955283884        0.2548366136
 H          2.5416314700        0.1362684722        0.5909696764
 H          0.9095448516       -0.3827027732        0.7669349552
 H          0.9695104027       -4.8115631433        0.2800893863
 H          1.0029751870       -2.3169329972       -1.9859155456
 H          3.5174247684        4.7072148088        0.3734259153
 H          5.0972827476        3.9607655258        0.5331751315
  37
        -73.91958873
 P         -0.0659351642       -3.4760959239       -0.5578824738
 O         -1.0438533935       -0.7955922470        0.6473568246
 O         -2.6692897976        2.3037164015        0.5491428336
 O         -3.9944752229        0.0080858116        0.3416973547
 O         -0.0523135843       -2.1892388167       -1.5268064831
 O          0.7803857952       -3.0673129619        0.7159816228
 O          0.8969870777       -4.4495466173       -1.3135763262
 O         -1.3973326479       -4.0373123849       -0.2894546334
 O          2.6582126677        4.6342181502        0.8608965966
 N          0.4060489961        1.0698020604        0.5291008510
 N          2.5021957754        1.1690121692       -0.1836892714
 N          0.1230788457        3.2653623984        1.4885615912
 N          4.2613706430        3.3510087286       -0.1046509521
 C         -1.9810953716        1.2787318565       -0.0941153894
 C         -2.8906956540        0.0983794238       -0.5136950397
 C         -0.9260162390        0.5946708420        0.8233099471
 C         -1.9405127869       -1.0971423729       -0.4205775488
 C         -1.1813312102       -1.3591449602       -1.7255863926
 C          0.8448418996        2.3364231284        0.8112239749
 C          1.4524595217        0.4193791547       -0.0745751315
 C          2.1589590132        2.3871496241        0.3629811815
 C          3.0337644644        3.5429857587        0.4018481407
 H         -1.4723538955        1.7016579938       -0.9683641574
 H         -3.2932381711        0.2328373960       -1.5186119921
 H         -1.1298235055        0.8339936153        1.8784559444
 H         -2.4567572493       -2.0171575805       -0.1359272512
 H         -0.7771301512       -0.4324833106       -2.1423939930
 H         -1.8603126309       -1.8275712733       -2.4424847354
 H         -3.5597469880        1.9782655859        0.7841086467
 H         -3.7487032194       -0.4292231789        1.1709930736
 H          1.3837674328       -0.5969601123       -0.3983984803
 H          0.5792186469        4.1694699131        1.4900218959
 H         -0.8774910609        3.2773176009        1.3457411755
 H          0.2612990793       -2.7525720011        1.4619113194
 H          1.7915423166       -4.1248797773       -1.4767642175
 H          4.4933471590        2.4408663466       -0.4641574956
 H          4.9225099568        4.1081138178       -0.1232625939
  37
        -73.91956653
 P         -0.1691664861       -3.3693598471       -0.2259098402
 O         -0.7081507538       -0.7164307325       -0.3746923876
 O         -2.3151646028        1.9275500984        1.3026435992
 O         -4.0035574962        0.1104690162        0.4635818250
 O         -1.5021529130       -3.2868092260       -1.1305239797
 O          1.0141312948       -2.7070277172       -1.0191941093
 O          0.1341232780       -4.9087287480       -0.4304521682
 O         -0.3092636778       -2.9619467900        1.1803130603
 O          2.8652622246        4.5371377797        1.1900063278
 N          0.6298713795        1.1275689755        0.0688900328
 N          2.5157648160        1.6498212868       -0.9719107062
 N          0.5478906716        2.8259840183        1.7823582640
 N          4.2182125999        3.8244857094       -0.4857793311
 C         -1.8659158227        1.2684773093        0.1615169172
 C         -2.8779077558        0.1998521673       -0.3584572890
 C         -0.5716100197        0.4319248494        0.4199103576
 C         -2.0637372271       -1.1032562050       -0.2585500193
 C         -2.3207830628       -2.1470089329       -1.3243208524
 C          1.1080425597        2.2487775201        0.6924128965
 C          1.5252944780        0.8186102095       -0.9240473824
 C          2.2882877774        2.5693297275        0.0309679924
 C          3.1371278270        3.7123659312        0.3016538288
 H         -1.6567278627        2.0268264420       -0.5999076488
 H         -3.1444650818        0.3955156229       -1.4004403855
 H         -0.5301541056        0.1552033293        1.4892753992
 H         -2.2353875603       -1.5473743160        0.7332843647
 H         -2.0952968383       -1.7261785420       -2.3094165212
 H         -3.3569741324       -2.4903905516       -1.2821020094
 H         -2.9734913445        1.3603339425        1.7477126184
 H         -4.6945032211        0.7199093997        0.1627303493
 H          1.3915432357       -0.0371261182       -1.5501076206
 H          0.9733969963        3.7161286015        2.0080432611
 H         -0.4539176376        2.7564125012        1.8944242341
 H          1.3109516865       -3.2410032108       -1.7680652393
 H         -0.3751288814       -5.5041343398        0.1279965897
 H          4.3779836916        3.1146583455       -1.1798218158
 H          4.8583536475        4.5887547204       -0.3563879942
  37
        -73.91956314
 P          0.9780855668       -1.9347594566       -0.5485373394
 O         -1.8576270565        0.4218700854        1.5246597896
 O         -4.0816851639        1.4402737974       -0.0187482930
 O         -3.8216612631       -1.0094399525       -1.0279734080
 O          0.0912054143       -1.2873872209        0.5895790738
 O          0.1196571089       -1.7076233039       -1.8570223004
 O          0.8686985995       -3.5096805245       -0.3271811222
 O          2.3527850580       -1.4251105868       -0.5570903491
 O          3.5548525884        1.4470625013        1.5567895499
 N         -0.3867184837        1.5167814856        0.0460767627
 N          1.3622142502        1.4120918802       -1.3215403004
 N          0.7053630073        1.7472273668        2.1819181407
 N          4.0906640102        1.3231316844       -0.6462663087
 C         -2.7897305476        1.1562491377       -0.4806494983
 C         -2.6674943992       -0.3815252075       -0.5749029537
 C         -1.7297291555        1.4650046775        0.5874652712
 C         -2.2722047578       -0.7749912169        0.8707589119
 C         -1.1773417384       -1.8435926823        0.9467840601
 C          0.7335165494        1.5674879459        0.8351978745
 C          0.0712724281        1.4004985524       -1.2454589722
 C          1.8179122175        1.5143819638       -0.0274374572
 C          3.2089890040        1.4170049970        0.3644816176
 H         -2.5899898952        1.6532267894       -1.4323406816
 H         -1.8642256519       -0.6541857402       -1.2638200769
 H         -1.9224472848        2.3951420067        1.1358897462
 H         -3.1528530542       -1.1528442416        1.4036171957
 H         -1.4326492760       -2.6765471428        0.2907995178
 H         -1.0828601870       -2.1924188034        1.9774129528
 H         -4.2715721078        2.3868177320       -0.0782331155
 H         -4.5907209119       -0.5475359115       -0.6506338018
 H         -0.5716985964        1.3418383816       -2.0977278027
 H          1.6216282138        1.5961945093        2.5889629798
 H         -0.0640052027        1.3006389569        2.6614694115
 H          0.5132120456       -2.0656153504       -2.6613600685
 H          1.6764080554       -3.9128099121        0.0071434356
 H          3.7136881085        1.1252752305       -1.5582363958
 H          5.0424165967        1.0744690667       -0.4330288416
  37
        -73.91955868
 P         -0.0135488837       -2.9895826303       -0.5423746815
 O         -0.9252489416       -0.6940213897        1.1410140142
 O         -2.3527930311        2.0201656876       -0.5533967665
 O         -4.0624020151        0.0155804860       -0.3052473338
 O         -1.5978879941       -3.0834881901       -0.3915505567
 O          0.1768698718       -1.6735141779       -1.4257598530
 O          0.2880165066       -4.1853286620       -1.5264054210
 O          0.7786689615       -3.0705481340        0.6888744660
 O          2.7709726269        4.5505774728       -0.1327072510
 N          0.4885171766        1.0684511834        0.6093016628
 N          2.7007176914        0.9844347501        0.5075252783
 N          0.0968037741        3.4376166460        0.3653885904
 N          4.4955021328        3.0849891995        0.0280851906
 C         -1.7280171587        0.7698695739       -0.5190095418
 C         -2.7366305040       -0.4065238185       -0.3697634135
 C         -0.8744460304        0.6577182856        0.7677909863
 C         -2.2516929687       -1.1380342313        0.9067249818
 C         -2.2301658771       -2.6554202004        0.7988447031
 C          0.9075267597        2.3549047944        0.3945667012
 C          1.6203737006        0.2912172905        0.6726838429
 C          2.2943386325        2.2901438493        0.3258700473
 C          3.1907933387        3.3979788092        0.0640757354
 H         -1.0834168937        0.6147205903       -1.3921330301
 H         -2.6742663823       -1.0794998693       -1.2270013230
 H         -1.3425559331        1.2917750669        1.5452099157
 H         -2.8898418606       -0.8533678801        1.7569847977
 H         -3.2458048743       -3.0503704073        0.7561409191
 H         -1.6861153186       -3.0515712168        1.6601787325
 H         -2.9480275017        2.0640254145       -1.3186763869
 H         -4.1552717604        0.7272935971        0.3488879230
 H          1.5718952810       -0.7616915928        0.8579826018
 H          0.5775941827        4.2758631727        0.0659458332
 H         -0.8573501541        3.3107922615        0.0585437174
 H          1.0857539319       -1.5527783608       -1.7194437980
 H         -0.3140943843       -4.2917745949       -2.2743086531
 H          4.7627557677        2.1336214071        0.2143460441
 H          5.1807278498        3.8024160463       -0.1339405342
  37
        -73.91955814
 P          0.5921762934       -2.6653787062        0.6363953814
 O         -1.4191505966       -0.2076788947        1.0254267551
 O         -3.5163757621        1.9663225454       -0.3601140736
 O         -3.9039424358       -0.3363737298       -1.5415811356
 O         -0.5924828759       -2.3460807190       -0.3911560378
 O          1.1877479414       -1.2873715117        1.1110712354
 O          1.7131918066       -3.1834495951       -0.3419234177
 O          0.1935308119       -3.5731822646        1.7281297945
 O          3.4419424734        1.3251371401       -1.7118268142
 N         -0.1290333243        1.6810460402        0.5328441053
 N          1.6141575217        3.0018306790        0.9280627943
 N          0.6887392822        0.4026111211       -1.3637026456
 N          4.1075893468        3.0095035797       -0.3468266371
 C         -2.3101339717        1.3002340642       -0.6234751933
 C         -2.6293887959       -0.1639405719       -1.0135865446
 C         -1.4585062658        1.1611023578        0.6691955776
 C         -2.4096563947       -0.9273403430        0.3121949487
 C         -1.9226290944       -2.3566256192        0.1034909973
 C          0.8415616480        1.3180304959       -0.3656661428
 C          0.4116492447        2.6935197622        1.2889768378
 C          1.9197491986        2.1558593128       -0.1150921871
 C          3.2042590260        2.1249645200       -0.7929665199
 H         -1.7290430631        1.7948950955       -1.4036651323
 H         -1.9173686968       -0.5217276378       -1.7618833329
 H         -1.9447359518        1.7288394209        1.4775828898
 H         -3.3493122247       -0.9423946893        0.8826579697
 H         -2.5468222948       -2.8472066277       -0.6454763858
 H         -1.9412515261       -2.9123091565        1.0436625311
 H         -3.4814721607        2.8862341823       -0.6540405380
 H         -4.4928221974        0.3273639422       -1.1382866718
 H         -0.1305370675        3.1657967140        2.0819308882
 H          1.5803115529        0.2400559816       -1.8236695909
 H          0.2207502760       -0.4536639719       -1.0977283421
 H          1.5793514593       -1.3594915714        1.9871576643
 H          1.6285150584       -4.0966740462       -0.6368859140
 H          3.8463615326        3.6227104693        0.4064417207
 H          5.0252458470        3.0412657274       -0.7565852846
  37
        -73.91954975
 P         -0.7505489854       -3.6466892317       -0.9378405159
 O         -0.9614216325        0.1590307833        1.3467921842
 O         -3.3968690132        1.4903407199        0.0821640493
 O         -3.1515136435       -0.7994339314       -1.0394226402
 O          0.2053917706       -2.3566339055       -1.0731199626
 O         -0.4236033761       -4.3118720116        0.4421328551
 O         -0.1265421441       -4.6023262282       -2.0110243448
 O         -2.1831723917       -3.3433234549       -1.1074705538
 O          3.7000271079        3.4053044360        2.1824285099
 N          0.1767355916        1.9532018846        0.3449807521
 N          1.9572904001        2.5086125960       -0.8634366643
 N          0.9258910740        2.5332286527        2.5622162645
 N          4.4195376475        3.5234972339        0.0345012587
 C         -2.1058226505        1.2528520572       -0.3967837037
 C         -1.8968685352       -0.2241814085       -0.8212871009
 C         -1.1049592436        1.4322001548        0.7560023202
 C         -1.1117798622       -0.8482792673        0.3575613257
 C          0.2672221184       -1.3769037854       -0.0562288845
 C          1.1244251008        2.4021988426        1.2299934800
 C          0.7563407763        2.0295855893       -0.9017939838
 C          2.2278860986        2.7560335788        0.4643364150
 C          3.4940301369        3.2564542365        0.9673739020
 H         -1.8998010239        1.9492266628       -1.2178868285
 H         -1.2882907385       -0.2783409164       -1.7346934774
 H         -1.5229555036        2.0978653947        1.5194791637
 H         -1.6853578973       -1.6649228982        0.8099752256
 H          0.7565339349       -1.7832580562        0.8336252680
 H          0.8787559852       -0.5679580193       -0.4661681777
 H         -3.9603962092        0.7461347319       -0.1997903698
 H         -3.0400039761       -1.7644378747       -1.1533447415
 H          0.2555474005        1.7353960397       -1.7999451962
 H          1.7778007797        2.7676673087        3.0570531519
 H          0.3091140389        1.8714749607        3.0067603594
 H          0.3718868618       -4.8593668593        0.4684184689
 H         -0.3944121234       -4.4514545987       -2.9240783387
 H          4.1821125924        3.3835332804       -0.9325748238
 H          5.3198845317        3.8780307681        0.3077676097
  37
        -73.91953235
 P         -0.1289439997       -3.6717084216       -0.6728538732
 O         -0.9892399641       -0.7072008606        0.7569294361
 O         -2.6829956876        2.3423035909        0.3342889729
 O         -3.8683256183        0.0012738088        0.2909363960
 O          0.1614547817       -2.2319323663       -1.3108926366
 O          0.2363778342       -3.4839075428        0.8569048145
 O          1.0295838692       -4.5421469230       -1.2800276722
 O         -1.4711746274       -4.2088656628       -0.9407329116
 O          2.5622003950        4.8163335962        0.7533127880
 N          0.4028440555        1.1835707775        0.6422402169
 N          2.5534322172        1.2503417870        0.1091050167
 N          0.0064837428        3.4666568512        1.3139380818
 N          4.2598408553        3.4772499863        0.0672654312
 C         -1.9351695140        1.2847670704       -0.1688315743
 C         -2.7728024952        0.0559860914       -0.5800677479
 C         -0.9368173591        0.6878132281        0.8675889743
 C         -1.7776688281       -1.0941039136       -0.3599294644
 C         -0.9235866647       -1.3702840647       -1.6016109780
 C          0.7959820143        2.4828784049        0.8157047404
 C          1.5082905917        0.4932271229        0.2152092525
 C          2.1446520412        2.5147428249        0.4791312716
 C          2.9922128634        3.6898801423        0.4540392266
 H         -1.3723741898        1.6656924199       -1.0279291583
 H         -3.0952894363        0.1167641611       -1.6244005045
 H         -1.2338609796        0.9707906393        1.8888864921
 H         -2.2695540744       -2.0273030875       -0.0730112661
 H         -0.4633036521       -0.4567722897       -1.9843541595
 H         -1.5568079539       -1.8287312920       -2.3657713118
 H         -3.4746895711        1.9799110941        0.7707636547
 H         -4.4779838176       -0.7022574122        0.0306206133
 H          1.4751047579       -0.5560507935        0.0099166153
 H          0.4435186364        4.3771857696        1.2446690711
 H         -0.9825572534        3.4271409493        1.1090358199
 H         -0.2683950547       -4.0206953093        1.4765320537
 H          1.9275440328       -4.2114510399       -1.1517295615
 H          4.5384358476        2.5390119414       -0.1632623255
 H          4.9056720621        4.2459686614        0.0175690026
  37
        -73.91950403
 P          0.0446461046       -3.3999127881       -0.5383618499
 O         -0.8854048686       -0.7916710142        0.4551346920
 O         -2.8135843771        1.5726484027        1.4850404304
 O         -3.9582896956        0.6271015281       -0.6832915417
 O         -1.5273678418       -3.2116539086       -0.8489623948
 O          0.2637006960       -4.9158345626       -0.8560085660
 O          0.2006801487       -3.3692404877        1.0363338505
 O          0.9029304959       -2.5001153582       -1.3195141418
 O          2.9296066623        4.4899529600        1.1159831916
 N          0.5073882768        1.0962685786        0.4231764028
 N          2.3034332255        1.4888874162       -0.8145530183
 N          0.6408068896        2.9035657463        2.0251963730
 N          4.1064001877        3.6317155433       -0.6240333487
 C         -1.9545962526        1.3474001402        0.4078004483
 C         -2.5768133115        0.4364897807       -0.6703171526
 C         -0.7325868461        0.5367849481        0.8988405461
 C         -2.1370631021       -0.9660860497       -0.2057057515
 C         -1.9541997098       -1.9607771050       -1.3453233394
 C          1.0744542798        2.2388411226        0.9237842467
 C          1.2951421796        0.6987580956       -0.6312248274
 C          2.1977280456        2.4748990796        0.1428507030
 C          3.1001414463        3.6046143933        0.2617982474
 H         -1.6339406068        2.3049430126       -0.0281505044
 H         -2.1158433221        0.6614351484       -1.6391535934
 H         -0.7154367944        0.5582742108        1.9994296477
 H         -2.8661069763       -1.3585219466        0.5175255958
 H         -1.2008409079       -1.5794611865       -2.0417571435
 H         -2.8995030672       -2.1446310268       -1.8566739722
 H         -3.7264183039        1.6034626407        1.1498809263
 H         -4.3524215354        0.2903973053       -1.4986753697
 H          1.1048660170       -0.1974689219       -1.1843200629
 H          1.1305121344        3.7811949573        2.1533435187
 H         -0.3471759585        2.9083916897        2.2243697784
 H         -0.2513369241       -5.5353772632       -0.3233851027
 H          0.2116931155       -2.4838416002        1.4113793162
 H          4.1846828984        2.8743464222       -1.2811891751
 H          4.7728599136        4.3842957706       -0.6062627501
  37
        -73.91948547
 P          0.8335281941       -2.5102490151       -0.3555515294
 O         -1.9949114469       -0.1093147778        1.6202276820
 O         -2.6705216484        2.0268382285       -1.0588580349
 O         -4.4314019242        0.2331834756       -0.1801851225
 O         -0.5690417963       -1.6999137116       -0.4464042344
 O          1.8866812763       -1.4768826544       -0.8939782124
 O          0.7571568311       -3.5870246732       -1.4976617158
 O          1.0573446943       -3.0985685367        0.9707766876
 O          2.9302291237        3.3386253408       -1.0115341041
 N         -0.1156175037        1.0843891918        0.8567839124
 N          2.0144686071        0.5161280944        1.0694096146
 N          0.0721694593        3.1245862042       -0.4211560344
 N          4.2724971499        1.8133012926       -0.0057410460
 C         -2.1217553351        0.8460824839       -0.5653823971
 C         -3.1543196195       -0.2927734771       -0.4132945021
 C         -1.5594261576        0.9964512249        0.8793523803
 C         -2.5943358229       -1.0884026139        0.7711436169
 C         -1.6291000308       -2.2027371097        0.3574563191
 C          0.5987180113        2.0250822167        0.1615653843
 C          0.7902342757        0.2094178243        1.3842249359
 C          1.9331592877        1.6618404617        0.3024312249
 C          3.0711431250        2.3422566855       -0.2854981018
 H         -1.3102383930        0.5260068287       -1.2280782908
 H         -3.2294915425       -0.8930637374       -1.3199838889
 H         -1.9446405171        1.9123736831        1.3533826120
 H         -3.3908457699       -1.5555071281        1.3580493916
 H         -2.1788824520       -2.9605134944       -0.2071539902
 H         -1.2000203769       -2.6659876056        1.2505958239
 H         -3.6433831553        1.9639470638       -1.0004798836
 H         -4.5135762783        0.5239634855        0.7409462259
 H          0.5039843584       -0.6198974727        1.9974122332
 H          0.7492109967        3.6309352556       -0.9777354818
 H         -0.8746519274        3.0875951044       -0.7702395510
 H          2.2051690100       -0.8721745910       -0.1964296213
 H          0.7850879550       -3.2473540629       -2.4016261414
 H          4.3255710329        1.0276444415        0.6189577509
 H          5.1044017222        2.2470973089       -0.3673465517
  37
        -73.91945755
 P          0.7199184862       -2.3190383473       -0.0701078109
 O         -1.9009862290       -0.0008272899        1.5766832729
 O         -2.6202257429        1.7376821045       -1.3919152376
 O         -4.3980293492        0.2684664596       -0.1626650848
 O         -0.8448698298       -2.0611052269       -0.3517677754
 O          1.4028976566       -1.2180055772       -0.9460505221
 O          1.0461122503       -3.6561562590       -0.8632409731
 O          1.0522444497       -2.3659229645        1.3587171571
 O          3.1105251199        2.9743669542       -1.4483402226
 N         -0.0589579183        1.0796706128        0.6243455450
 N          2.0296084478        0.9809269491        1.3764164937
 N          0.2703558347        2.3287713423       -1.4301667356
 N          4.3345783031        2.0820754934        0.2404459917
 C         -2.1177836415        0.6292412594       -0.7167174258
 C         -3.1908652770       -0.4191338925       -0.3605953910
 C         -1.5034302048        0.9849502103        0.6642080835
 C         -2.6391811933       -1.0374930663        0.9344009439
 C         -1.7867823465       -2.2869324282        0.6850842533
 C          0.7051573945        1.7655610645       -0.2819367858
 C          0.8038404845        0.6401671218        1.6009523193
 C          2.0109797798        1.6902949895        0.1936599894
 C          3.1778964520        2.2947095960       -0.4089049258
 H         -1.3435780903        0.1749899735       -1.3397684415
 H         -3.2802997356       -1.1683222730       -1.1519172336
 H         -1.9027255219        1.9540078694        1.0120260098
 H         -3.4392085477       -1.3052873789        1.6314794584
 H         -2.4308800719       -3.1158654444        0.3820848249
 H         -1.2544431593       -2.5369251049        1.6068129782
 H         -3.5469495667        1.8680554698       -1.1204958231
 H         -5.1383685287       -0.3514264862       -0.1075612970
 H          0.4609391366        0.0811944190        2.4457162099
 H          0.9707866434        2.9044567662       -1.8775057628
 H         -0.7025638737        2.5683802838       -1.5416627980
 H          1.5462476235       -1.4890662627       -1.8619344651
 H          1.1985858220       -4.4306313923       -0.3119140318
 H          4.3117104328        1.5224394707        1.0754076269
 H          5.1904250223        2.4758055189       -0.1098719686
  37
        -73.91945504
 P         -0.5368171223       -3.7250684340       -0.7814565265
 O         -1.3586015889        0.2665287861        1.6347825966
 O         -1.8289185306        1.4697849588       -1.6365942241
 O         -3.4034373643       -0.3024007190       -0.5132468230
 O         -0.6945054270       -3.2212299381        0.7272996838
 O         -2.0554352872       -3.8918858253       -1.2198527543
 O          0.0378982449       -5.1790437271       -0.6324451195
 O          0.2728096404       -2.8522254023       -1.6421111835
 O          2.9818371888        4.5859145885       -0.7420149441
 N          0.3176337567        1.7183454943        0.8641899983
 N          2.3858203357        1.9210913707        1.6383425219
 N          0.2341599307        3.5189774725       -0.7403382414
 N          4.3815221275        3.7049202167        0.8106660617
 C         -1.2265414801        0.6085559334       -0.7270433974
 C         -2.0503304359       -0.6576979625       -0.4218421523
 C         -1.0351068959        1.2410046125        0.6822191823
 C         -1.6146051700       -0.9877159106        1.0118712748
 C         -0.3714589814       -1.8861285440        1.0584991859
 C          0.8880815120        2.7439815567        0.1598730815
 C          1.2736799859        1.2657637468        1.7366891938
 C          2.1833653875        2.8627085241        0.6518366846
 C          3.1974369048        3.7865722969        0.1839710619
 H         -0.2487349712        0.3281113611       -1.1343671176
 H         -1.7984335640       -1.4653040603       -1.1126610175
 H         -1.7147709189        2.0979103185        0.8072327148
 H         -2.4171096704       -1.4619788701        1.5845900838
 H          0.0174381760       -1.9047693240        2.0789360133
 H          0.3967836456       -1.5121013049        0.3755021899
 H         -2.7954613807        1.3762554950       -1.5508728207
 H         -3.9627191966       -1.0907657098       -0.5082050469
 H          1.0820608786        0.4674373377        2.4216288606
 H          0.8633028532        4.1336455867       -1.2416257998
 H         -0.5021501190        3.0901211713       -1.2844647957
 H         -2.1998911170       -4.2830063770       -2.0894566734
 H         -0.3798885554       -5.7374166628        0.0370288129
 H          4.4866922022        3.0288243038        1.5476062767
 H          5.1376422861        4.3085730059        0.5378521172
  37
        -73.91945247
 P          0.2409628840       -2.4034930522       -0.7530947138
 O         -2.0854929469        0.3263044467        1.6050995202
 O         -2.3617260993        1.5825420109       -1.5372795112
 O         -4.1258288182       -0.2382904004       -0.6748693240
 O         -0.2031447961       -1.6650543007        0.5906862192
 O          1.2784877519       -3.5147416745       -0.3254093842
 O          1.0679375202       -1.2338985648       -1.4166107585
 O         -0.8603022202       -2.9655504935       -1.5468965727
 O          3.4295135410        2.9010441050       -0.8619445563
 N         -0.0531636045        1.2413394679        0.8644128957
 N          1.9233255727        1.0274885982        1.8493813922
 N          0.5688084633        2.4063652554       -1.1607733951
 N          4.4140042874        1.9629058590        0.9542587922
 C         -1.8118021391        0.5642393741       -0.7511598642
 C         -2.7933593621       -0.5944046558       -0.4479494480
 C         -1.4796587652        1.1436225107        0.6444582947
 C         -2.4905531861       -0.9124550531        1.0263207297
 C         -1.4371664331       -2.0123370450        1.2024477435
 C          0.8498599697        1.8500088429        0.0379062059
 C          0.6591985686        0.7683174212        1.9373784248
 C          2.0862999738        1.7083727706        0.6608652629
 C          3.3465046713        2.2367723299        0.1856204360
 H         -0.9000258065        0.1587696241       -1.2051870819
 H         -2.6025073282       -1.4590321325       -1.0857050805
 H         -1.9140944248        2.1531535666        0.7344970568
 H         -3.3947314889       -1.2230737177        1.5580479190
 H         -1.8212568499       -2.9393163930        0.7697436266
 H         -1.2298507873       -2.1467109404        2.2664792051
 H         -2.7602242576        1.2002005460       -2.3333922203
 H         -4.3499928538        0.5569480066       -0.1671666038
 H          0.1838657070        0.2589876271        2.7486652883
 H          1.3351245538        2.9426236374       -1.5437099127
 H         -0.3751940192        2.6879426022       -1.3708796377
 H          2.0062568702       -3.2301814029        0.2422927776
 H          1.4747987298       -1.4544040359       -2.2626987495
 H          4.2663355111        1.4588494873        1.8116532333
 H          5.3159153709        2.3350592795        0.7120576643
  37
        -73.91944578
 P          0.6201257905       -2.6667568766        0.5924980768
 O         -1.4150458758       -0.1947417624        1.0327269018
 O         -3.3964466672        2.0700930844       -0.4664684500
 O         -4.0238505663       -0.3380117308       -1.3829403706
 O         -0.6127580167       -2.3512387347       -0.3785244702
 O          1.1955047919       -1.2867872547        1.0851586957
 O          1.7121233055       -3.1285796607       -0.4435901779
 O          0.2862265828       -3.6130475681        1.6734745869
 O          3.4527928209        1.3235639499       -1.6697504567
 N         -0.1494954190        1.6941354584        0.5223477240
 N          1.5928018408        3.0047792334        0.9451139705
 N          0.6832848546        0.4142469820       -1.3648619257
 N          4.1071001647        2.9977091337       -0.2867797739
 C         -2.2791977208        1.2496059544       -0.6815061119
 C         -2.7005335863       -0.2180371582       -0.9686082763
 C         -1.4739710245        1.1613471478        0.6362789369
 C         -2.4182947042       -0.9417591988        0.3684605123
 C         -1.9182194003       -2.3701544361        0.1779962163
 C          0.8317013659        1.3272331351       -0.3627243219
 C          0.3830102419        2.7027602335        1.2872761785
 C          1.9102105210        2.1583253879       -0.0947492092
 C          3.2052181231        2.1217039741       -0.7521403976
 H         -1.6405340162        1.6411818326       -1.4769060897
 H         -2.0819398528       -0.6471241673       -1.7599203641
 H         -1.9994561714        1.7509302484        1.4036251703
 H         -3.3360325763       -0.9580349545        0.9743203711
 H         -2.5679481767       -2.8936121020       -0.5258650232
 H         -1.8846367110       -2.8997499932        1.1326337329
 H         -3.7089597135        2.4310989712       -1.3089968412
 H         -4.5743228302        0.2545760727       -0.8407393781
 H         -0.1712457420        3.1785140287        2.0696612358
 H          1.5795725950        0.2403926441       -1.8110654149
 H          0.1995575261       -0.4358644152       -1.1070328664
 H          1.6103450683       -1.3684064468        1.9495749231
 H          1.6433095929       -4.0386692816       -0.7518540768
 H          3.8352646327        3.6126476278        0.4613233938
 H          5.0303751244        3.0280744921       -0.6837590675
  37
        -73.91942577
 P         -1.7657790495       -3.9879255103       -0.5665903900
 O          0.2030777067       -0.0961731951        0.7349186327
 O         -2.1301723401        1.6957659210       -1.3249251359
 O         -2.9460879409       -0.4634056548       -0.0421308748
 O         -0.3228049787       -3.5772333615       -0.0339226231
 O         -1.8173907507       -5.5017890662       -0.1777273087
 O         -1.5922157480       -3.8856299743       -2.1435754358
 O         -2.9188729467       -3.2379141563       -0.0409420480
 O          4.1325063037        3.5646041650        2.0419664272
 N          0.6185502034        2.1219299076        0.1819530733
 N          1.7406261958        3.8390274480       -0.6657878916
 N          1.8506841307        1.7194571245        2.2163618403
 N          4.0883102568        5.0246822113        0.3058988342
 C         -1.1494159749        0.7865087241       -0.9608690244
 C         -1.6856038153       -0.6218183253       -0.6313842170
 C         -0.3975602651        1.1243821824        0.3462949171
 C         -0.6346698657       -1.1827167502        0.3489074010
 C          0.2385260603       -2.2943603245       -0.2333618700
 C          1.6582761975        2.3611857161        1.0410471857
 C          0.7249807950        3.0547008406       -0.8242534906
 C          2.3604011621        3.4297324767        0.4958325980
 C          3.5846029468        4.0041181012        1.0171905431
 H         -0.4198061009        0.7329614307       -1.7755728955
 H         -1.7551988387       -1.2449073551       -1.5297851388
 H         -1.1205135139        1.4511903338        1.1149341639
 H         -1.1447026303       -1.5741232399        1.2403179532
 H          1.1922249403       -2.3066102419        0.2990960652
 H          0.4148539136       -2.1261385925       -1.2988487615
 H         -2.9494261718        1.4653674104       -0.8519442118
 H         -3.3297120095       -1.3492156827        0.0866918653
 H          0.0130025522        3.1225984470       -1.6198043381
 H          2.7573139611        1.9121443891        2.6224287996
 H          1.4989694796        0.7766843745        2.2797159506
 H         -1.0357044386       -6.0311496368       -0.3838482680
 H         -2.3678226697       -4.1090698309       -2.6713155648
 H          3.5910767992        5.3256975110       -0.5147255668
 H          4.9380767021        5.4733531214        0.6010834290
  37
        -73.91942211
 P          0.9815309531       -2.0702416773       -0.7116548247
 O         -1.7608808374       -0.2379635317        1.2935959348
 O         -3.8816427580        1.8879660861        0.4500117675
 O         -4.4269532178       -0.3375350750       -0.8214833561
 O         -0.5031705458       -1.5327127736       -0.9960623788
 O          1.3689043924       -1.4382617857        0.6979482118
 O          1.8199766128       -1.3357831450       -1.8034665277
 O          1.1043774129       -3.5356810439       -0.7237932746
 O          3.6499611453        1.6773885739        1.7119318868
 N         -0.3126289956        1.3173390368        0.2961738463
 N          1.4076108685        1.2721122441       -1.1056365216
 N          0.8185898614        1.7025165148        2.3942027975
 N          4.1579720780        1.4960803709       -0.4884299029
 C         -2.7623565443        1.3324127680       -0.1743519382
 C         -3.0536950991       -0.0931314856       -0.7192033138
 C         -1.6295392542        1.0924206202        0.8422003817
 C         -2.4608267111       -1.0355029240        0.3500702763
 C         -1.5702212478       -2.1224446926       -0.2589845683
 C          0.8173939029        1.4794626256        1.0593914134
 C          0.1161580129        1.1823281013       -0.9956267664
 C          1.8848460805        1.4730703350        0.1729419260
 C          3.2883950221        1.5620949226        0.5306324170
 H         -2.4383330113        2.0278782451       -0.9544871042
 H         -2.5370478993       -0.2545866169       -1.6695123175
 H         -1.7532037068        1.7498213218        1.7108608444
 H         -3.2794174981       -1.5341261498        0.8837077273
 H         -2.1635535273       -2.7332085544       -0.9437129231
 H         -1.1670422888       -2.7592001308        0.5297587964
 H         -4.5779974376        1.2061849264        0.5018716829
 H         -4.7729310688       -0.0015247194       -1.6614118787
 H         -0.5425950087        1.0312105839       -1.8240156554
 H          1.7583333333        1.6934972637        2.7745533955
 H          0.1161003110        1.2297491377        2.9414476045
 H          1.8252413591       -2.0714543897        1.2616558059
 H          1.7666017011       -0.3489407134       -1.7670567869
 H          3.8113294373        1.4028868466       -1.4271240827
 H          5.1455271305        1.5338859598       -0.3025610259
  37
        -73.91941915
 P         -0.7795651323       -4.1228551627       -0.6782131373
 O         -0.6809075019       -0.2604616057        1.4662026181
 O         -2.4201342935        2.0692551394       -0.4619476070
 O         -3.3860464982       -0.3562588285        0.0677262304
 O         -0.3638133008       -2.6793181404       -1.2857457497
 O         -0.5603444159       -5.0750648005       -1.9098332424
 O         -2.3403871597       -4.1055689656       -0.5182027595
 O         -0.0590947226       -4.4287731869        0.5648847159
 O          2.5233091366        5.2266844134       -0.2161868367
 N          0.6188112912        1.6054442386        0.8548204914
 N          2.8295740041        1.7676874085        0.8148433983
 N         -0.0299713544        3.8718989593        0.3406752940
 N          4.3944097213        3.9963398277        0.1477707367
 C         -1.4681126420        1.0587884688       -0.3663784339
 C         -2.0742805058       -0.3653887291       -0.4196646553
 C         -0.7137435588        1.0619950488        0.9968661604
 C         -1.0940493131       -1.1611027580        0.4455316224
 C          0.0855574668       -1.7094675444       -0.3655643114
 C          0.8985996413        2.8998196502        0.5063739143
 C          1.8267217104        0.9778773464        1.0288769470
 C          2.2861964705        2.9897406386        0.4806054328
 C          3.0626521690        4.1586037143        0.1169104703
 H         -0.7415892613        1.1953556670       -1.1757871430
 H         -2.1226517553       -0.7479647394       -1.4400788506
 H         -1.2487898204        1.6821122583        1.7318989469
 H         -1.5715218046       -2.0132166855        0.9417161180
 H          0.7973425108       -2.1640205024        0.3296570033
 H          0.5768030369       -0.9289597065       -0.9495523216
 H         -3.3029435380        1.6789747449       -0.3132753042
 H         -3.3862019907       -0.3636266341        1.0366720269
 H          1.8952324760       -0.0473908944        1.3255297959
 H          0.3659639440        4.7235027066       -0.0364237496
 H         -0.9467039015        3.6102030786        0.0078555232
 H          0.3518463324       -5.3184300521       -2.1019796326
 H         -2.8458889019       -4.2574039893       -1.3271353653
 H          4.7620507673        3.1043765723        0.4315269432
 H          5.0001101200        4.7628290468       -0.0893111509
  37
        -73.91939906
 P          0.5089199890       -2.1603126215       -1.0417883155
 O         -1.7801947851        0.3598845021        1.5100464004
 O         -3.7678560175        1.7149136015       -0.3042996697
 O         -3.9300021207       -0.8596072729       -0.8532459794
 O          0.0351429845       -1.5818834302        0.3665543302
 O          0.3160896304       -3.7282905302       -0.8493134140
 O          2.0441168407       -1.8703660740       -1.0145319937
 O         -0.1693393183       -1.6393567610       -2.2395883031
 O          3.5708615359        2.0027403715        2.0879356024
 N         -0.1644439910        1.4206001108        0.1777379435
 N          1.7366274960        1.3487460810       -0.9668231163
 N          0.6337249702        1.9746938589        2.3809114295
 N          4.3502055543        1.7168228502       -0.0233772033
 C         -2.5300799985        1.1239081869       -0.5802805356
 C         -2.6254806067       -0.4231895473       -0.5843436161
 C         -1.5547410329        1.3881501558        0.5744181349
 C         -2.2470999440       -0.8152840737        0.8579024446
 C         -1.2136476297       -1.9413667813        0.9478051691
 C          0.8410689622        1.6645140692        1.0777019450
 C          0.4520212043        1.2185006330       -1.0351158534
 C          2.0232073036        1.6263617510        0.3528436829
 C          3.3620477107        1.8028643982        0.8800642198
 H         -2.1519869752        1.5260238702       -1.5254312923
 H         -1.9017486685       -0.8350801692       -1.2890557408
 H         -1.7932626519        2.3344001198        1.0769656296
 H         -3.1490957352       -1.1473118609        1.3871190667
 H         -1.6118495005       -2.8390484533        0.4728775336
 H         -1.0021127979       -2.1397190030        2.0011522114
 H         -4.4425196091        1.0083513869       -0.2868678602
 H         -4.0593782983       -0.9720851874       -1.8057632301
 H         -0.0744583560        0.9877264508       -1.9364023513
 H          1.4945179684        1.9890874643        2.9135367645
 H         -0.1689348272        1.5536988294        2.8238135172
 H          0.2168742458       -4.2218226263       -1.6712947498
 H          2.5400696390       -2.3375571766       -0.3298754150
 H          4.1032260219        1.5375423200       -0.9816691997
 H          5.3077513110        1.8211998929        0.2649781748
  37
        -73.91939649
 P          0.1381637483       -2.3360277705       -1.2113647894
 O         -1.6642355128        0.4393241012        1.5918870582
 O         -2.9583784870        1.3213874062       -1.5005727903
 O         -4.1541363663       -0.3882202856        0.0652372246
 O          0.0582106928       -1.4523869264        0.1184999673
 O          1.4781607787       -3.1633598479       -1.1112577145
 O          0.3824247717       -1.1940254706       -2.2733332251
 O         -1.0248325063       -3.2056247342       -1.4350168750
 O          3.6626740929        1.6894025237        2.2233630659
 N         -0.0758360214        1.5425311108        0.2469207574
 N          1.7862580116        2.0561325771       -0.8544027069
 N          0.7748638017        1.4129106277        2.5095430585
 N          4.4002777845        2.2127219611        0.1424115734
 C         -2.1060838621        0.5185323941       -0.7519501480
 C         -2.8001790891       -0.7102618721       -0.1205430252
 C         -1.4803230587        1.2562993663        0.4662411384
 C         -2.0554770959       -0.8748367342        1.2130250696
 C         -0.8632686135       -1.8346261502        1.1305741658
 C          0.9281939195        1.5530849147        1.1762870317
 C          0.5114868238        1.8643153436       -0.9553185569
 C          2.0921011903        1.8600173182        0.4752680367
 C          3.4287004018        1.9201465311        1.0237734238
 H         -1.3064228960        0.1787562923       -1.4125805117
 H         -2.6776563977       -1.5921060612       -0.7542377907
 H         -2.0096493592        2.2041509518        0.6489494426
 H         -2.7236363718       -1.2266139226        2.0047563416
 H         -1.2329610526       -2.8428808856        0.9276635937
 H         -0.3157846911       -1.8159493220        2.0754086645
 H         -3.8573886862        1.2344254308       -1.1339136096
 H         -4.6840764178       -1.1903975595        0.1639168259
 H         -0.0515523151        1.9722780792       -1.8586561053
 H          1.6471172296        1.2923101872        3.0057575557
 H         -0.0579805342        0.9561499230        2.8441977223
 H          2.2819535574       -2.6715153073       -0.9011724633
 H          0.5003161568       -1.4948522966       -3.1824606774
 H          4.1356143298        2.4205902110       -0.8051218644
 H          5.3509796013        2.3056354374        0.4553563541
  37
        -73.91939183
 P         -0.2743292883       -3.3014127455       -0.3325599765
 O         -1.3044187618        0.4657914504        1.3205577583
 O         -3.0572907767        1.6077178530       -1.2343592572
 O         -2.8678211473       -1.0110201333       -1.5389927876
 O         -0.3687285701       -2.3381305442        0.9438776192
 O          0.3471519395       -4.6452296813        0.2046603567
 O          0.8591811832       -2.5702323919       -1.1507854722
 O         -1.5529772147       -3.5166957552       -1.0283264829
 O          4.0836890036        1.5248669475        0.2249141842
 N         -0.0775376073        2.2380178248        0.4468860003
 N          1.3728675945        3.9208056893        0.4146761990
 N          1.4184375332        0.3492676986        0.1812685734
 N          4.1734646111        3.7901084396        0.2965296193
 C         -1.8009757795        1.0701028122       -0.9402696889
 C         -1.8475905667       -0.4607292768       -0.7618007523
 C         -1.3503044104        1.5804982724        0.4536460976
 C         -2.0708939434       -0.5894818099        0.7574404927
 C         -1.6528434659       -1.9181051296        1.3758171965
 C          1.1647726783        1.6707827607        0.3335908878
 C          0.1237494069        3.5978895662        0.4916314710
 C          2.0634732989        2.7322231444        0.3166019194
 C          3.5089206376        2.6252640494        0.2703465859
 H         -1.0731016380        1.3628095243       -1.7093558049
 H         -0.8691394370       -0.8743680694       -1.0251333114
 H         -2.0988468873        2.3073377627        0.8044010317
 H         -3.1376507405       -0.4248663832        0.9708833320
 H         -2.3949795482       -2.6756937790        1.1164827500
 H         -1.5864222281       -1.8000056669        2.4586305577
 H         -3.5371970868        0.9657490170       -1.7858886693
 H         -2.7248181878       -1.9709391822       -1.6030530604
 H         -0.6885033362        4.2895862674        0.5760697018
 H          2.4075637943        0.1417803930        0.2560207978
 H          0.7892290784       -0.3025124452        0.6259612421
 H          1.1419785185       -4.5644314810        0.7479992918
 H          1.1472476957       -2.9872406513       -1.9703166807
 H          3.6431797731        4.6432673263        0.3431036110
 H          5.1786753263        3.7964066303        0.2793395811
  37
        -73.91938842
 P          0.1715872558       -2.5474486338       -0.7777399061
 O         -2.0406056555        0.3417634849        1.6272624523
 O         -2.4251988254        1.6505987149       -1.4513183594
 O         -4.0455098640       -0.3247693954       -0.7246436779
 O         -0.1779782607       -1.7210773014        0.5435150705
 O          1.4360229333       -3.4206049285       -0.4244157958
 O          0.6769303860       -1.3691336969       -1.7045640573
 O         -0.9298975083       -3.3620352503       -1.3077911795
 O          3.4160797752        3.0601024552       -0.8177126156
 N         -0.0181814325        1.2753815770        0.8819164498
 N          1.9734912923        1.0547355531        1.8329756063
 N          0.5585368882        2.5245927935       -1.1071460345
 N          4.4373261509        2.0683971046        0.9491079619
 C         -1.7910179788        0.6341648027       -0.7269801044
 C         -2.7020806020       -0.5892564402       -0.4471978180
 C         -1.4479975893        1.1797283473        0.6786407932
 C         -2.4312453695       -0.8954878558        1.0368118948
 C         -1.3869762519       -1.9988899162        1.2342864055
 C          0.8647489347        1.9321577473        0.0700996682
 C          0.7144130189        0.7719796626        1.9261535841
 C          2.1108743735        1.7848970179        0.6708785923
 C          3.3574029310        2.3538462072        0.2032276883
 H         -0.8725011852        0.3059709721       -1.2249823895
 H         -2.4322417923       -1.4434637277       -1.0716407152
 H         -1.8829597656        2.1857545194        0.7980302039
 H         -3.3464073653       -1.2065107254        1.5495755391
 H         -1.8050899728       -2.9426043882        0.8748264244
 H         -1.1343871315       -2.0744360546        2.2940911108
 H         -2.7991493425        1.2841571575       -2.2668245160
 H         -4.3309008573        0.4728759787       -0.2518235563
 H          0.2584720261        0.2243628939        2.7233621078
 H          1.3126009113        3.0907937977       -1.4727728184
 H         -0.3878069671        2.8286368958       -1.2722909787
 H          2.1671168219       -2.9770696934        0.0235410240
 H          0.9848770633       -1.6361990077       -2.5786955181
 H          4.3086880323        1.5274762590        1.7869661514
 H          5.3304656466        2.4639323258        0.7113580913
  37
        -73.91936740
 P          0.0631969232       -2.7101380110       -0.7865735591
 O         -1.9798481920        0.3847347805        1.6386145193
 O         -2.3808818390        1.6158671420       -1.4699533242
 O         -3.9823949811       -0.3561913557       -0.6925895819
 O         -0.1465049876       -1.7641592752        0.4856027426
 O          1.4686843042       -3.3888417335       -0.5787363524
 O          0.2523064426       -1.6326464849       -1.9338076939
 O         -1.0073815952       -3.6915745264       -1.0037204292
 O          3.4205175791        3.2084534288       -0.8083595034
 N          0.0293060860        1.3260405183        0.8730145358
 N          2.0160612591        1.1863291029        1.8496135458
 N          0.5858981153        2.5613999421       -1.1294448186
 N          4.4521723456        2.2794639597        0.9864854878
 C         -1.7360778100        0.6234202925       -0.7221761916
 C         -2.6368356677       -0.6011293867       -0.4112468286
 C         -1.3988246641        1.2064722568        0.6695418966
 C         -2.3570616706       -0.8702035586        1.0779031372
 C         -1.2993795573       -1.9574824738        1.2925109116
 C          0.8989769181        2.0029457802        0.0630903771
 C          0.7661390735        0.8622876689        1.9326987358
 C          2.1420744840        1.9066099098        0.6802239287
 C          3.3739829501        2.5144863335        0.2213754017
 H         -0.8151116002        0.2918911373       -1.2133772748
 H         -2.3618593024       -1.4698522640       -1.0135295550
 H         -1.8459242236        2.2098130895        0.7643700283
 H         -3.2652605378       -1.1789562036        1.6037467778
 H         -1.7429450409       -2.9281267845        1.0557037802
 H         -0.9654392292       -1.9385504111        2.3319151259
 H         -2.7329054481        1.2304022695       -2.2863595233
 H         -4.2710798581        0.4568649196       -0.2489791546
 H          0.3204620586        0.3105995814        2.7328422037
 H          1.3234562524        3.1495322559       -1.4946614559
 H         -0.3678008373        2.8371274098       -1.3039637995
 H          2.2129042858       -2.8149507121       -0.3589403108
 H          0.3811782134       -1.9961672373       -2.8181701164
 H          4.3320412702        1.7422466482        1.8280354274
 H          5.3343290265        2.7024959485        0.7551716606
  37
        -73.91935958
 P         -1.0831695123       -4.0901701265       -0.6957413009
 O         -0.4833655043       -0.3081083109        1.4488425284
 O         -2.2180115742        1.9668187584       -0.6051876590
 O         -3.1991617730       -0.3619988771        0.0932158439
 O         -0.2644962724       -2.8068051494       -1.2416237393
 O         -0.8617304789       -5.1409842996       -1.8427952161
 O         -2.6041625329       -3.7176117195       -0.8565952476
 O         -0.6954188291       -4.4725940455        0.6688847780
 O          2.5263261890        5.3020092181       -0.1596851146
 N          0.7329516232        1.6048769832        0.8472323512
 N          2.9359873207        1.8555084283        0.8781588547
 N          0.0095039137        3.8417016620        0.3046371304
 N          4.4299925832        4.1526193903        0.2878904924
 C         -1.2929056021        0.9457707278       -0.4223297488
 C         -1.9034699844       -0.4693236387       -0.4311932256
 C         -0.5771403609        1.0023382888        0.9596585234
 C         -0.9461627901       -1.2425075694        0.4839521005
 C          0.2139892203       -1.8834764341       -0.2866842973
 C          0.9713473975        2.9096130959        0.5078956644
 C          1.9587797554        1.0257103533        1.0576607580
 C          2.3544114065        3.0559064701        0.5287233072
 C          3.0948950876        4.2570563334        0.1973742502
 H         -0.5423684170        1.0405079679       -1.2147292928
 H         -1.9191578008       -0.8973387609       -1.4389284242
 H         -1.1659143636        1.6045631420        1.6681412415
 H         -1.4615679882       -2.0391293991        1.0319942319
 H          0.8595528100       -2.3932679700        0.4336410111
 H          0.7874140970       -1.1384723488       -0.8417979202
 H         -3.0761627587        1.6764977192       -0.2473548556
 H         -3.6206817331       -1.2313370729        0.1248631727
 H          2.0571063992        0.0021450221        1.3522036678
 H          0.3833456069        4.7078069719       -0.0619453860
 H         -0.8776844115        3.5359544535       -0.0705326683
 H         -0.0121743426       -5.5959101724       -1.8453887683
 H         -2.9850540653       -3.9705887693       -1.7079462235
 H          4.8222204050        3.2770811872        0.5889249599
 H          5.0114995605        4.9453743080        0.0783247200
  37
        -73.91934472
 P         -0.2466181805       -3.2182254430        1.0584716550
 O         -0.5688327961       -0.4903698346        0.0557264444
 O         -2.9603319616        1.9682859925        0.3282933190
 O         -3.8993009322       -0.0455785449       -1.1422404544
 O         -1.1870099518       -3.4009043316       -0.2175020044
 O          1.1484472880       -2.7856161439        0.4318399972
 O         -0.0929167920       -4.7242731252        1.4885532993
 O         -0.7315669767       -2.3917821406        2.1719943177
 O          3.5673642443        2.6201827012       -2.0842342490
 N          0.3287914659        1.6223929523        0.4398648751
 N          1.8608599879        3.0960369322        1.0756666593
 N          1.0511314731        1.1286317383       -1.8107270508
 N          4.1107890865        3.9818570685       -0.3526858000
 C         -1.9813944812        1.3512857669       -0.4581339769
 C         -2.5135616466        0.0561308840       -1.1448205227
 C         -0.8560383857        0.8281181539        0.4758502757
 C         -1.8067419574       -1.0552545547       -0.3359397325
 C         -1.5475233224       -2.3427685977       -1.0891930094
 C          1.2008845043        1.7465447628       -0.6098424634
 C          0.7893418386        2.4621646933        1.4248565264
 C          2.1543319344        2.6691700347       -0.2016907834
 C          3.3218062528        3.0840310259       -0.9593652127
 H         -1.5565905239        2.0443280164       -1.1908424328
 H         -2.2008770779        0.0159179371       -2.1907890862
 H         -1.2399476132        0.8264183174        1.5084193723
 H         -2.3977691917       -1.2881845774        0.5628528238
 H         -0.7421839152       -2.1889247204       -1.8126803423
 H         -2.4598646469       -2.6680648738       -1.5938652968
 H         -3.5292584066        2.5231501139       -0.2264631083
 H         -4.2333166238        0.1861231635       -0.2589845503
 H          0.2896760018        2.5636493666        2.3658054050
 H          1.8815136371        1.2197935107       -2.3850533387
 H          0.6356700397        0.2090388309       -1.7723225870
 H          1.7697486147       -2.4262546273        1.0717463394
 H          0.1536582859       -5.3442780882        0.7904269521
 H          3.8521638151        4.3045589985        0.5641329202
 H          4.9467406117        4.3063618846       -0.8076809008
  37
        -73.91934239
 P          0.1212488051       -2.6463867200       -0.7759005530
 O         -2.0193853459        0.3905464558        1.6419961363
 O         -2.4629872477        1.6454882009       -1.4271950772
 O         -3.9931206434       -0.3984901308       -0.7141248270
 O         -0.1486464132       -1.7078457711        0.4976903012
 O          1.6184902323       -3.1152607611       -0.6263837837
 O          0.2077882936       -1.6322288968       -1.9733790506
 O         -0.8868400244       -3.7117406883       -0.9096823979
 O          3.4082798687        3.1504391344       -0.8179801394
 N          0.0021117692        1.3128997461        0.8804623402
 N          2.0042255033        1.0867030694        1.8083562699
 N          0.5501949846        2.5976892309       -1.0934131824
 N          4.4508918420        2.1445170644        0.9280153561
 C         -1.7785509627        0.6538393064       -0.7153050059
 C         -2.6439046490       -0.6002487262       -0.4176621029
 C         -1.4289328047        1.2155140266        0.6828009676
 C         -2.3750927268       -0.8677136133        1.0746185581
 C         -1.3013680267       -1.9377219277        1.2912273971
 C          0.8737500063        1.9916476706        0.0745153177
 C          0.7479261698        0.7945979344        1.9079130097
 C          2.1259781526        1.8405865269        0.6602098974
 C          3.3646903374        2.4276191306        0.1919620035
 H         -0.8613336086        0.3548282168       -1.2334674125
 H         -2.3293073985       -1.4547823025       -1.0226968046
 H         -1.8630321709        2.2226576867        0.7921969673
 H         -3.2836636788       -1.1898786751        1.5914543289
 H         -1.7237825341       -2.9129522675        1.0340655846
 H         -0.9806672763       -1.9260647708        2.3349810283
 H         -2.7902660211        1.2783061202       -2.2620948284
 H         -4.3060054670        0.4146128462       -0.2864634376
 H          0.3040374910        0.2335362252        2.7022774656
 H          1.2964998138        3.1791606104       -1.4521852024
 H         -0.3968423594        2.9148043568       -1.2287011735
 H          1.7748976562       -3.8692221489       -0.0470495388
 H          1.0406936332       -1.6454681549       -2.4600968268
 H          4.3370728047        1.5709522572        1.7460654741
 H          5.3426892650        2.5368962903        0.6804167231
  37
        -73.91933537
 P         -0.3163062415       -3.4447665017       -0.6958175642
 O         -1.6491003532        0.4241699431        1.6072958567
 O         -1.9511649263        1.4388177105       -1.6669982576
 O         -3.5898595979       -0.4494003448       -0.6146884068
 O         -0.8343408344       -3.0678304463        0.7879450364
 O         -1.6081362425       -3.8837725998       -1.4846017320
 O          0.5416967092       -4.7452043766       -0.4758935642
 O          0.4084670052       -2.3631972230       -1.3678475504
 O          3.1563476340        4.1367218588       -0.8996745747
 N          0.1972807042        1.6625703401        0.8269925837
 N          2.2407264068        1.7659597207        1.6829479793
 N          0.3373504210        3.3172946449       -0.9218660623
 N          4.4162105365        3.3055715521        0.7935627056
 C         -1.3581852577        0.5603422865       -0.7559802055
 C         -2.2284295925       -0.6663477876       -0.3955293663
 C         -1.1795408586        1.2820847390        0.6035144538
 C         -1.8703031738       -0.8821047055        1.0823788008
 C         -0.6229793125       -1.7581492771        1.2688468568
 C          0.8829852167        2.5709335671        0.0664456862
 C          1.0732050283        1.2168377868        1.7847444491
 C          2.1630691143        2.6253578434        0.6077651189
 C          3.2687672960        3.4162155527        0.1061324495
 H         -0.3821228224        0.2065315424       -1.1212720398
 H         -1.9632097226       -1.5278031270       -1.0080991110
 H         -1.7836162077        2.2024317749        0.6150078164
 H         -2.7079778442       -1.3134198246        1.6377093935
 H         -0.3962842270       -1.8432692191        2.3339178626
 H          0.2250203820       -1.3081917699        0.7451712688
 H         -2.2914945040        0.9456347185       -2.4286550033
 H         -3.8925471134        0.3277740102       -0.1201336811
 H          0.7834230976        0.5110094110        2.5336597082
 H          1.0306158775        3.8267305322       -1.4541444536
 H         -0.4534429698        2.9445182918       -1.4271215255
 H         -2.1678882230       -4.5725954527       -1.1034227790
 H          0.2975720376       -5.3305106228        0.2535242201
 H          4.4394505850        2.6943258027        1.5914955991
 H          5.2312665718        3.8129876379        0.4955566315
  37
        -73.91930937
 P          0.3611690848       -2.1375498598       -1.0719960600
 O         -1.7996238336        0.5334811291        1.5929531707
 O         -3.3101258789        1.3981280664       -1.2795600463
 O         -4.1283904159       -0.7334875934       -0.0944939348
 O          0.1348985509       -1.2580426269        0.2379301477
 O          1.9246825366       -2.2388853854       -1.2282764976
 O         -0.0373942701       -1.1432262172       -2.2232418685
 O         -0.3683227865       -3.4199434879       -1.0373802089
 O          3.6267193303        1.2014777857        2.0190684945
 N         -0.1856509265        1.5932617277        0.2329644936
 N          1.6710554764        2.0134271671       -0.9199342547
 N          0.7517163332        1.2393116253        2.4394778952
 N          4.3281288038        1.8018061987       -0.0532836762
 C         -2.2712718555        0.6469233454       -0.7388890337
 C         -2.7291007357       -0.7292548115       -0.1833557557
 C         -1.5982274679        1.3514075726        0.4749455719
 C         -2.0659878412       -0.8079614965        1.2036879983
 C         -0.8075056410       -1.6808036620        1.2118070323
 C          0.8544362364        1.4435843984        1.1092742478
 C          0.3807595784        1.9483744291       -0.9707620849
 C          2.0120522212        1.6884782335        0.3743748961
 C          3.3687864760        1.5503269108        0.8529442497
 H         -1.5301893333        0.4909291364       -1.5248721131
 H         -2.3616091508       -1.5344425971       -0.8258357816
 H         -2.0928342835        2.3132607604        0.6745786593
 H         -2.7637484843       -1.2007837219        1.9496922539
 H         -1.0865004505       -2.7195780764        1.0128737231
 H         -0.3124256415       -1.6038358624        2.1822438133
 H         -4.1491606284        1.0733285759       -0.9021189148
 H         -4.4810502224       -1.6219526765       -0.2330034316
 H         -0.2041492171        2.1822920363       -1.8357383540
 H          1.6312818681        0.9985237003        2.8760258365
 H         -0.1065173109        0.8494510883        2.7943279738
 H          2.3571295372       -2.9440636413       -0.7348887820
 H          0.2765579952       -1.3932256049       -3.1004283738
 H          4.0475462122        2.0709995154       -0.9804181020
 H          5.2968299886        1.7173112784        0.2011379420
  37
        -73.91929516
 P          0.5943679592       -2.0712580217       -1.0494820321
 O         -1.8436824312        0.5217141201        1.5717311173
 O         -3.8995487569        1.5781189374       -0.3333397025
 O         -3.8327423252       -1.0217008015       -0.6841299832
 O          0.1771250960       -1.2402180218        0.2670506841
 O          2.1560956787       -2.2215290153       -0.9117925407
 O          0.4548032961       -1.0852983051       -2.2620660008
 O         -0.1920967159       -3.3039733122       -1.1992533417
 O          3.4942032250        1.2228357222        2.0621519429
 N         -0.2795895387        1.5961099823        0.1977499791
 N          1.5894576607        1.5218784713       -1.0041770888
 N          0.6293795738        1.6174760105        2.4343203485
 N          4.2425419233        1.3015895916       -0.0760194671
 C         -2.6106620563        1.0883007168       -0.5636368413
 C         -2.5664322312       -0.4634964762       -0.4804815062
 C         -1.6751925161        1.5089967872        0.5852870935
 C         -2.1152422165       -0.7376484572        0.9681348567
 C         -0.9138018051       -1.6833395688        1.0567104538
 C          0.7587667558        1.5298422939        1.0918778132
 C          0.2956424656        1.5862477248       -1.0485806288
 C          1.9212253644        1.4819669488        0.3314587433
 C          3.2671888765        1.3321773304        0.8455521796
 H         -2.2715495227        1.4656282421       -1.5313146751
 H         -1.8262240914       -0.8632014684       -1.1809338074
 H         -1.9976585728        2.4604583597        1.0265272087
 H         -2.9397613663       -1.1903020763        1.5298699708
 H         -1.2185612896       -2.6783928740        0.7214873748
 H         -0.5650891342       -1.7228358130        2.0908171370
 H         -4.4979001305        0.8170709798       -0.2053815944
 H         -3.9666013368       -1.2451642785       -1.6159113368
 H         -0.2654469040        1.6562410283       -1.9559749732
 H          1.4883465705        1.3953139004        2.9219186852
 H         -0.2352129244        1.2855191695        2.8342480387
 H          2.4663056028       -2.9499255428       -0.3635103885
 H          1.1529377502       -0.4178723813       -2.3100897445
 H          3.9962696161        1.4041726526       -1.0448989443
 H          5.1999221925        1.1942247119        0.2116562777
  37
        -73.91928306
 P         -1.6981139500       -3.9819483550       -0.0193270456
 O         -0.1121723144        0.0101255868        0.9314054624
 O         -1.8149921052        1.7033571931       -1.7320892101
 O         -2.8514834995       -0.5191776489       -0.8187821445
 O         -0.3254597198       -3.3477840265       -0.5214773239
 O         -1.4838610489       -4.1568657760        1.5273371216
 O         -1.6111481040       -5.4318300334       -0.6100439952
 O         -2.9177321309       -3.2411199154       -0.4115901071
 O          4.5012020971        3.0441635836        0.0409271088
 N          0.3752295593        2.2435325695        0.4777984096
 N          1.1765837285        4.2961898738        0.7516229826
 N          2.3695415447        1.0501359848       -0.1945711029
 N          3.8407784571        5.1560194489        0.5406172823
 C         -0.9232686478        0.8329713817       -1.1219556374
 C         -1.4591575231       -0.6041546112       -0.9563569030
 C         -0.5956420931        1.2036404907        0.3492598183
 C         -0.7673719179       -1.1015604691        0.3315568444
 C          0.2568861540       -2.2061872128        0.0791827402
 C          1.7181621542        2.1690702473        0.2205828398
 C          0.1166305910        3.5563725461        0.7891452546
 C          2.2100901047        3.4552217798        0.4001114500
 C          3.6010471161        3.8580805699        0.3049766406
 H          0.0066540995        0.8444484518       -1.6989214100
 H         -1.1944694023       -1.2388703797       -1.8096740797
 H         -1.5164838720        1.5394360002        0.8515115000
 H         -1.5324269623       -1.4786806246        1.0245012212
 H          0.7205144139       -2.4844438365        1.0293147990
 H          1.0215153861       -1.8645718240       -0.6232442674
 H         -2.7177112679        1.3797305593       -1.5592713316
 H         -3.2027470284       -1.4266474529       -0.7398279669
 H         -0.8674811318        3.9034008630        1.0265746877
 H          3.3755418316        1.1721798582       -0.1582230968
 H          2.0112746265        0.1832307727        0.1800554981
 H         -2.2290780754       -4.5250790120        2.0161866685
 H         -1.9285539101       -5.5366943987       -1.5132878939
 H          3.0620399098        5.7555637030        0.7540994350
 H          4.7814268314        5.5091204786        0.5031917661
  37
        -73.91925665
 P          0.8219335302       -2.2941396436       -0.1164159657
 O         -2.0202843388        0.0917326913        1.6067759954
 O         -2.7635286732        1.8111640234       -1.3041320185
 O         -4.4867113555        0.1332545730       -0.1854573431
 O         -0.6915221740       -1.7896894533       -0.3061238238
 O          1.6170770430       -1.2560467850       -0.9743919835
 O          0.8827373200       -3.6368186718       -0.9682789507
 O          1.2234398231       -2.4651040881        1.2850749344
 O          3.0962918555        2.9293510047       -1.3963119559
 N         -0.1108505990        1.0665439486        0.6420195880
 N          1.9825335642        0.8474082574        1.3493907041
 N          0.2284910554        2.3880357376       -1.3619864267
 N          4.3144614028        1.8958331141        0.2144672810
 C         -2.1832320068        0.6972337835       -0.6973385871
 C         -3.2069051096       -0.4106480270       -0.3523181217
 C         -1.5581518184        1.0404218676        0.6836077996
 C         -2.6266903172       -1.0105314722        0.9342167778
 C         -1.6510232405       -2.1617554711        0.6727908258
 C          0.6661040002        1.7607925932       -0.2461268038
 C          0.7474681554        0.5450644879        1.5801350977
 C          1.9745750060        1.6102896249        0.2012982115
 C          3.1563540151        2.1929149564       -0.3964162751
 H         -1.4031284879        0.2974851881       -1.3506670564
 H         -3.2870912848       -1.1459359382       -1.1528281656
 H         -1.9041955728        2.0328154993        1.0189966973
 H         -3.4084975130       -1.3816281365        1.6032703533
 H         -2.2072574403       -3.0294910023        0.3091194643
 H         -1.1319231019       -2.4147965858        1.6019250856
 H         -3.7341325084        1.7113369916       -1.2632816662
 H         -4.5511501671        0.5809822622        0.6719145903
 H          0.3977946608       -0.0318001667        2.4102861652
 H          0.9400932951        2.9621778968       -1.7939757196
 H         -0.7321227456        2.6855405678       -1.4271094229
 H          1.6277210686       -1.4528645655       -1.9198756613
 H          1.1966080326       -4.4062802232       -0.4821100254
 H          4.2856738763        1.2812504807        1.0097082909
 H          5.1810805832        2.2595679186       -0.1420151842
  37
        -73.91922867
 P          0.2995721718       -2.8855255156        0.1088454943
 O         -1.3368080173       -0.3854104250        0.6767985658
 O         -3.8350477126        1.0957702067        0.8379480693
 O         -3.9103318863       -0.0344639005       -1.5636186510
 O          0.5425989223       -1.6091806639       -0.8205987489
 O          0.4450100352       -2.3238313755        1.5876998846
 O          1.6118275233       -3.7203064757       -0.1387810914
 O         -0.9279220318       -3.6521611631       -0.1407261932
 O          3.9360797609        1.5668305502        0.9482130864
 N         -0.2391105291        1.6634807104        0.2750437368
 N          1.1524870982        2.8666392457       -0.9697758684
 N          1.2841194653        0.6889983685        1.8699751700
 N          3.9507682414        3.0243706536       -0.7898523039
 C         -2.7097057109        1.3669308300        0.0540678205
 C         -2.6505462781        0.3982403742       -1.1605014541
 C         -1.4176071589        1.0199966178        0.8041723420
 C         -1.7427235236       -0.7492533424       -0.6364113420
 C         -0.5185604336       -0.9883825688       -1.5266134691
 C          1.0217293386        1.4338081343        0.7672467689
 C         -0.0822340855        2.5296183572       -0.7832492956
 C          1.8810626110        2.1942162956       -0.0138467876
 C          3.3276231519        2.2361436192        0.0979810930
 H         -2.7873966964        2.4138488898       -0.2357322897
 H         -2.1780527720        0.8788838227       -2.0228203726
 H         -1.4808565952        1.2362056203        1.8773562473
 H         -2.2969379801       -1.6872428997       -0.5468477656
 H         -0.0939072889       -0.0459399614       -1.8841689047
 H         -0.8136733080       -1.6067905148       -2.3774400163
 H         -3.7092463651        0.2618545471        1.3187405832
 H         -4.5444429337        0.1455007748       -0.8430555923
 H         -0.8974998203        2.8933973105       -1.3715101790
 H          2.2822805157        0.5725341019        2.0045521317
 H          0.7408802352       -0.1570683211        1.9770054210
 H         -0.0574199104       -2.8337450251        2.2316659795
 H          2.4477747989       -3.2455470851       -0.0536681000
 H          3.3936315152        3.5411726236       -1.4485718468
 H          4.9531207188        3.1024590674       -0.7763797213
  37
        -73.91922504
 P          0.1171515594       -2.8396974209        0.2361165814
 O         -1.1989661124       -0.5200804740        0.5235289997
 O         -3.5495486924        1.4666397557        1.0159981260
 O         -4.1541329452       -0.0753089864       -1.0540015705
 O         -0.1791118680       -2.4066507183       -1.2863015531
 O          1.1781490833       -1.8385191806        0.8365189155
 O          1.0287301304       -4.0963536059       -0.0734949048
 O         -1.0498689319       -3.1381028461        1.0772643362
 O          4.0383761275        2.0993518446        1.1201727283
 N         -0.0305166073        1.4917897654        0.1209397402
 N          1.3553047944        2.5260954641       -1.2736725631
 N          1.4141934622        1.0929774931        2.0097675057
 N          4.0760108409        3.1055665212       -0.9124679157
 C         -2.5235929280        1.3843352657        0.0771280412
 C         -2.8175473768        0.3272223800       -1.0277934529
 C         -1.2030625336        0.8820852666        0.6971655076
 C         -1.9483855808       -0.8793171404       -0.6274814953
 C         -0.9864543652       -1.3295738944       -1.7202281269
 C          1.1903549671        1.5349846605        0.7456865671
 C          0.1482242632        2.0931056597       -1.1036291726
 C          2.0435650398        2.1952899128       -0.1277789737
 C          3.4553720131        2.4627735483        0.0867725769
 H         -2.4098582863        2.3944155218       -0.3203728011
 H         -2.5048334365        0.7047292583       -2.0105352664
 H         -1.1765096748        1.0729958441        1.7766555745
 H         -2.5814468834       -1.7255321558       -0.3400541075
 H         -0.3261165323       -0.5004940381       -2.0012388832
 H         -1.5383003186       -1.6829633341       -2.5944417398
 H         -3.8061389268        0.5780914159        1.3085545842
 H         -4.7279654202        0.6804459160       -1.2542202108
 H         -0.6339643987        2.1975712807       -1.8256101360
 H          2.3976869352        1.1464346617        2.2504653416
 H          0.9600171916        0.2275536550        2.2655468446
 H          2.0709189524       -2.0616497823        0.5436635512
 H          0.5481775447       -4.9084552631       -0.2615224323
 H          3.5380075999        3.3753671006       -1.7182994715
 H          5.0532519796        3.3295436978       -0.8353006702
  37
        -73.91919786
 P          1.0390397575       -2.0879249316       -0.4703809633
 O         -1.8272606370       -0.2223059759        1.2537370876
 O         -4.0211273146        1.6771161020        0.6226135529
 O         -4.2393331947       -0.1925673183       -1.3034972598
 O         -0.3398946946       -1.3851315463       -0.8616841311
 O          1.2793075114       -1.6858132023        1.0359782684
 O          2.0783297422       -1.2491252251       -1.2919190789
 O          1.0584161878       -3.5462789209       -0.6987249507
 O          3.6820796954        1.1348124930        1.4367699607
 N         -0.3749558803        1.3643729017        0.2654192042
 N          1.2593746309        1.8224041662       -1.1654625438
 N          0.8626694516        1.0067612376        2.3000260563
 N          4.0278454828        1.7883925858       -0.7072477914
 C         -2.8386252875        1.4064027644       -0.0754588217
 C         -2.9525964981        0.0645555090       -0.8376971256
 C         -1.6644163797        1.1298051848        0.8673420045
 C         -2.4637313255       -0.9642984928        0.2150183932
 C         -1.5270645791       -2.0126149959       -0.3835974007
 C          0.7993590074        1.2420745731        0.9617247612
 C         -0.0193107204        1.6984389629       -1.0198642870
 C          1.8120909866        1.5374065183        0.0632583123
 C          3.2364572675        1.4691660524        0.3272380289
 H         -2.6738148309        2.2604517008       -0.7313601504
 H         -2.2720829741        0.0466160124       -1.6941988977
 H         -1.7168168939        1.7262369408        1.7876081638
 H         -3.3177851029       -1.4934362718        0.6542809657
 H         -2.0254205252       -2.5013184698       -1.2244129738
 H         -1.2674143667       -2.7624903882        0.3661156816
 H         -4.1001810921        1.0883445218        1.3894405881
 H         -4.8677697530        0.3505835071       -0.7914546917
 H         -0.7275415258        1.8551351392       -1.8054182619
 H          1.8191641824        0.8354587279        2.5894358094
 H          0.1909113026        0.3405004446        2.6539527213
 H          1.7788827833       -2.3602614822        1.5101678986
 H          2.2999471700       -1.6415789448       -2.1442247667
 H          3.5928722242        2.0085098331       -1.5866784035
 H          5.0265912197        1.7137636935       -0.6186271796
  37
        -73.91919386
 P         -0.8766418890       -4.1638020701       -0.7457698920
 O         -0.5754204822       -0.2671445995        1.4814294091
 O         -2.2755663458        2.0151485793       -0.5933882839
 O         -3.2880660782       -0.2888294801        0.1434689318
 O         -0.3634189446       -2.7305409707       -1.2407868686
 O         -0.7756596363       -5.0306004893       -2.0478786639
 O         -2.4282004017       -3.9040620834       -0.4941961368
 O         -0.1586499387       -4.7193644491        0.4071635495
 O          2.4923529166        5.2984696331       -0.1742279674
 N          0.6639798667        1.6284056516        0.8667051554
 N          2.8702406437        1.8511064019        0.8726500527
 N         -0.0370947020        3.8722810553        0.3234819025
 N          4.3870629420        4.1181606463        0.2310650847
 C         -1.3663577387        0.9820292828       -0.4002253244
 C         -2.0009023952       -0.4235426201       -0.3947858098
 C         -0.6523772126        1.0406064172        0.9826339666
 C         -1.0428800134       -1.2022157138        0.5193006814
 C          0.1171676912       -1.8307730998       -0.2629718995
 C          0.9153310919        2.9285433398        0.5195105590
 C          1.8844506026        1.0345407604        1.0663319853
 C          2.3001302743        3.0572904243        0.5246060718
 C          3.0521593251        4.2455239259        0.1733080451
 H         -0.6138996778        1.0579056218       -1.1925273148
 H         -2.0300725182       -0.8621610252       -1.3967065450
 H         -1.2362960514        1.6539287366        1.6857022233
 H         -1.5570983448       -1.9933204357        1.0727528013
 H          0.7681936212       -2.3609467033        0.4379914628
 H          0.6897317477       -1.0710457833       -0.7991350175
 H         -3.1338699796        1.7421753246       -0.2218165176
 H         -3.7840521756       -1.1127906510        0.0477644910
 H          1.9735603694        0.0108238071        1.3636462830
 H          0.3467933668        4.7331818848       -0.0451898814
 H         -0.9279203849        3.5767452769       -0.0518668243
 H         -1.1653678183       -4.6564516965       -2.8492738247
 H         -2.8836390156       -4.6395764550       -0.0679953297
 H          4.7707271515        3.2368343621        0.5265095205
 H          4.9774245761        4.8990736530        0.0026225285
  37
        -73.91919002
 P          0.1964531520       -3.1218990447        0.3565881376
 O         -0.8625201147       -0.4126092184        0.0719770904
 O         -3.1530947598        2.1718777876        0.2654865411
 O         -4.3040286745       -0.0042458135       -0.7382803266
 O         -1.3558655011       -3.2861448348       -0.0499848593
 O          0.5613203882       -4.6060930922        0.7477657326
 O          0.2537335842       -2.3914691979        1.7409666245
 O          1.0093051635       -2.5053018985       -0.7022980662
 O          4.2904141601        1.7708508111       -0.2128893846
 N          0.0723394049        1.7440393357        0.1811500591
 N          1.1952740366        3.6462154173       -0.0943763126
 N          1.9238787542        0.1785992118        0.3513238799
 N          3.9477490432        4.0037705494       -0.4102843520
 C         -2.2839536163        1.3936199203       -0.5029320304
 C         -2.9333537973        0.0528749252       -0.9628963047
 C         -1.0989550632        0.9378689702        0.3885767348
 C         -2.1282261143       -1.0028492471       -0.1734008435
 C         -1.9244587241       -2.3166872495       -0.9066363437
 C          1.3976971831        1.4002047211        0.1352905572
 C          0.0255966576        3.1168898944        0.0485258761
 C          2.0878670209        2.5991295426       -0.0511398439
 C          3.5180213589        2.7447618571       -0.2235716442
 H         -1.8999983070        1.9518819127       -1.3644369782
 H         -2.7899644307       -0.0957539965       -2.0354517154
 H         -1.4187693604        1.0280934808        1.4446271619
 H         -2.6309368030       -1.1997645839        0.7862819939
 H         -1.2556717642       -2.1466751443       -1.7548749752
 H         -2.8839412158       -2.7192994073       -1.2337335825
 H         -3.8619453250        2.5204232527       -0.2979179245
 H         -4.4965230275        0.2924272151        0.1676216031
 H         -0.8937494919        3.6619682187        0.0914276748
 H          2.9119124242        0.1429755034        0.1303702904
 H          1.3827641892       -0.6431959951        0.1250119674
 H          0.7203135054       -5.2080135271        0.0136561261
 H         -0.0093230930       -2.9299923304        2.4983015040
 H          3.2694857586        4.7459950675       -0.4074648576
 H          4.9278095372        4.1855655922       -0.5398789209
  37
        -73.91916471
 P         -0.1676524075       -3.3108894925       -0.6510281468
 O         -1.7683884885        0.4745491094        1.5986221596
 O         -1.9783781577        1.3017969590       -1.7793695744
 O         -3.6804195516       -0.3423502540       -0.5441533257
 O         -0.8225562941       -2.9890924812        0.7746909266
 O         -1.4428446681       -3.7582131748       -1.4786710947
 O          0.6800968354       -4.6136072203       -0.4092358841
 O          0.6094836390       -2.2039071718       -1.2245994581
 O          3.2296830573        3.8586386515       -1.0100610346
 N          0.1154960930        1.6536672160        0.8113155541
 N          2.1249149822        1.7781272777        1.7422494864
 N          0.3833297467        3.1332144815       -1.0780319227
 N          4.3894387632        3.1405500380        0.8023524917
 C         -1.4301254965        0.5184692924       -0.7668336825
 C         -2.3313019955       -0.6676033049       -0.3561339261
 C         -1.2651376831        1.2943773045        0.5752985719
 C         -1.9558614876       -0.8536716498        1.1141971930
 C         -0.6820977892       -1.6885459725        1.3087138551
 C          0.8624002605        2.4615251160       -0.0029568816
 C          0.9352889844        1.2787765586        1.8457818748
 C          2.1201524654        2.5297983815        0.5868949166
 C          3.2745302563        3.2301768512        0.0605345420
 H         -0.4545649594        0.1471376068       -1.1015487039
 H         -2.1381703037       -1.5543145876       -0.9576366907
 H         -1.8517901045        2.2252435313        0.5536118821
 H         -2.7734763733       -1.2946394806        1.6905100684
 H         -0.4836976491       -1.8017467757        2.3768501603
 H          0.1649226733       -1.1887196841        0.8301990161
 H         -2.9277868571        1.0856784519       -1.8558351942
 H         -3.9877917622        0.2313056788        0.1755873520
 H          0.5912829400        0.6576895692        2.6453708846
 H          1.1215617238        3.5668595906       -1.6181721612
 H         -0.3765977267        2.7225556403       -1.6013554782
 H         -1.2792263719       -4.0475455657       -2.3841032012
 H          0.2423687329       -5.3235669979        0.0798859296
 H          4.3554200365        2.6062731255        1.6534931766
 H          5.2360666488        3.5861767860        0.4936678963
  37
        -73.91916269
 P          0.7223590292       -2.2482835232        0.7242103686
 O         -1.4904988174       -0.0185436632        1.1791146506
 O         -3.5340384257        1.9365329267       -0.5631041845
 O         -4.0472581756       -0.5220378145       -1.2496107046
 O         -0.6664810280       -2.3441094761       -0.0725739964
 O          1.6991314784       -2.7659966675       -0.3910364838
 O          0.5634930291       -3.4059473507        1.8035945931
 O          1.1642248704       -0.9712350924        1.2941225041
 O          3.3560999913        0.9109653182       -1.8893907958
 N         -0.1455496871        1.7023347982        0.3420318217
 N          1.7111376703        2.8812785563        0.6678648638
 N          0.5449923637        0.2708561084       -1.5009315026
 N          4.1930942161        2.5805867103       -0.6036298791
 C         -2.3576901999        1.1867271432       -0.7117510295
 C         -2.7380448874       -0.3116353806       -0.8297513719
 C         -1.4908468442        1.2577675545        0.5739386059
 C         -2.4625774877       -0.8634688998        0.5878371630
 C         -1.9228604373       -2.2901080368        0.5852573242
 C          0.7838460784        1.2129422420       -0.5371816404
 C          0.4910022160        2.6908913799        1.0513331344
 C          1.9297813363        1.9663098981       -0.3376789910
 C          3.2035170581        1.7712410379       -1.0073483721
 H         -1.7734278003        1.5081415622       -1.5755027343
 H         -2.0846953862       -0.8120850100       -1.5497446015
 H         -1.9446636365        1.9793947655        1.2711788783
 H         -3.3911113472       -0.8307915526        1.1758701936
 H         -2.5980780690       -2.9344504376        0.0186037902
 H         -1.8173125531       -2.6510550360        1.6086259165
 H         -3.4619709516        2.7928580428       -1.0051133286
 H         -4.5844935591        0.2413051061       -0.9680157023
 H          0.0005010118        3.2413872998        1.8275265857
 H          1.4247029697        0.0357989239       -1.9562466655
 H          0.0602724806       -0.5512643179       -1.1665410584
 H          1.4793480158       -3.6171892257       -0.7917317821
 H          1.0713615343       -3.2600813973        2.6087690229
 H          4.0024575283        3.2333642390        0.1376090044
 H          5.1156918933        2.4776613470       -0.9903309689
  37
        -73.91915997
 P         -0.2310669691       -2.7580684095       -0.9594347389
 O         -0.7958901215       -0.6046087035        0.9263338692
 O         -2.6310464410        1.9835508545       -0.6449075784
 O         -4.1041955374       -0.0912414389       -0.0181519092
 O         -1.6176881485       -3.1570428181       -0.2880101601
 O          0.0582710743       -4.0709397339       -1.7930413358
 O          0.8061238200       -2.8355618734        0.2189012756
 O         -0.2419034944       -1.5486230539       -1.8058975318
 O          3.5170013953        3.5850797539        1.9200896977
 N          0.4301563176        1.2559719918        0.2026921765
 N          2.3027704736        1.6786401785       -0.9123608335
 N          0.8193734680        2.5203462511        2.2377156197
 N          4.5188201679        3.1834893386       -0.0752562231
 C         -1.9044609440        0.7969712144       -0.6298732364
 C         -2.7900140429       -0.4518686100       -0.3374695525
 C         -0.8640777003        0.7542770229        0.5203790356
 C         -2.1266850572       -1.0832753888        0.9015518370
 C         -2.1085575224       -2.6023167247        0.9174811679
 C          1.2011275139        2.0414630726        1.0232156909
 C          1.1635592907        1.0673368950       -0.9454078636
 C          2.3602582718        2.3111544267        0.3115201306
 C          3.4963707482        3.0799535892        0.7854947932
 H         -1.3992505637        0.6967100464       -1.5912167305
 H         -2.7434435560       -1.1491653687       -1.1763777789
 H         -1.2611636539        1.3624509430        1.3510498597
 H         -2.6678292084       -0.7253906636        1.7918822295
 H         -3.1237741702       -2.9885300149        1.0235071755
 H         -1.4802569687       -2.9316604656        1.7483656673
 H         -3.4148893402        1.8681126373       -0.0737576049
 H         -4.6412994427       -0.0334835308       -0.8219168808
 H          0.8237431798        0.4440155501       -1.7453152080
 H          1.5854754694        3.0054107252        2.6929257043
 H          0.2911600440        1.9010575813        2.8331981174
 H         -0.2592778333       -4.0507504661       -2.7013491713
 H          1.7151057306       -2.6302107979       -0.0201215525
 H          4.4274684334        2.7512593775       -0.9787805644
 H          5.3423938416        3.7004122968        0.1804577869
  37
        -73.91915001
 P         -0.2756634334       -2.8906671605       -0.9813012031
 O         -0.7573442832       -0.6764602014        0.9210655483
 O         -2.5305138307        2.0282249159       -0.4898224411
 O         -4.0415984329       -0.0619425609       -0.1076773565
 O         -1.7070718700       -3.1889428233       -0.3528726337
 O         -0.0509826650       -4.2143549943       -1.8165363806
 O          0.7109386242       -3.0422017359        0.2308312140
 O         -0.1800935910       -1.6770436523       -1.8173486139
 O          3.2653458261        4.1531291693        1.5888989094
 N          0.5070118849        1.2064904526        0.3268179267
 N          2.5005470355        1.3932100069       -0.6311294880
 N          0.6775165285        2.9038087780        2.0592624534
 N          4.5439889496        3.2208868542       -0.0363936564
 C         -1.8134023075        0.8362376918       -0.5599446360
 C         -2.7147192338       -0.4203763426       -0.3722766032
 C         -0.7955439356        0.7038106664        0.6065523175
 C         -2.1053535516       -1.1049734547        0.8679041339
 C         -2.1614936962       -2.6230099349        0.8618525101
 C          1.1552867463        2.2213055701        0.9831762923
 C          1.3738780764        0.7576019330       -0.6407280857
 C          2.3999373739        2.3264535702        0.3789066935
 C          3.4264795129        3.3005489222        0.6999440050
 H         -1.2792194914        0.7992286159       -1.5131679401
 H         -2.6220625753       -1.0802168495       -1.2360228160
 H         -1.1929155658        1.2567074389        1.4737871965
 H         -2.6451761058       -0.7378280446        1.7554532225
 H         -3.1949734308       -2.9574443312        0.9675676348
 H         -1.5481055638       -2.9933096005        1.6863201690
 H         -3.3976568646        1.8272634882       -0.0823892416
 H         -4.5673691340       -0.0809498018       -0.9201345677
 H          1.1111637830       -0.0390335441       -1.3047031135
 H          1.2924960370        3.6761227083        2.2954537829
 H         -0.3056792600        3.1293512462        2.0653061876
 H         -0.3537434716       -4.1746873849       -2.7294090125
 H          1.6370312438       -2.8603407847        0.0445799816
 H          4.5962713358        2.5129485436       -0.7489262091
 H          5.2936005047        3.8738346776        0.1140405701
  37
        -73.91914931
 P          0.0303957273       -2.4218112162       -1.3017377931
 O         -1.5386006790        0.3358774142        1.5682287245
 O         -2.7904419900        1.3051840850       -1.5627884499
 O         -4.1371148747       -0.1699037089        0.1572854049
 O          0.0037097572       -1.6152268584        0.0774374090
 O          0.8915836378       -3.7085468356       -0.9521033761
 O          0.9277293667       -1.5102898734       -2.2044026756
 O         -1.2928563829       -2.7301272206       -1.8647412340
 O          3.6050792201        2.1258458514        2.3693758271
 N          0.0121224409        1.4782833649        0.2284812969
 N          1.9046105432        1.9683016558       -0.8262439246
 N          0.7178073387        1.6806760060        2.5316451728
 N          4.4411261370        2.4165275242        0.2804508313
 C         -2.0352856828        0.4574686230       -0.7626620430
 C         -2.8507589519       -0.6728802815       -0.1007651714
 C         -1.3845994908        1.1753396492        0.4492630747
 C         -2.0649229807       -0.9321656714        1.1936633299
 C         -0.9578634202       -1.9856077841        1.0583845519
 C          0.9554371661        1.6713711617        1.2022338557
 C          0.6515774145        1.6817121226       -0.9719877457
 C          2.1397731558        1.9618669763        0.5320653787
 C          3.4353973399        2.1800121124        1.1391857970
 H         -1.2595538487        0.0105613744       -1.3910861440
 H         -2.8793149276       -1.5524262051       -0.7464638975
 H         -1.9198095215        2.1158505954        0.6571665410
 H         -2.7286907624       -1.2359992229        2.0089852555
 H         -1.4063145204       -2.9473088870        0.8019067920
 H         -0.4174395943       -2.0625205153        2.0044660133
 H         -3.6933885445        1.3429156062       -1.1967146648
 H         -4.7702152626       -0.8925421524        0.2636815749
 H          0.1446165377        1.6348256215       -1.9129951810
 H          1.5629159542        1.6760808413        3.0869682309
 H         -0.0864930432        1.1726708586        2.8639356296
 H          0.6390485828       -4.5099179400       -1.4249104663
 H          1.8685416695       -1.5105663543       -1.9906751503
 H          4.2258243711        2.4792218366       -0.6997909761
 H          5.3641994119        2.6080160985        0.6294570049
  37
        -73.91914585
 P          0.4765032891       -2.5677535574       -0.0133473594
 O         -1.3925429691       -0.6696527838        0.9353096743
 O         -2.5629297048        2.2748136163       -0.7516535104
 O         -4.2155005430        0.5071285715        0.3820449609
 O         -1.0341596812       -3.1111395031       -0.2066711175
 O          1.3171826100       -3.8556308149       -0.4017245485
 O          0.7187237803       -2.3865251928        1.5318843005
 O          0.8237519592       -1.4039246305       -0.8299799988
 O          3.0488722582        3.3447398181       -1.4006364718
 N          0.0845365445        1.1089395440        0.6359323757
 N          2.2016918364        1.1098573432        1.3210323431
 N          0.2778627935        2.5171540837       -1.3504972221
 N          4.3742589791        2.4806914142        0.2238911638
 C         -2.1088950531        0.9707389495       -0.5988302157
 C         -3.2371141211       -0.0673194687       -0.4424834850
 C         -1.2986084623        0.7222559541        0.6903570375
 C         -2.4939294879       -1.2352759178        0.2238129906
 C         -1.9682352765       -2.2404081785       -0.8067787584
 C          0.7736517961        1.8886433725       -0.2550007837
 C          1.0093928048        0.6730924934        1.5561080693
 C          2.0939656147        1.8833077265        0.1852341397
 C          3.1939660519        2.6158670131       -0.4030620206
 H         -1.4815712444        0.7221525030       -1.4588312447
 H         -3.6502009938       -0.3555731936       -1.4131752351
 H         -1.7770080072        1.2551681925        1.5339836766
 H         -3.1130111596       -1.7514289001        0.9660857239
 H         -1.4751008046       -1.7011057338       -1.6204472663
 H         -2.7738171188       -2.8688359761       -1.1883937536
 H         -3.3582861520        2.3924364095       -0.2020172771
 H         -5.0369041884       -0.0028846953        0.3451652851
 H          0.7326991207        0.0323266894        2.3656553198
 H          0.9659184638        3.1426688811       -1.7551630046
 H         -0.6737216696        2.8545771815       -1.3193335373
 H          0.8700901680       -4.7101752362       -0.3574837672
 H          0.5150426658       -3.1468454624        2.0917794310
 H          4.4233956069        1.8544984436        1.0090550672
 H          5.1911411689        2.9425369609       -0.1365003462
  37
        -73.91914513
 P          0.3636630097       -2.1287557147       -1.0917280186
 O         -1.7901899971        0.5489241613        1.5839335812
 O         -3.4079939940        1.4551304887       -1.0800237311
 O         -4.1212608702       -0.8732164710       -0.1024815003
 O          0.1373479442       -1.2399958059        0.2104119210
 O          1.9198467168       -2.0926775581       -1.3262383671
 O         -0.1782014229       -1.2017409643       -2.2443179375
 O         -0.2451979175       -3.4689354371       -0.9984118221
 O          3.6058808313        1.2952619173        2.0824485942
 N         -0.1676659328        1.5491468104        0.1899746907
 N          1.7146696298        1.8751682899       -0.9518787821
 N          0.7223495486        1.3604712071        2.4360754699
 N          4.3533375778        1.7320693894       -0.0145249028
 C         -2.3103189549        0.6625357153       -0.7263034922
 C         -2.7352546967       -0.7292992969       -0.1691260476
 C         -1.5825434706        1.3488601187        0.4519725668
 C         -2.0517543774       -0.7983354796        1.2093788848
 C         -0.7862048808       -1.6607615738        1.2029544886
 C          0.8550212059        1.4641049770        1.0963912884
 C          0.4259631150        1.8090614163       -1.0249043882
 C          2.0279720788        1.6500836511        0.3697413954
 C          3.3744979332        1.5511280491        0.8872234192
 H         -1.6283364531        0.5236820783       -1.5677997560
 H         -2.3766938986       -1.5394909637       -0.8098483697
 H         -2.0500721902        2.3242185391        0.6541310472
 H         -2.7325951598       -1.2028863611        1.9644157758
 H         -1.0611716892       -2.7031532538        1.0192327825
 H         -0.2750323139       -1.5707212529        2.1642470075
 H         -3.8623308576        1.0654160587       -1.8423954675
 H         -4.5107332195       -0.0710757103        0.2844046169
 H         -0.1320004219        1.9827296007       -1.9205243999
 H          1.5936724099        1.1551001440        2.9066179210
 H         -0.1367813841        0.9779261744        2.7975957460
 H          2.4308207481       -2.7681543568       -0.8677697641
 H          0.0424153404       -1.5091304178       -3.1318356450
 H          4.0938092474        1.9272516153       -0.9660605172
 H          5.3161611822        1.6693967181        0.2671961823
  37
        -73.91913861
 P         -0.4489843352       -3.5819195471       -0.6722390519
 O         -1.5231626418        0.3827006175        1.6462021301
 O         -3.0304686048        1.4659427555       -0.7762529041
 O         -2.3691838715       -1.0311553577       -1.4801681959
 O         -1.0664829952       -3.1347961612        0.7549101334
 O         -1.6863289400       -3.7047467739       -1.6410462670
 O         -0.0504984889       -5.0769970427       -0.4423750829
 O          0.6695667300       -2.7312155308       -1.1045073990
 O          3.0771771437        4.4500477043       -0.7018563328
 N          0.2330627314        1.7476560780        0.8633728074
 N          2.3827509534        1.5739367854        1.3867998956
 N          0.2924850010        3.5977242383       -0.7052400717
 N          4.5109811840        3.1970659332        0.5316825028
 C         -1.6866261689        1.1378143058       -0.5730392822
 C         -1.4789443561       -0.3929243701       -0.6138334737
 C         -1.1932457445        1.4833135196        0.8434536931
 C         -1.6711137789       -0.8036941593        0.8628957199
 C         -0.6956128522       -1.8934934814        1.3144586440
 C          0.8779996489        2.7448385117        0.1798338576
 C          1.1999233072        1.0858280235        1.5784045972
 C          2.2214289504        2.6206579444        0.5072261291
 C          3.2931580009        3.4903150902        0.0558387095
 H         -1.1188981569        1.6506881058       -1.3496168052
 H         -0.4587398858       -0.6290724757       -0.9333566211
 H         -1.7144644680        2.3594083161        1.2560578887
 H         -2.6880855709       -1.1883222752        1.0184524404
 H         -0.7477616531       -2.0076007386        2.3996673698
 H          0.3245665112       -1.6439957572        1.0083642735
 H         -3.5608291315        1.2233147565       -0.0012624605
 H         -3.0906186887       -0.4047973741       -1.6901759383
 H          0.9652019835        0.2749888846        2.2344562883
 H          0.9457193527        4.3138548708       -1.0054692523
 H         -0.6376436550        3.9254561165       -0.4939253407
 H         -2.0742211699       -2.8504524424       -1.8942111859
 H         -0.7799923448       -5.6682069956       -0.2161687810
 H          4.6090929070        2.4024281290        1.1403562576
 H          5.3048879964        3.7512848514        0.2601095762
  37
        -73.91913765
 P         -0.2732294999       -3.5107639451       -0.3356641615
 O         -1.2633912824        0.4931907387        1.2971035890
 O         -3.0893549263        1.6113576012       -1.2102623104
 O         -2.7848565748       -0.9809603339       -1.5838931421
 O         -0.1953316794       -2.2853174538        0.7135378915
 O         -0.4670311551       -4.7968480528        0.5432627993
 O          1.2027302261       -3.5788095687       -0.8571780403
 O         -1.3385082894       -3.3625757378       -1.3405712191
 O          4.0723528123        1.7461691298        0.2346711051
 N         -0.1084322909        2.3232567027        0.4497882874
 N          1.2859752960        4.0526994599        0.4333247479
 N          1.4519080428        0.4854982043        0.1698166043
 N          4.0906887173        4.0126048076        0.3221057466
 C         -1.8049768575        1.1281662953       -0.9441392189
 C         -1.7765710530       -0.4075034641       -0.8089564906
 C         -1.3593020822        1.6230030203        0.4557863736
 C         -1.9649472255       -0.5948041325        0.7096116091
 C         -1.4360106381       -1.9036600408        1.2902833887
 C          1.1516645378        1.7982395526        0.3342638571
 C          0.0478078574        3.6881831702        0.5054420194
 C          2.0149436442        2.8883003429        0.3273852912
 C          3.4636013911        2.8278883699        0.2854891950
 H         -1.1028673772        1.4762131308       -1.7143910617
 H         -0.7861373045       -0.7744812694       -1.0985196515
 H         -2.1273375701        2.3163464297        0.8307876162
 H         -3.0358434519       -0.5095378315        0.9448889565
 H         -2.1741020343       -2.6929987114        1.1328975817
 H         -1.2625883555       -1.7580220671        2.3587550349
 H         -3.5503230762        0.9507996627       -1.7565977020
 H         -2.5680356491       -1.9209633347       -1.7190332546
 H         -0.7869326643        4.3521846734        0.5929741595
 H          2.4478446023        0.3196555363        0.2669118047
 H          0.8450773700       -0.1872917650        0.6165434098
 H          0.2756913871       -5.0369405269        1.1122175942
 H          1.3584494047       -3.2575224434       -1.7511540352
 H          3.5334657672        4.8481859255        0.3734127619
 H          5.0953623009        4.0506346255        0.3102344107
  37
        -73.91912778
 P         -0.9050196956       -4.0536216237       -0.7149138614
 O         -0.7248451504       -0.2107271960        1.5377808482
 O         -2.2852108682        1.9723466227       -0.7005120551
 O         -3.3192462285       -0.3823507250       -0.0047521020
 O         -0.1910045825       -2.6841349840       -1.1415792378
 O         -0.5518357112       -5.0082726476       -1.9088004679
 O         -2.4436352814       -3.6889704457       -0.8654031780
 O         -0.5174837223       -4.5713106052        0.6033470146
 O          2.6106790624        5.1427668178       -0.3132259531
 N          0.6247610235        1.6103605867        0.8933738947
 N          2.8317271145        1.7816903392        1.0205287147
 N          0.0229974075        3.8245594535        0.1451902586
 N          4.4472352795        3.9558999625        0.2917071843
 C         -1.3600571871        0.9643990016       -0.4461552900
 C         -1.9857674510       -0.4505656750       -0.4233037091
 C         -0.7156493752        1.0733955978        0.9685229340
 C         -1.0703253208       -1.1847904653        0.5588758995
 C          0.1695696178       -1.7781861292       -0.1198508244
 C          0.9332520003        2.8735478732        0.4638405724
 C          1.8139985387        1.0063985772        1.2168699815
 C          2.3185304446        2.9686964413        0.5430271755
 C          3.1218816208        4.1082819697        0.1464219626
 H         -0.5712330754        1.0232827463       -1.2046327559
 H         -1.9926892923       -0.9166854810       -1.4091067000
 H         -1.3063437023        1.7457498649        1.6090678200
 H         -1.5877966632       -1.9960467007        1.0794305521
 H          0.7643016593       -2.2953888233        0.6387718540
 H          0.7715820108       -1.0046484163       -0.6011111510
 H         -3.1822255723        1.6074404305       -0.5734182451
 H         -3.3637626836       -0.2908888583        0.9592471273
 H          1.8575272558        0.0095675002        1.6022531664
 H          0.4501833156        4.6442508794       -0.2669229163
 H         -0.8644095632        3.5327962468       -0.2387276809
 H         -0.7293102281       -4.6712465852       -2.7973313672
 H         -3.0616232861       -4.3495051256       -0.5324523923
 H          4.7905160084        3.0928131319        0.6769146818
 H          5.0704660187        4.7038377514        0.0411586442
  37
        -73.91911929
 P          0.1276078919       -2.2933668928       -1.2619098350
 O         -1.6428364845        0.4029688463        1.5745687264
 O         -2.9064090611        1.2982956361       -1.5422138469
 O         -4.1727744480       -0.2852878640        0.1202285771
 O          0.0344827656       -1.4624796709        0.1018798777
 O          1.1846608386       -3.4287019516       -0.9325529840
 O          0.8484743867       -1.2885777424       -2.2219672383
 O         -1.1615808653       -2.8000252948       -1.7556626679
 O          3.6189032586        1.8105074770        2.3064483114
 N         -0.0539368130        1.4949054125        0.2293837593
 N          1.8366078872        1.9542625395       -0.8446029010
 N          0.7239178997        1.5184060590        2.5207432903
 N          4.4167727850        2.2151705358        0.2217440077
 C         -2.0979030718        0.4768397206       -0.7667555491
 C         -2.8505262962       -0.7008501785       -0.1093040120
 C         -1.4588404923        1.2150848101        0.4432927022
 C         -2.0752082336       -0.9000796006        1.2023470367
 C         -0.9017160291       -1.8814753043        1.0872559077
 C          0.9210530528        1.5760490152        1.1868595271
 C          0.5667020141        1.7425660453       -0.9729064996
 C          2.1030773507        1.8485615569        0.5035134144
 C          3.4214639350        1.9622654360        1.0884136547
 H         -1.3120581739        0.0766263010       -1.4139438162
 H         -2.8070400683       -1.5858719036       -0.7468118133
 H         -1.9851028327        2.1655067042        0.6231651264
 H         -2.7313825401       -1.2400198370        2.0089255114
 H         -1.2891713357       -2.8717462650        0.8400506332
 H         -0.3607660496       -1.9143196177        2.0355031554
 H         -3.8105128541        1.2625633428       -1.1782919271
 H         -4.7576986106       -1.0489851196        0.2141508968
 H          0.0332973879        1.7819497795       -1.8997527558
 H          1.5819635349        1.4365024397        3.0491986444
 H         -0.1069501973        1.0553538401        2.8526637793
 H          0.9746399933       -4.3010265630       -1.2840049761
 H          1.7876377778       -1.1506829543       -2.0525750444
 H          4.1817830817        2.3628083286       -0.7446939484
 H          5.3560565438        2.3364815427        0.5587934611
  37
        -73.91911173
 P         -0.5453342564       -3.6763763238       -0.6063034620
 O         -0.9621716724        0.2476089722        1.4096322390
 O         -3.5441184476        1.2221770297        0.4207407184
 O         -2.9700154020       -0.8036407676       -1.2282230367
 O          0.0724368950       -2.2532126973       -1.0637297074
 O         -0.0456271709       -4.6225627480       -1.7608056847
 O         -2.0941682349       -3.6216132813       -0.8299186091
 O         -0.1741535984       -4.0345210613        0.7701399213
 O          3.9397027407        2.9508547826        1.6932552389
 N          0.0416735315        2.0670371020        0.3067924132
 N          1.6087237338        2.8188809497       -1.0751549807
 N          1.2063992262        2.1317867688        2.4142306185
 N          4.2678396040        3.5020797239       -0.4832443683
 C         -2.2838838296        1.3058662332       -0.1805849892
 C         -1.8791123451       -0.0653365711       -0.7807210293
 C         -1.1809037642        1.5324689909        0.8572439965
 C         -1.1085880287       -0.7338973271        0.3898679322
 C          0.2480636615       -1.2831007158       -0.0547317456
 C          1.1638545706        2.2807306671        1.0684766915
 C          0.3878337366        2.4030694515       -0.9828082815
 C          2.1342763243        2.7540888320        0.1962326471
 C          3.5077364114        3.0783647864        0.5366652339
 H         -2.3560051476        2.0973688976       -0.9253421899
 H         -1.2009622871        0.0624690393       -1.6306838965
 H         -1.5048483437        2.1802560390        1.6808825972
 H         -1.6810977306       -1.5723097214        0.8047234437
 H          0.7481192798       -1.7326444931        0.8084170936
 H          0.8757793493       -0.4987094070       -0.4852068615
 H         -3.4866950960        0.7112938782        1.2436794450
 H         -3.7748537027       -0.4597681779       -0.7972477379
 H         -0.2878655727        2.3420485733       -1.8087752229
 H          2.1474734966        2.2157907334        2.7787573023
 H          0.6355197264        1.4000256532        2.8101285972
 H          0.8751604803       -4.9017920673       -1.7111171048
 H         -2.3901340076       -3.4418570597       -1.7314713445
 H          3.8499523633        3.5787532967       -1.3949092254
 H          5.2317181079        3.7413322628       -0.3261883780
  37
        -73.91910608
 P          0.1729584530       -3.1277386073        0.6877531368
 O         -1.0864198721       -0.4068522913        0.5916236447
 O         -2.8470141151        2.3063722090       -0.9654112133
 O         -4.0945229988        0.1229840596       -0.1005879600
 O          0.0426428297       -2.3742395098       -0.7344937969
 O          0.9259372495       -2.1191304154        1.6455955694
 O          1.2727243210       -4.2032870998        0.3992689692
 O         -1.0939062323       -3.6800656234        1.1837336811
 O          3.7807538664        1.8391158698       -1.2954830672
 N         -0.0725566329        1.7025398964        0.4388488399
 N          1.3358817965        3.3569000959        0.9041054344
 N          1.2052637685        0.4689948780       -1.2141864166
 N          3.9381217165        3.7411107151       -0.0690500673
 C         -2.1065251494        1.1367460842       -0.8897634520
 C         -2.9553884990       -0.1510178886       -0.8725499685
 C         -1.3081365509        0.9812321866        0.4297090161
 C         -2.0071104326       -1.1586071544       -0.2010346874
 C         -1.2363195194       -2.0114406160       -1.2227116252
 C          1.0532967284        1.4707388722       -0.3076535648
 C          0.1685665698        2.8567631196        1.1454509803
 C          1.9266556558        2.5082370085       -0.0058857917
 C          3.2768255370        2.6631224921       -0.5143874726
 H         -1.4059839209        1.1357245126       -1.7297531421
 H         -3.2267169317       -0.4708663608       -1.8823684768
 H         -1.9131798629        1.3629835574        1.2668408522
 H         -2.5412005793       -1.8206741904        0.4874194932
 H         -1.0379937509       -1.4511081829       -2.1394075401
 H         -1.8136939698       -2.9109132130       -1.4458406335
 H         -3.6759435635        2.1773720139       -0.4709383005
 H         -4.7632152041       -0.5658330569       -0.2175741516
 H         -0.5531782005        3.2786924547        1.8136144958
 H          2.1639577281        0.4234795247       -1.5437038264
 H          0.7995050275       -0.4240644800       -0.9694993156
 H          0.3393640698       -1.5334805125        2.1325702583
 H          2.1303586879       -3.8689417423        0.1075633243
 H          3.4668595397        4.3640497161        0.5646078467
 H          4.8806619203        3.9151842287       -0.3727495889
  37
        -73.91910140
 P          0.0098766944       -2.7821502387       -0.9540688381
 O         -1.7667822110        0.1039538059        1.6427597276
 O         -1.9943799963        1.5200053750       -1.5403494445
 O         -3.9900443060        0.0680397257       -0.4793658996
 O         -0.2910205312       -2.0998117482        0.4559968423
 O         -0.0859811396       -4.3307262393       -0.6221183714
 O          1.5206681641       -2.4264253772       -1.1559855338
 O         -0.8358292986       -2.3639401321       -2.0830489524
 O          3.1909524956        3.8370565122       -0.4525102947
 N          0.1305060546        1.2488609436        0.8919994298
 N          2.2233989059        0.9938997175        1.5757866753
 N          0.3096650882        3.2463513448       -0.4485086356
 N          4.4716957959        2.5231695731        0.8817863504
 C         -1.5978161771        0.4719615441       -0.7029342366
 C         -2.7264293694       -0.5385129495       -0.4255988322
 C         -1.2819976706        1.0230911284        0.7063122568
 C         -2.4132495462       -0.9983375657        1.0050705846
 C         -1.5557576018       -2.2654768798        1.0862698355
 C          0.8470438216        2.2561191390        0.3055961552
 C          1.0198969004        0.5217905162        1.6401219184
 C          2.1567743342        2.0884802184        0.7391700411
 C          3.2978954258        2.8896870473        0.3442012019
 H         -0.7216135671       -0.0575664311       -1.0953937180
 H         -2.6945022941       -1.3737244181       -1.1332153972
 H         -1.7954059656        1.9895412221        0.8425322859
 H         -3.3457602759       -1.1779522771        1.5500994322
 H         -2.0978379578       -3.1001826478        0.6395577127
 H         -1.3433171838       -2.4782254174        2.1365376514
 H         -2.0344328785        1.2083811083       -2.4572341917
 H         -3.8943494010        0.9524375902       -0.8761736692
 H          0.7135037940       -0.3273590351        2.2124494515
 H          1.0153634612        3.8159639898       -0.8975961160
 H         -0.5180356813        3.0334763634       -0.9860204514
 H         -0.3088075789       -4.8949677317       -1.3709592622
 H          2.1316685827       -2.7969271464       -0.5065071201
 H          4.4815241468        1.7493359927        1.5237870535
 H          5.3090666384        3.0312231308        0.6554970123
  37
        -73.91906426
 P          0.4135402525       -2.7763385722        0.0245910093
 O         -1.3998205235       -0.4114259511        0.6687180691
 O         -3.8368465499        1.4403317481        0.8077487008
 O         -4.1139863159       -0.2987511365       -1.1355085912
 O          0.5047845606       -1.4500151854       -0.8708135001
 O          0.4910473573       -2.2796194674        1.5304832840
 O          1.8139342631       -3.4404433256       -0.2396744127
 O         -0.7213978886       -3.6578380284       -0.2777397733
 O          3.8911288308        1.5869054108        1.1542790319
 N         -0.2375610756        1.5883078515        0.2251049215
 N          1.2323169257        2.6428134954       -1.0654004627
 N          1.1824484094        0.7971310599        2.0036989850
 N          4.0112802659        2.8449850938       -0.7292849553
 C         -2.7214072094        1.3943857647       -0.0270334613
 C         -2.8367749784        0.2669671378       -1.1013791296
 C         -1.4473576343        0.9962656648        0.7485738091
 C         -1.8372995855       -0.8062146519       -0.6189214365
 C         -0.6395636784       -0.9866348361       -1.5656304910
 C          0.9904081401        1.4182716937        0.8121752910
 C         -0.0124753712        2.3227668762       -0.9159494718
 C          1.8985170737        2.0890107942        0.0047914323
 C          3.3352197492        2.1533456296        0.1996572510
 H         -2.6363603686        2.3912796684       -0.4599940717
 H         -2.5444600041        0.6394585228       -2.0900766240
 H         -1.5255906888        1.2525833480        1.8115145185
 H         -2.3391764161       -1.7695941457       -0.4948775328
 H         -0.3256410246       -0.0379370836       -2.0085544468
 H         -0.9098791814       -1.6967131577       -2.3503729858
 H         -4.1253993074        0.5365034630        1.0162417581
 H         -4.7540571036        0.3413874425       -1.4825606209
 H         -0.7864416708        2.6097405163       -1.5959440745
 H          2.1697045674        0.7050409971        2.2152494505
 H          0.6390659859       -0.0411580816        2.1560290992
 H         -0.1779099665       -2.6874278962        2.0897742721
 H          2.5908395572       -2.8881380180       -0.0914854363
 H          3.4952442742        3.2790006573       -1.4754667357
 H          5.0106947055        2.9329851612       -0.6624066368
  37
        -73.91905062
 P          0.0469417580       -3.3567410366       -0.6844727501
 O         -0.8059421318       -0.7782026239        0.1559045074
 O         -2.4649252947        2.1426476558        1.0476649354
 O         -4.1736112853        0.2899931809        0.1997204720
 O         -1.5490207697       -3.3517697347       -0.7176703239
 O          0.3628361318       -4.8957021967       -0.8737160937
 O          0.3975190849       -3.1463002233        0.8334210056
 O          0.6894127901       -2.4761246388       -1.6780528436
 O          2.8419696608        4.5295998417        1.2312638654
 N          0.5276097923        1.1105937797        0.3252222251
 N          2.4671335018        1.4736462796       -0.6799722506
 N          0.4369746616        2.9557803758        1.8764396128
 N          4.2410503574        3.6149429208       -0.3028398830
 C         -1.9343296172        1.3071153510        0.0611309937
 C         -2.9176260494        0.1865231868       -0.3892899899
 C         -0.7379587059        0.5278915962        0.6623343036
 C         -2.1677846471       -1.1204265397       -0.0346048187
 C         -2.2215550422       -2.1765581482       -1.1276341270
 C          1.0234951856        2.2669297091        0.8657411555
 C          1.4421398522        0.6866476908       -0.6087466036
 C          2.2398588198        2.4841663487        0.2315991407
 C          3.1210808609        3.6172497228        0.4358541357
 H         -1.5888981750        1.8860189803       -0.8054279932
 H         -3.0892511075        0.2390578596       -1.4666502988
 H         -0.8400520052        0.5295259559        1.7627576741
 H         -2.5693566168       -1.5435154689        0.8985532157
 H         -1.7322868267       -1.7801344554       -2.0222783321
 H         -3.2518400473       -2.4683700056       -1.3342352330
 H         -3.2504559872        2.5975429159        0.7037671984
 H         -4.0863523497        0.3497275166        1.1652449261
 H          1.2994778540       -0.2120669227       -1.1732349149
 H          0.8892869824        3.8457339230        2.0447135094
 H         -0.5717115709        2.9442808779        1.9270960913
 H          0.3811390584       -5.2045986360       -1.7854290584
 H          1.3369607047       -3.1741570299        1.0414110696
 H          4.3952569892        2.8471163362       -0.9337082173
 H          4.8963784349        4.3735325595       -0.2264262516
  37
        -73.91904645
 P         -0.2668193316       -3.2002795992        1.0730015954
 O         -0.5726074196       -0.4912727525        0.0897629258
 O         -3.0002645405        1.9999662051        0.2404217645
 O         -3.8552328981       -0.0862124977       -1.1105859920
 O         -1.1313713137       -3.3817458857       -0.2559981532
 O          1.1529962726       -2.7290696997        0.5353818511
 O         -0.1035072538       -4.7111436640        1.4823480719
 O         -0.8301363655       -2.4070450459        2.1734090380
 O          3.5775866438        2.5718308912       -2.0717142595
 N          0.3302881578        1.6208161993        0.4570638266
 N          1.8450815476        3.1256458254        1.0615899588
 N          1.0772878533        1.0674085899       -1.7732655871
 N          4.1028306339        3.9830088223       -0.3747545093
 C         -1.9798395305        1.3561828930       -0.4552361325
 C         -2.4699130280        0.0666547839       -1.1785162347
 C         -0.8591972871        0.8320710748        0.4992968148
 C         -1.7920113852       -1.0473309227       -0.3607474298
 C         -1.4948153213       -2.3222639672       -1.1235328761
 C          1.2084476954        1.7236692528       -0.5893582364
 C          0.7749935179        2.4936863970        1.4195593254
 C          2.1521069703        2.6642618900       -0.2004178606
 C          3.3217354707        3.0654673078       -0.9617095883
 H         -1.5481576078        2.0782286273       -1.1551841613
 H         -2.1025924492        0.0441710481       -2.2089605230
 H         -1.2391861343        0.8400513131        1.5325831168
 H         -2.4295179854       -1.2937593534        0.5014777542
 H         -0.6766982980       -2.1468782469       -1.8283723577
 H         -2.3904880161       -2.6611531203       -1.6485124890
 H         -3.7368702769        1.3716585151        0.3623857090
 H         -4.2844348549        0.4180242651       -1.8186835405
 H          0.2662481830        2.6202419249        2.3525819169
 H          1.9143601289        1.1519584995       -2.3393769746
 H          0.6810230115        0.1409760853       -1.7044233921
 H          1.7199141808       -2.3503222082        1.2134889280
 H          0.2046129630       -5.3102352555        0.7904514746
 H          3.8333017387        4.3343888579        0.5283062462
 H          4.9371603957        4.3032257404       -0.8357523090
  37
        -73.91902932
 P         -1.2214152912       -4.0289320117       -0.3276075631
 O         -0.4790850703        0.2870358053        1.2208892606
 O         -1.6391929063        1.3633682265       -1.9887339260
 O         -2.8917626070       -0.6383288203       -0.8701201800
 O         -0.8553128706       -3.3130602761        1.0700252402
 O         -2.7113661509       -3.6284188561       -0.6426527638
 O         -1.3534814549       -5.5353316466        0.0948578010
 O         -0.2752645412       -3.7013133772       -1.4038499836
 O          4.3814622487        2.9576893069        0.4345865269
 N          0.1982994309        2.3531114256        0.3882721700
 N          1.0585055047        4.3998531882        0.3716144632
 N          2.2018103326        1.0044256471        0.2727698458
 N          3.7648998116        5.1405053730        0.3945651294
 C         -0.8897370033        0.6449816407       -1.0684642211
 C         -1.4991972327       -0.7279797188       -0.6998523338
 C         -0.7934302136        1.3276801118        0.3207982405
 C         -1.1135807865       -0.9123308749        0.7871723085
 C         -0.1640976703       -2.0829395912        1.0495491363
 C          1.5582555631        2.1972593143        0.3593208134
 C         -0.0332694147        3.7072121235        0.3910817430
 C          2.0864545892        3.4820381983        0.3557422582
 C          3.4952728129        3.8268688843        0.3914261974
 H          0.1206097032        0.5294018890       -1.4720079376
 H         -1.0765029850       -1.5219594213       -1.3172829424
 H         -1.7650275716        1.7830157377        0.5705088000
 H         -2.0318213978       -1.0592561444        1.3740469893
 H          0.2815802069       -1.9647928714        2.0393334401
 H          0.6145753944       -2.1107789586        0.2815082813
 H         -2.5704231632        1.0867973052       -1.8964163065
 H         -3.2493271153       -1.4991507541       -1.1296005192
 H         -1.0216241438        4.1174558207        0.4007270891
 H          3.1969306602        1.0997812160        0.4386633738
 H          1.7405874656        0.2254072742        0.7193595367
 H         -3.3613186236       -4.1363076955       -0.1386939217
 H         -0.5296009769       -6.0247420526        0.1937348569
 H          2.9949119697        5.7865581942        0.3594923613
 H          4.7181624865        5.4586446420        0.4236518196
  37
        -73.91902177
 P         -0.1563179822       -3.9072090365       -0.7048071545
 O         -1.0686325387       -0.5123254609        0.9949509691
 O         -2.6918740280        2.4403542854        0.0454747119
 O         -3.8704031201        0.1020445823        0.1395081783
 O          0.2332677036       -2.3394887322       -0.7266756281
 O          0.7876765721       -4.4736842192        0.4161351288
 O          0.4411255451       -4.5029908858       -2.0279160068
 O         -1.5992035163       -4.1521080364       -0.5710739469
 O          2.5710344618        4.9377564875        0.5513669627
 N          0.3687038641        1.3318582143        0.7336010670
 N          2.5537696148        1.3196965489        0.3599823782
 N         -0.0426493001        3.6832092209        1.0814749095
 N          4.2937213791        3.5106498664        0.1740842083
 C         -1.8973266883        1.3435457463       -0.2665889032
 C         -2.6884604729        0.0638678342       -0.6112617999
 C         -0.9946232874        0.8824713425        0.9177506001
 C         -1.7243550160       -1.0406547727       -0.1521842064
 C         -0.7271387792       -1.4390332233       -1.2463516980
 C          0.7673285200        2.6405262598        0.7709362199
 C          1.4928263076        0.5868569471        0.4810499247
 C          2.1375243161        2.6226564329        0.5355168873
 C          3.0039030686        3.7796777059        0.4301518875
 H         -1.2608873510        1.6344402598       -1.1094133422
 H         -2.9007682525       -0.0044317334       -1.6833133933
 H         -1.3620714082        1.3053286344        1.8645274139
 H         -2.2400003309       -1.9445225811        0.1828871226
 H         -0.1640813492       -0.5737705823       -1.6029829131
 H         -1.2708608685       -1.9052041948       -2.0713658822
 H         -3.5198636559        2.1169377471        0.4433809595
 H         -4.4289589508       -0.6595152629       -0.0661715264
 H          1.4638806133       -0.4801765821        0.4041867529
 H          0.4115986855        4.5757662071        0.9338911031
 H         -1.0141976532        3.6246869215        0.8095447307
 H          0.4786936494       -4.3718295031        1.3221947939
 H          1.4003717694       -4.4326379861       -2.1224265870
 H          4.5739746075        2.5485587387        0.0899043583
 H          4.9556158664        4.2620112273        0.0854746242
  37
        -73.91897523
 P         -0.0540900247       -3.5769819404        0.4508015447
 O         -0.8913946414       -0.2872862775        0.5589592944
 O         -2.8438249499        2.3125566083       -0.9577240214
 O         -3.9221725870        0.0077961254       -0.1985520690
 O          0.2484733275       -2.4273858070       -0.6434654667
 O         -0.0777455375       -2.9050128895        1.8657391165
 O          1.3025298808       -4.3761639920        0.4607902071
 O         -1.2822282586       -4.3243291920        0.1416518167
 O          3.9286269492        2.1996557367       -0.8995537490
 N         -0.0527255225        1.8944282663        0.4896023825
 N          1.1853366806        3.6824380546        0.9430730894
 N          1.4573527586        0.6435068494       -0.9378955303
 N          3.8384742805        4.1871280022        0.1906650088
 C         -2.0084120069        1.2077091224       -0.8977129823
 C         -2.7426230485       -0.1477428869       -0.9413341450
 C         -1.2276638016        1.0764513219        0.4361386043
 C         -1.7308004743       -1.0904656082       -0.2702447430
 C         -0.8778454591       -1.8571726920       -1.2844302626
 C          1.1497148090        1.6968685534       -0.1356156587
 C          0.0382809466        3.1120879667        1.1195250488
 C          1.9169672438        2.8177913726        0.1588400574
 C          3.2962069319        3.0362456671       -0.2335341221
 H         -1.2915612472        1.2923350510       -1.7199588755
 H         -2.9572929484       -0.4606785983       -1.9675449133
 H         -1.8780647986        1.3840370374        1.2702528858
 H         -2.2221940051       -1.8209591982        0.3842771460
 H         -0.4803236521       -1.1975640644       -2.0575716481
 H         -1.4849125317       -2.6513034640       -1.7264058965
 H         -3.6734869803        2.0965520773       -0.4960459259
 H         -4.4939211498       -0.7649652006       -0.3007324638
 H         -0.7724500839        3.5239158827        1.6837452822
 H          2.4452173739        0.6336536089       -1.1677174437
 H          1.0631966578       -0.2485555164       -0.6735427200
 H          0.7712317681       -2.5878781277        2.1959027858
 H          1.4534232549       -4.9640239853       -0.2872237310
 H          3.2656687142        4.8167189017        0.7264614626
 H          4.7922341318        4.4088881149       -0.0375154655
  37
        -73.91897207
 P         -0.1627062625       -3.3657494075       -0.2194152319
 O         -0.7185927884       -0.7102674187       -0.3817274896
 O         -2.2696697764        1.8840049846        1.3398192281
 O         -4.0785485217        0.1701823269        0.3827778236
 O         -1.4948051826       -3.2924735589       -1.1259103636
 O          1.0185180362       -2.6928752798       -1.0052215328
 O          0.1539263184       -4.9023498308       -0.4222438128
 O         -0.3123979942       -2.9573671989        1.1859056307
 O          2.9434466002        4.4415531722        1.2837909629
 N          0.6092178477        1.1453524354        0.0387956772
 N          2.4303547577        1.7393728654       -1.0756053559
 N          0.6504330871        2.7005175615        1.8810906717
 N          4.1844400723        3.8590629819       -0.5239443522
 C         -1.8796966910        1.2680387710        0.1480506188
 C         -2.8954657602        0.1906238483       -0.3473183699
 C         -0.5857321871        0.4464798209        0.3998499457
 C         -2.0705860872       -1.1114113115       -0.2501618315
 C         -2.3272781162       -2.1602456943       -1.3108053283
 C          1.1393527866        2.2085065150        0.7191997365
 C          1.4347138252        0.9145392517       -1.0335284730
 C          2.2783122013        2.5751575365        0.0112350328
 C          3.1532022471        3.6892659828        0.3177613248
 H         -1.6877642513        2.0119145260       -0.6365071341
 H         -3.1848723397        0.3812927867       -1.3831909007
 H         -0.5397852103        0.1849553067        1.4726053432
 H         -2.2125653634       -1.5638529465        0.7430261840
 H         -2.1182238154       -1.7390593956       -2.2989504771
 H         -3.3605867928       -2.5110713714       -1.2587083220
 H         -3.1106687239        2.3501274415        1.2039920055
 H         -3.8857338340        0.0420186690        1.3256581953
 H          1.2505489370        0.1163303803       -1.7198124082
 H          1.0933993294        3.5673062393        2.1564774991
 H         -0.3377287575        2.6023085939        2.0621690885
 H          1.3190603721       -3.2164959621       -1.7596398461
 H         -0.3610466109       -5.5041583998        0.1241129688
 H          4.2929274602        3.2088497751       -1.2832515801
 H          4.8353239382        4.6109243715       -0.3770331969
  37
        -73.91895581
 P         -1.4489978837       -4.0072549574       -0.8617961581
 O          0.0281488133       -0.0215412704        0.9761406193
 O         -2.1109828463        1.5262652820       -1.4554250396
 O         -3.0180867053       -0.4834349926        0.0256711834
 O         -0.3681135535       -3.5406380002        0.2392454153
 O         -2.8610648557       -3.6102567027       -0.2886140072
 O         -1.4339363389       -5.5674839876       -0.6927769561
 O         -1.1768925173       -3.4610973416       -2.1999065910
 O          3.8961749039        3.7524655921        2.1584551090
 N          0.5371386661        2.1050923351        0.1845638356
 N          1.7550124625        3.7000253431       -0.7635133273
 N          1.5765611191        1.9523119733        2.3554223694
 N          4.0129417338        5.0023137925        0.2684437044
 C         -1.1636025734        0.6628660819       -0.9276563991
 C         -1.7307993467       -0.7051608312       -0.4928754270
 C         -0.5098545603        1.1451392403        0.3854681334
 C         -0.7336540907       -1.1638214523        0.5896587237
 C          0.2224003650       -2.2640974108        0.1210987696
 C          1.5005773506        2.4444062453        1.0972427529
 C          0.7456435463        2.9059819990       -0.9145447429
 C          2.2634362967        3.4352536402        0.4905739607
 C          3.4426488986        4.0687642917        1.0459798654
 H         -0.3808144602        0.5198645406       -1.6792070790
 H         -1.7583467882       -1.4031462008       -1.3311401482
 H         -1.2820894739        1.5768738773        1.0469627751
 H         -1.2827680018       -1.5252453377        1.4697539568
 H          1.1030075488       -2.2723445363        0.7658325301
 H          0.5197654265       -2.0866711929       -0.9163418743
 H         -2.9565445115        1.3662754474       -0.9982369811
 H         -3.5544086330       -1.2824451977       -0.0711224999
 H          0.1088890338        2.8779935283       -1.7738958259
 H          2.4467456457        2.1890136357        2.8145296777
 H          1.2086185858        1.0245757307        2.4997648709
 H         -3.2036318267       -4.2336586917        0.3663038167
 H         -0.6777215099       -6.0301502566       -1.0691222396
 H          3.5921913205        5.2030652087       -0.6226143011
 H          4.8391511799        5.4823854709        0.5807733571
  37
        -73.91893480
 P         -0.2414738114       -3.5281087237       -0.8280575343
 O         -1.6713218987        0.3732364953        1.6197083093
 O         -2.0567261399        1.6157122001       -1.6086028342
 O         -3.6861692968       -0.2236887858       -0.5693202909
 O         -0.9699837396       -3.0660839576        0.5404785169
 O         -1.0612347064       -4.8123764209       -1.2028289297
 O          1.1617897604       -4.0877347972       -0.4132280565
 O         -0.1482192317       -2.4486603615       -1.8216361275
 O          3.1375278995        4.1842138228       -0.7378419151
 N          0.1684307026        1.6516621793        0.8880036376
 N          2.2299669732        1.6677855875        1.7053100434
 N          0.3012508304        3.4115232178       -0.7581303031
 N          4.4118731894        3.2269028670        0.8761392807
 C         -1.4553161162        0.7120496411       -0.7357712851
 C         -2.3268720123       -0.5301550790       -0.4408028119
 C         -1.2223301287        1.3148469789        0.6812854967
 C         -1.9099468510       -0.8825121361        0.9888072779
 C         -0.6651562194       -1.7797912795        1.0418941059
 C          0.8547487686        2.5935899683        0.1700096234
 C          1.0548472540        1.1326971889        1.7970816036
 C          2.1455370031        2.5939882591        0.6879052083
 C          3.2553682842        3.3992104649        0.2175328835
 H         -0.4963159670        0.3949052865       -1.1633754859
 H         -2.1135616469       -1.3319623334       -1.1471622000
 H         -1.8081620703        2.2386195883        0.8030950992
 H         -2.7175395408       -1.3709867930        1.5414841663
 H         -0.3517559449       -1.8924304423        2.0828663754
 H          0.1472654969       -1.3341725926        0.4617447649
 H         -2.9932747748        1.3623619505       -1.7192467644
 H         -3.9886109979        0.2764488556        0.2051101029
 H          0.7681906641        0.3842290533        2.5046809498
 H          0.9982469659        3.9433638531       -1.2642020600
 H         -0.4792950515        3.0646763194       -1.2971325124
 H         -1.9383475946       -4.6837137061       -1.5789700902
 H          1.1504935266       -4.8836630936        0.1353247181
 H          4.4359389882        2.5720517655        1.6387822644
 H          5.2287009587        3.7445109907        0.6012561925
  37
        -73.91892684
 P         -1.2393004380       -3.9574672698       -0.9663936080
 O         -0.2328901160        0.0669444125        1.1511701323
 O         -2.1799475466        1.4871495388       -1.5059014455
 O         -3.1380369164       -0.4045826614        0.1309066387
 O         -0.2533452395       -3.4282519193        0.1950854422
 O         -2.7009072832       -3.7925050170       -0.4098168968
 O         -1.0143528833       -5.5104285932       -0.9029476072
 O         -1.0147715777       -3.2863983425       -2.2556229209
 O          3.7628796636        3.7246485970        2.2537531054
 N          0.4548080036        2.0777172754        0.1958956563
 N          1.8280622506        3.5078609416       -0.8022955572
 N          1.3358352945        2.0764138828        2.4406343799
 N          4.0955886771        4.7676072364        0.2670379683
 C         -1.2680926967        0.6429316269       -0.8915725102
 C         -1.8689646045       -0.6898837440       -0.4009991167
 C         -0.6596293431        1.1968629550        0.4152079019
 C         -0.8601570694       -1.1225154341        0.6748456482
 C          0.2043673083       -2.0940709517        0.1511114006
 C          1.3740151751        2.4494121949        1.1411700473
 C          0.7836774243        2.7601460618       -0.9525416146
 C          2.2356045253        3.3346421160        0.5036179647
 C          3.4109175109        3.9520853045        1.0841585600
 H         -0.4632814953        0.4436210774       -1.6057383249
 H         -1.9304205526       -1.4181636596       -1.2114388099
 H         -1.4360195095        1.7322730819        0.9889340246
 H         -1.3716927490       -1.5880952786        1.5257928911
 H          1.0804725834       -2.0481580737        0.8007691138
 H          0.4842515947       -1.8337793449       -0.8736729642
 H         -3.0379097292        1.3909210781       -1.0550731979
 H         -3.6963301973       -1.1932233591        0.1079063213
 H          0.2042844057        2.6899774014       -1.8491558879
 H          2.1844122869        2.3088583243        2.9401793912
 H          0.8937244311        1.1941844312        2.6473172391
 H         -2.9694357307       -4.4839887597        0.2103400499
 H         -0.1943996228       -5.8378095607       -1.2884332678
 H          3.7537811753        4.9041632324       -0.6687577197
 H          4.9260949907        5.2281959627        0.5966062362
  37
        -73.91891191
 P          0.9325740442       -2.1012135036       -0.6608025629
 O         -1.7126385135       -0.3387343998        1.2301228217
 O         -3.8124032384        1.8307637453        0.6137455410
 O         -4.4301933358       -0.2394907549       -0.9528848023
 O         -0.5310486393       -1.5921157723       -1.0719228126
 O          1.2356569372       -1.4073145627        0.7402657612
 O          1.8367076941       -1.4087800652       -1.7287807201
 O          1.0644455821       -3.5647083803       -0.5983705513
 O          3.6807950836        1.8015365717        1.6640876168
 N         -0.2815742267        1.2781589498        0.3022902553
 N          1.4242441660        1.2570100749       -1.1187932274
 N          0.8617463224        1.7547139216        2.3767274777
 N          4.1707560038        1.6056927658       -0.5392456736
 C         -2.7292226081        1.3254554854       -0.1210305985
 C         -3.0671983226       -0.0640506087       -0.7308024520
 C         -1.5872169309        1.0150754136        0.8563301334
 C         -2.4770732756       -1.0744530905        0.2843123507
 C         -1.6453415062       -2.1658050583       -0.3970409517
 C          0.8510279202        1.4924213249        1.0486737516
 C          0.1380164684        1.1279992887       -0.9921125402
 C          1.9080367576        1.5012150356        0.1496989081
 C          3.3112960912        1.6516779126        0.4890192280
 H         -2.4016827030        2.0387965719       -0.8807762845
 H         -2.5794952940       -0.1909753479       -1.6997484181
 H         -1.6971741589        1.6185107730        1.7652392556
 H         -3.2868181741       -1.5699368869        0.8342025444
 H         -2.2651833275       -2.6734645384       -1.1401961801
 H         -1.2934874123       -2.8931138414        0.3368681907
 H         -4.3982196332        2.3390127579        0.0340700374
 H         -4.9143416881        0.0234657974       -0.1504612325
 H         -0.5269433399        0.9379324377       -1.8077673177
 H          1.8070628821        1.7866937480        2.7424773400
 H          0.1862348867        1.2719266506        2.9484636116
 H          1.6291409683       -2.0272883708        1.3632922703
 H          1.7851676258       -0.4247624471       -1.7371793740
 H          3.8160365840        1.4871829190       -1.4721099596
 H          5.1581384421        1.6863545305       -0.3666367915
  37
        -73.91891051
 P          0.7775542734       -1.9771823577       -0.6014607197
 O         -1.5450898021       -0.1906168219        1.2930651747
 O         -3.1382096133        1.8205097121       -1.1866180892
 O         -4.4439769129        0.2710577300        0.5545586782
 O         -0.7827210905       -1.7624525706       -0.8128110321
 O          1.0312461716       -3.5386005900       -0.8039582438
 O          1.0048270518       -1.8206112952        0.9501453705
 O          1.5422611828       -1.1152505060       -1.5075983181
 O          3.7696178602        1.3358446711        1.5152005522
 N         -0.2024879766        1.3019761833        0.0728229574
 N          1.4599126415        2.0954312005       -1.1682024581
 N          0.9309844538        0.9188960187        2.1701013581
 N          4.1817905287        2.2446249689       -0.5217527893
 C         -2.4812721992        0.6962511734       -0.7059912450
 C         -3.4150241931       -0.3881101758       -0.1352022561
 C         -1.5418260204        0.9709921488        0.4922244296
 C         -2.4713635492       -1.1577138003        0.8030587716
 C         -1.7256319588       -2.3064481296        0.1068810798
 C          0.9200933079        1.2431871511        0.8520916135
 C          0.1953492212        1.8311978553       -1.1320745302
 C          1.9564901326        1.7256667158        0.0627667005
 C          3.3588616648        1.7493291571        0.4169548241
 H         -1.8916178372        0.2749367593       -1.5251564304
 H         -3.8105822930       -1.0258184268       -0.9300967130
 H         -1.9345983987        1.8058217397        1.0979634204
 H         -3.0036342551       -1.5496115969        1.6753378407
 H         -2.4203244960       -2.9287352800       -0.4598918145
 H         -1.2060331864       -2.9085047331        0.8520526305
 H         -3.9052304677        1.9970224734       -0.6127609023
 H         -5.1664998700       -0.3398822759        0.7561789785
 H         -0.4905504467        2.0296492658       -1.9289021221
 H          1.8738292290        0.7754290644        2.5108295129
 H          0.2372914026        0.2467581390        2.4631236227
 H          1.2948288824       -3.7833809469       -1.6964576469
 H          1.7288375356       -2.3575549010        1.2914125760
 H          3.7844687577        2.4888744437       -1.4126523425
 H          5.1767802265        2.2228904421       -0.3786943297
  37
        -73.91890943
 P         -0.2711553226       -3.5907141217       -0.8582786773
 O         -1.5990819740        0.3237564473        1.6313668815
 O         -1.9997257344        1.6415959652       -1.5941912783
 O         -3.6528875664       -0.0996192184       -0.5327797636
 O         -1.0338320029       -3.1157472272        0.4877912383
 O         -1.0163042676       -4.9337410908       -1.1778056904
 O          1.1633797004       -4.0388929866       -0.4158049627
 O         -0.2470350338       -2.5542129468       -1.9005022705
 O          3.0970336222        4.2875957161       -0.6870115723
 N          0.1877143238        1.6615086560        0.9017174935
 N          2.2594050422        1.6886365805        1.6938020393
 N          0.2723917082        3.4649944745       -0.7000293301
 N          4.4046241556        3.3046189821        0.8841945838
 C         -1.4341006784        0.7197426374       -0.7205700304
 C         -2.3155321499       -0.5157319914       -0.4518143528
 C         -1.1984916340        1.2960326282        0.7067575613
 C         -1.8987619643       -0.9028402507        0.9742429939
 C         -0.6863894065       -1.8446235080        1.0042033710
 C          0.8490178824        2.6346544219        0.2026915847
 C          1.0944718059        1.1309459459        1.7832338913
 C          2.1460949883        2.6428913753        0.7052459462
 C          3.2373535246        3.4780841038        0.2446738682
 H         -0.4769634641        0.4012858825       -1.1488714988
 H         -2.0919463080       -1.3107809471       -1.1670905321
 H         -1.8108942124        2.1981597696        0.8565159763
 H         -2.7215545610       -1.3601953094        1.5307379039
 H         -0.3692831876       -1.9770114752        2.0417220426
 H          0.1361260875       -1.4157288206        0.4249409470
 H         -2.9693053433        1.5848499662       -1.5122728970
 H         -4.2467352463       -0.8619993880       -0.5591615436
 H          0.8289609435        0.3547163428        2.4689839027
 H          0.9553306461        4.0210726820       -1.1991075741
 H         -0.5043107979        3.1117056697       -1.2416203926
 H         -1.8536508203       -4.8673230736       -1.6489527177
 H          1.2041977566       -4.8282304302        0.1406791830
 H          4.4472908769        2.6287213659        1.6274374630
 H          5.2100113641        3.8427204942        0.6149684530
  37
        -73.91889255
 P         -0.0987905568       -3.6069605976       -0.6531511251
 O         -1.0445594495       -0.7168668981        0.7640880749
 O         -2.7329080020        2.3151905912        0.4076678691
 O         -3.9467660764       -0.0477744094        0.2079990938
 O          0.1598721229       -2.1854452431       -1.3397698960
 O          0.2819569639       -3.3525097594        0.8635698843
 O          1.0653844434       -4.4788390563       -1.2485175490
 O         -1.4335875148       -4.1814145204       -0.8764666357
 O          2.5910712130        4.7605382679        0.7099808079
 N          0.3889207626        1.1521135418        0.6267496508
 N          2.5411395923        1.1895060711        0.0988419667
 N          0.0211809870        3.4431921122        1.2879800244
 N          4.2790841252        3.3911963378        0.0600140150
 C         -1.9640184898        1.2941560472       -0.1430759496
 C         -2.7975627904        0.0648075275       -0.5821008005
 C         -0.9548878806        0.6792538892        0.8723423223
 C         -1.8026099429       -1.0831044201       -0.3834235398
 C         -0.9253586418       -1.3183828866       -1.6166173837
 C          0.7971552334        2.4484918562        0.7909940285
 C          1.4879838082        0.4447732616        0.2102627561
 C          2.1461695101        2.4619828232        0.4552208770
 C          3.0096276772        3.6255972619        0.4271842932
 H         -1.4098627445        1.7051505712       -0.9948176544
 H         -3.1405510290        0.1507624635       -1.6137676461
 H         -1.2212933875        0.9676084049        1.9005561070
 H         -2.2936566678       -2.0290037019       -0.1396361768
 H         -0.4620961065       -0.3923562759       -1.9647689517
 H         -1.5466367316       -1.7524376699       -2.4043214958
 H         -3.6153420389        1.9572317599        0.6242160880
 H         -3.7295984778       -0.4429248143        1.0662429855
 H          1.4450745883       -0.6061186356        0.0171089342
 H          0.4659121644        4.3493661536        1.2129486133
 H         -0.9712111725        3.4127605319        1.1017610087
 H         -0.1372269432       -3.9440291350        1.4967341171
 H          1.9635436651       -4.1387974019       -1.1457570567
 H          4.5475738307        2.4470818815       -0.1585796622
 H          4.9356762258        4.1507102897        0.0095106568
  37
        -73.91888661
 P          0.2068382304       -2.7221111018        0.4081456908
 O         -0.9256840392       -0.4706774915       -0.3937919474
 O         -3.0844574609        1.9811861541        0.7352852822
 O         -4.4488240670       -0.1354169755       -0.0872515244
 O         -1.0623092445       -3.2046700537       -0.4579374494
 O          1.2568706355       -2.0235046556       -0.5423119088
 O          0.8124662599       -4.1496021774        0.7120462920
 O         -0.0142856615       -1.9589553862        1.6441585198
 O          4.1252870959        1.9462900434        0.9504617225
 N          0.0643846556        1.6058193585       -0.2159492934
 N          1.4794396970        2.9017315056       -1.3312152050
 N          1.4791230877        0.7935139913        1.5653267042
 N          4.1944416603        3.3567743676       -0.8241596737
 C         -2.4614742286        1.3138709564       -0.3232660259
 C         -3.1990296571       -0.0238827205       -0.6823940050
 C         -1.0716223749        0.8273837678        0.1499950754
 C         -2.1812670077       -1.0893298237       -0.2162700132
 C         -2.1172807441       -2.4001172663       -0.9657766018
 C          1.2747919818        1.4962334811        0.4236802532
 C          0.2692985719        2.4493031096       -1.2827503927
 C          2.1454752354        2.3251984242       -0.2714762425
 C          3.5552730502        2.5231188538        0.0104083604
 H         -2.3698753653        1.9537899484       -1.2031556290
 H         -3.3567809985       -0.1032198007       -1.7605341850
 H         -1.1022637041        0.7656129593        1.2522230469
 H         -2.3333983716       -1.2969398742        0.8549791067
 H         -1.9278028949       -2.2091122241       -2.0259101269
 H         -3.0405738180       -2.9684671489       -0.8381657521
 H         -3.8183219780        2.5215417037        0.4049156792
 H         -4.3928863248        0.1813333400        0.8310203754
 H         -0.4948375560        2.7095366293       -1.9839236194
 H          2.4632032243        0.7580312980        1.8056890660
 H          0.9895225745       -0.0886938203        1.6624818738
 H          1.5680598540       -2.5298864653       -1.3021853453
 H          0.4651838724       -4.8936796112        0.2058097828
 H          3.6689780617        3.7885039903       -1.5650941595
 H          5.1746235385        3.5407930875       -0.6969010575
  37
        -73.91887681
 P         -0.9258099008       -3.7627101844       -0.4818536308
 O         -0.8681125875        0.2461276243        1.2114138660
 O         -2.8570996053        1.7568181396       -1.1907085084
 O         -3.3263096791       -0.6883074612       -0.4252788134
 O          0.1458735268       -2.6227177033       -0.8762693821
 O         -0.6062136567       -4.2019101442        0.9898171043
 O         -0.4173751522       -4.9526521525       -1.3692294010
 O         -2.3333111686       -3.3747678212       -0.6730757762
 O          4.1384537349        2.6378554050        1.5928210354
 N          0.1559054737        2.1541425349        0.2694090495
 N          1.4459573208        3.7706565545       -0.5486982617
 N          1.7368137979        1.0295798620        1.7313333407
 N          4.1193410740        4.3404812710        0.0944662337
 C         -1.7178994923        1.0218286900       -0.8883570327
 C         -1.9762998359       -0.4950869323       -0.7437451502
 C         -1.0779706119        1.4183359130        0.4758744512
 C         -1.0343925998       -0.9045570054        0.3974165790
 C          0.3030514946       -1.4310502806       -0.1264745520
 C          1.3754032707        2.0127314062        0.8743169474
 C          0.2665006435        3.2406181982       -0.5697935238
 C          2.1767356206        3.0235484181        0.3481037571
 C          3.5457721926        3.3061961140        0.7285141238
 H         -0.9891663026        1.2043597781       -1.6854494198
 H         -1.7205765001       -1.0274224841       -1.6655114305
 H         -1.7718257726        2.0591199456        1.0410550754
 H         -1.4933908973       -1.6700445017        1.0311678371
 H          0.9723890333       -1.6071232945        0.7195793012
 H          0.7670153951       -0.7070483262       -0.8017262453
 H         -3.6321667618        1.2561177420       -0.8775174135
 H         -3.5064646734       -1.6418834653       -0.4577534790
 H         -0.5591355691        3.5901214920       -1.1545838659
 H          2.6277189053        1.2169233635        2.1754878754
 H          1.0066037773        0.6030460003        2.2795350169
 H          0.1875187773       -4.7409662065        1.1039782594
 H         -0.6744458955       -4.9305603989       -2.2970974921
 H          3.5738661567        4.8531091769       -0.5767861053
 H          5.0579421270        4.6146534683        0.3277104461
  37
        -73.91886889
 P          0.4627453340       -2.8636878720        0.7148213161
 O         -1.2532008966       -0.2207093311        0.9251201726
 O         -3.3219224039        2.0928564970       -0.4908987661
 O         -3.9301092301       -0.2996936233       -1.3714354133
 O         -0.7068613921       -2.5551656491       -0.3363121174
 O          1.3664986368       -1.5590575049        0.7072603485
 O          1.3105814130       -3.9632496189       -0.0299165411
 O          0.0027613672       -3.2948592711        2.0399379065
 O          3.5028485466        1.5560482453       -1.7362391985
 N         -0.0670172608        1.7482401546        0.5190868014
 N          1.5979560863        3.1691740478        0.8893994906
 N          0.7931873213        0.5003210811       -1.3705911586
 N          4.0803066775        3.3052431376       -0.4124860159
 C         -2.1976562696        1.2891166368       -0.6889708196
 C         -2.5837029802       -0.1775323257       -1.0189851962
 C         -1.3654085451        1.1605608286        0.6211373623
 C         -2.3413085229       -0.8933400295        0.3223537263
 C         -2.0115318992       -2.3744206657        0.1872394387
 C          0.9120524166        1.4385374107       -0.3882418454
 C          0.4161193482        2.7977810823        1.2606807252
 C          1.9449871367        2.3334639794       -0.1500165474
 C          3.2256983526        2.3637439974       -0.8353916934
 H         -1.5806029447        1.7396444227       -1.4734525206
 H         -1.9144179295       -0.5886318015       -1.7792439022
 H         -1.9032353352        1.6817731368        1.4278926925
 H         -3.2476040855       -0.7870735065        0.9368906029
 H         -2.7110500675       -2.8445198741       -0.5056639479
 H         -2.0642726109       -2.8535637406        1.1674089297
 H         -4.1157521584        1.5278886468       -0.5740161301
 H         -4.0431557552       -0.1580883937       -2.3231024615
 H         -0.1500058650        3.2471956938        2.0500815802
 H          1.6884013300        0.3640933011       -1.8308543631
 H          0.3484966123       -0.3593185681       -1.0778639983
 H          1.8570234629       -1.4608949000        1.5277398475
 H          1.6037199473       -3.7685761042       -0.9286632021
 H          3.7844039370        3.9247872320        0.3225348472
 H          4.9899446102        3.3863006040       -0.8333793994
  37
        -73.91885897
 P         -1.4068296704       -4.0258069088       -0.2068488110
 O         -0.3774054395        0.3023581986        1.1715577996
 O         -2.1025003247        1.3715553736       -1.6860918600
 O         -2.2363779001       -1.2401551238       -1.3791094255
 O         -1.2081343242       -3.2081316304        1.1749434932
 O         -2.9298229048       -3.8339160159       -0.5775477093
 O         -1.3600181881       -5.5201280209        0.2520304353
 O         -0.4104764689       -3.6871738990       -1.2315963556
 O          4.4406922281        2.9577216191        0.1042935583
 N          0.2619264248        2.4096760617        0.4326451821
 N          1.1673774444        4.4295623718        0.5943494383
 N          2.2031244915        1.0623583779       -0.0708644044
 N          3.8780820380        5.1322496619        0.4249118073
 C         -0.9695549972        0.8405236091       -1.0755379331
 C         -1.0533716886       -0.6987706004       -0.8555380748
 C         -0.7465972691        1.4009788839        0.3615242581
 C         -1.0459782250       -0.8430465735        0.6770554993
 C         -0.3467952214       -2.0932274288        1.2063894452
 C          1.6084442826        2.2430476197        0.2427667324
 C          0.0663539404        3.7536781445        0.6414022234
 C          2.1645440769        3.5110909829        0.3473119030
 C          3.5781432398        3.8341032480        0.2758945961
 H         -0.1162003670        1.1084998349       -1.7033764376
 H         -0.1771044709       -1.1981094528       -1.2802534999
 H         -1.6869278849        1.8482131583        0.7210233814
 H         -2.0880319088       -0.8521013487        1.0332107417
 H         -0.0822842775       -1.9341552832        2.2538697788
 H          0.5509558094       -2.3019544889        0.6184387939
 H         -2.8859926545        0.8598339962       -1.4182079927
 H         -2.1733951934       -1.2332529156       -2.3472411865
 H         -0.9039574307        4.1705678526        0.8143226338
 H          3.2130186804        1.1219647205       -0.0095178428
 H          1.7817374565        0.2393594653        0.3346661516
 H         -3.1217946879       -2.9583340625       -0.9438601758
 H         -2.0375464699       -5.7795519361        0.8893033340
 H          3.1256580830        5.7838413813        0.5694835655
 H          4.8370050260        5.4335822451        0.3999721899
  37
        -73.91879956
 P         -1.2690648010       -3.9946617908       -0.2236933431
 O         -0.5195009635        0.3940973185        1.2217734205
 O         -2.2444422627        1.3228441460       -1.6262485944
 O         -2.1971820712       -1.2765102287       -1.3805290079
 O         -1.3837146718       -3.1279913995        1.1354275382
 O         -2.6874701109       -3.9841827508       -0.8734387181
 O         -1.1704017217       -5.4766426579        0.3250672450
 O         -0.1705347758       -3.5665385119       -1.1012387496
 O          4.4109404359        2.8338785362        0.1512402006
 N          0.2100506701        2.4448706249        0.4087844591
 N          1.1811516863        4.4391960436        0.4898784111
 N          2.1151500348        1.0107346573        0.0193646991
 N          3.9189326215        5.0399847301        0.3476787098
 C         -1.0540335603        0.8649392926       -1.0630614711
 C         -1.0781361886       -0.6694389734       -0.8027238534
 C         -0.8322571467        1.4697096460        0.3557183105
 C         -1.1802083844       -0.7552819257        0.7298454050
 C         -0.5515142424       -2.0063276862        1.3330940195
 C          1.5533225687        2.2242503799        0.2574214534
 C          0.0566848940        3.8034225820        0.5451023734
 C          2.1511144289        3.4764709049        0.3121610183
 C          3.5761472803        3.7469553260        0.2574184260
 H         -0.2242792133        1.1523985055       -1.7175234204
 H         -0.1483809264       -1.1330970132       -1.1408210008
 H         -1.7663885906        1.9605090891        0.6708336669
 H         -2.2463264848       -0.7293592393        1.0032722136
 H         -0.4510337301       -1.8746675462        2.4124915130
 H          0.4283142826       -2.1807895691        0.8807478098
 H         -2.8727850838        0.5732352709       -1.6490674667
 H         -1.9865328830       -1.5768567432       -2.2754584830
 H         -0.9028953122        4.2592310316        0.6739364786
 H          3.1244987859        1.0393223932        0.1062839954
 H          1.6505977995        0.2233580391        0.4471086517
 H         -3.4012629818       -4.3284456638       -0.3229517989
 H         -0.2952122371       -5.7781107413        0.5889883745
 H          3.1870549099        5.7241063923        0.4370409286
 H          4.8882101262        5.3063957427        0.3273529584
  37
        -73.91879883
 P          0.2769827059       -2.2733171059       -1.0580096317
 O         -1.7927142547        0.6073015068        1.5799345725
 O         -3.2791679893        1.4154400368       -1.2226817441
 O         -4.1297515621       -0.7803441907       -0.0416498719
 O          0.0887352089       -1.2598125704        0.1531725812
 O          1.8224859444       -2.2463909723       -1.3634522266
 O         -0.3197454584       -1.4686776603       -2.2747699455
 O         -0.3091958344       -3.6042995333       -0.8117989486
 O          3.6542058317        1.5235442463        2.0725063287
 N         -0.1290956396        1.5439076705        0.1840587774
 N          1.7213388159        2.0438746606       -0.9457012769
 N          0.8211348439        1.0259467817        2.3584341913
 N          4.3648937347        2.0769527142       -0.0094521051
 C         -2.2358888852        0.6113246237       -0.7507882099
 C         -2.7376928304       -0.7227016989       -0.1246915752
 C         -1.5484088892        1.3505450318        0.4216283034
 C         -2.0404570571       -0.7549129834        1.2475031524
 C         -0.7639586538       -1.6006796731        1.2376797046
 C          0.9067789713        1.4179021210        1.0688335617
 C          0.4352247840        1.9290431384       -1.0105301120
 C          2.0603459340        1.7228240461        0.3495386350
 C          3.4065590739        1.7601163820        0.8765421294
 H         -1.5089490702        0.3949233166       -1.5386721444
 H         -2.4363085896       -1.5835247872       -0.7270296842
 H         -2.0206345564        2.3360335992        0.5557806449
 H         -2.7038588784       -1.1446117804        2.0243297083
 H         -1.0315145549       -2.6581133324        1.1618751898
 H         -0.1960504002       -1.4115997038        2.1509930209
 H         -3.7576457176        0.9491828270       -1.9249809462
 H         -4.4654917222        0.0364136568        0.3620276249
 H         -0.1489684759        2.1425670749       -1.8811493362
 H          1.6838277895        1.1581237507        2.8698800053
 H         -0.0604460959        1.1295262786        2.8335898315
 H          2.3657210299       -2.8416281431       -0.8364661723
 H         -0.1378018845       -1.8539804660       -3.1402265334
 H          4.0918853053        2.2754067909       -0.9565300361
 H          5.3223631154        2.1470229410        0.2883700653
  37
        -73.91879625
 P         -1.9025596071       -4.0282849774       -0.8413909210
 O          0.4484832692       -0.5063192302        1.0711119800
 O         -1.8151065531        1.6178682982       -0.5791638925
 O         -2.4721133176       -0.9227483534       -0.8180532624
 O         -1.0046022194       -3.7508837444        0.4736036159
 O         -3.3627144393       -3.5738621474       -0.4428816275
 O         -2.0288884623       -5.5862406402       -0.8601124055
 O         -1.3362171870       -3.4600568063       -2.0723366307
 O          2.2294272286        5.7427312273        0.3586221579
 N          1.2182906797        1.6551086044        0.7362113500
 N          3.3347833270        2.3079308159        0.6846208884
 N          0.0601300100        3.7703815051        0.6659860466
 N          4.3400176624        4.9134603773        0.4353921311
 C         -0.7121090166        0.7661281493       -0.5682040614
 C         -1.0851932320       -0.7369019850       -0.7161832255
 C          0.0594480954        0.8118413079        0.7844907699
 C         -0.5672116895       -1.3678040308        0.5902262638
 C          0.0102982257       -2.7733044015        0.4435447908
 C          1.1915161816        3.0204490927        0.6365767087
 C          2.5403288294        1.2886003023        0.7530386145
 C          2.5220423661        3.4193279200        0.6089316682
 C          3.0056420412        4.7791244289        0.4645925862
 H         -0.0466516209        1.0878164420       -1.3747977483
 H         -0.5704547857       -1.1808521773       -1.5726976764
 H         -0.6195090201        1.1984206505        1.5662554328
 H         -1.3991265481       -1.4060109479        1.3114103836
 H          0.6604717758       -2.9761010626        1.2967799861
 H          0.5792336131       -2.8500711022       -0.4862947564
 H         -2.5904504835        1.1422976105       -0.2300414515
 H         -2.7494123131       -0.6878534449       -1.7173084925
 H          2.8395389872        0.2648597462        0.8273606599
 H          0.2488433133        4.7443202547        0.4618931444
 H         -0.7667996673        3.3813509076        0.2340152405
 H         -3.4857078786       -2.6139167615       -0.4673674055
 H         -2.4183950807       -5.9799002173       -0.0689001257
 H          4.9056889068        4.0867458624        0.5247006780
 H          4.7525162398        5.8244662063        0.3324284140
  37
        -73.91879273
 P         -0.3284355066       -3.3591672377       -0.3787610415
 O         -1.2511496408        0.4847518109        1.3101939700
 O         -3.0349698326        1.5959195898       -1.2554750820
 O         -2.9000558745       -1.0167543901       -1.4804768894
 O         -0.2969435602       -2.3393029702        0.8752772751
 O          0.2489048828       -4.7105770349        0.1874197093
 O          0.7294744406       -2.7840968865       -1.3879324821
 O         -1.6577161643       -3.5141893714       -0.9796109717
 O          4.1069391153        1.6037231368        0.4522324482
 N         -0.0619669298        2.2618520899        0.4029800407
 N          1.3627657584        3.9625422995        0.2824462902
 N          1.4782522071        0.3863431633        0.3724716248
 N          4.1729912275        3.8659637226        0.2997597326
 C         -1.7835389677        1.0531772454       -0.9517913038
 C         -1.8402017128       -0.4757433536       -0.7511243844
 C         -1.3258602876        1.5860896624        0.4313843083
 C         -2.0096700689       -0.5920317324        0.7768064719
 C         -1.5399795845       -1.9031387016        1.3991683730
 C          1.1915709295        1.7109674916        0.3922944477
 C          0.1162547356        3.6239829748        0.3335050878
 C          2.0743954750        2.7834576907        0.3216137806
 C          3.5212576739        2.6955536751        0.3575951144
 H         -1.0550006959        1.3270477544       -1.7274897138
 H         -0.8817395948       -0.9099425607       -1.0549163760
 H         -2.0825374760        2.3059272728        0.7799747997
 H         -3.0725079930       -0.4480251016        1.0207836461
 H         -2.3000373774       -2.6663601687        1.2251576673
 H         -1.3884435830       -1.7494950079        2.4690907957
 H         -3.5321725008        0.9346757339       -1.7679750382
 H         -2.7681666492       -1.9784950202       -1.5458426815
 H         -0.7099448801        4.3040889212        0.3189825030
 H          0.8178689468       -0.2308842208        0.8226945681
 H          2.4617747292        0.2213651284        0.5558668352
 H          0.9141949972       -4.6670211479        0.8865046805
 H          1.6601352219       -2.7745458484       -1.1364828591
 H          3.6337745448        4.7123280207        0.2354446267
 H          5.1775561552        3.8850911761        0.3366687030
  37
        -73.91879127
 P         -0.6399445108       -3.1619395815       -1.4410105438
 O         -1.1447660082       -0.0370539858        1.7075868971
 O         -2.0770498529        1.4933611409       -1.3582836387
 O         -3.7468076277       -0.0131280907       -0.0069146086
 O         -0.2041531499       -2.3575582334       -0.1113831463
 O          0.5926261153       -4.0936517050       -1.7571771519
 O         -0.5629756051       -2.0966236820       -2.5873876136
 O         -1.9433093006       -3.8263614526       -1.2874406729
 O          3.1488712526        4.5204307552        1.3330267912
 N          0.4483831027        1.3332407162        0.7039705875
 N          2.6338830829        1.0524135303        0.4190434155
 N          0.3667773829        3.7000857913        1.2330428042
 N          4.6786594560        2.9520068374        0.7462172482
 C         -1.5010531305        0.4884232038       -0.5939953928
 C         -2.4897001163       -0.6173436824       -0.1681806777
 C         -0.9432422114        0.9905993765        0.7641321373
 C         -1.9037581000       -1.1143866168        1.1627420228
 C         -1.0601569303       -2.3861615115        1.0190719058
 C          1.0271666519        2.5478024774        0.9578452145
 C          1.4765431423        0.4748929229        0.3920417906
 C          2.3919775949        2.3636646955        0.7673017920
 C          3.4214069928        3.3648291881        0.9661456480
 H         -0.6835260165        0.0596261569       -1.1788288087
 H         -2.5248756670       -1.4205975756       -0.9093202593
 H         -1.4995808287        1.8862332589        1.0742469792
 H         -2.7001885167       -1.3222416162        1.8857092380
 H         -1.7333962617       -3.2424488736        0.9331744133
 H         -0.4202610490       -2.4851856353        1.8981182108
 H         -3.0085907513        1.5870963723       -1.0873448820
 H         -4.4501933910       -0.6751087322       -0.0408949443
 H          1.3076662001       -0.5603177501        0.1784654844
 H          1.0062918418        4.4423227612        1.4939470226
 H         -0.4869325830        3.6442129438        1.7655575013
 H          0.6189721688       -4.9417570315       -1.3002223799
 H          0.2755949260       -2.0639102491       -3.0640430164
 H          4.8265392302        1.9994551951        0.4599968777
 H          5.4464021710        3.5888932329        0.8720054137
  37
        -73.91879058
 P         -0.3954473899       -3.1773615670       -1.1245227195
 O         -1.3708537866       -0.0540226105        1.6043112816
 O         -3.0349589748        1.8090326509       -0.2874277826
 O         -2.9652760765       -0.5819611603       -1.5593880711
 O         -0.4699076174       -2.6586679689        0.3854842775
 O          0.2194009968       -4.6245415634       -1.0421178758
 O          0.7410717335       -2.2385135152       -1.6986391107
 O         -1.6798218332       -3.1533151639       -1.8425923279
 O          3.2160257174        4.4419257151        0.6162628143
 N          0.3243121617        1.3702110821        0.8780484926
 N          2.4771765953        0.8947145278        0.6311262682
 N          0.4003685259        3.7825036906        1.0526479361
 N          4.6334427130        2.6796388235        0.4331953724
 C         -1.7936393987        1.1759957162       -0.3879953960
 C         -1.9186686863       -0.3302975995       -0.6725122437
 C         -1.1015498386        1.1824493615        0.9921339886
 C         -2.1374376377       -0.8912138009        0.7435735495
 C         -1.7416439720       -2.3519457472        0.9362267934
 C          0.9807914829        2.5710349300        0.8600790779
 C          1.2854626289        0.3999443744        0.7286936618
 C          2.3270785628        2.2629505018        0.7077497768
 C          3.4143555837        3.2160345304        0.5906880671
 H         -1.1680437797        1.6750307815       -1.1421366854
 H         -0.9594116257       -0.6860056644       -1.0632278974
 H         -1.5081986697        1.9905166946        1.6155589909
 H         -3.2012591601       -0.7883493053        1.0037992213
 H         -2.5025908585       -2.9851348542        0.4749651257
 H         -1.6643655868       -2.5573583120        2.0049374326
 H         -3.6181196639        1.4464451068       -0.9751290778
 H         -2.8659795975       -1.4842381826       -1.9076417297
 H          1.0449459390       -0.6425948921        0.7124507714
 H         -0.5427537958        3.9180995873        0.7258618300
 H          1.0486862777        4.5431859656        0.8866500808
 H          1.0015452486       -4.7305985140       -0.4845423638
 H          1.0489332327       -2.4327126719       -2.5917326908
 H          4.7162614970        1.6773776526        0.4272162538
 H          5.4380686375        3.2758157671        0.3445784649
  37
        -73.91878867
 P         -1.5606506159       -4.0125716454       -0.0872134801
 O         -0.3201540021        0.2410389040        1.1130640370
 O         -2.4064663044        1.2850666349       -1.3192257535
 O         -1.8433193038       -1.1996902809       -1.7774629365
 O         -0.8849748803       -3.2591972973        1.1678113565
 O         -3.0629445197       -3.5795304956       -0.1153676897
 O         -1.6190571512       -5.5045281701        0.3984250879
 O         -0.8514684447       -3.7455805517       -1.3517341844
 O          4.4400795186        2.9631764372       -0.0282754717
 N          0.2828337004        2.3934627250        0.4758885727
 N          1.1886834115        4.4136764254        0.6420539709
 N          2.2096579857        1.0686311215       -0.1428517685
 N          3.8895045145        5.1283678252        0.3657928736
 C         -1.0800021290        0.9494799725       -1.0391370667
 C         -0.8442829616       -0.5796197726       -1.0250814610
 C         -0.7372860497        1.3926020370        0.4078003760
 C         -0.8733072138       -0.9063548256        0.4863411127
 C         -0.0704544835       -2.1296003708        0.9334746327
 C          1.6194311538        2.2375405357        0.2196968772
 C          0.0930675992        3.7319310332        0.7224261497
 C          2.1763722266        3.5048731689        0.3294340807
 C          3.5846214323        3.8333525741        0.2016589486
 H         -0.4091860381        1.4445698215       -1.7544130537
 H          0.1526063144       -0.8010590606       -1.4258758854
 H         -1.6500556455        1.8130033122        0.8567822885
 H         -1.9222675415       -1.0314706855        0.7950203360
 H          0.4011268673       -1.9011718813        1.8917126394
 H          0.6887694074       -2.3754313447        0.1857669589
 H         -2.7871594493        0.5698114087       -1.8599344950
 H         -1.6030394792       -2.1346377082       -1.9090334329
 H         -0.8708708643        4.1383217741        0.9479193686
 H          3.2209456650        1.1387583267       -0.1225933701
 H          1.8113652688        0.2361771322        0.2659719161
 H         -3.6188371828       -3.9343574025        0.5897959894
 H         -0.7992527121       -6.0083568318        0.3494175779
 H          3.1435725792        5.7749140646        0.5585027731
 H          4.8459888200        5.4321657055        0.3039976466
  37
        -73.91878394
 P         -1.6795958210       -3.9838320194       -0.0266586644
 O         -0.1372364333        0.0058701190        0.9386424380
 O         -1.7906392384        1.6974701331       -1.7596804913
 O         -2.8775364482       -0.4765348268       -0.7698694248
 O         -0.2826181330       -3.3568411769       -0.5236958299
 O         -1.5509981590       -4.2030002626        1.5318408461
 O         -1.6358345380       -5.3843652866       -0.7246259027
 O         -2.8825749080       -3.2034789287       -0.3448034692
 O          4.4942035043        3.0380723322        0.0996115176
 N          0.3620918804        2.2375556279        0.4742605676
 N          1.1523434050        4.3003334115        0.7021404810
 N          2.3744880189        1.0309579355       -0.1179087217
 N          3.8168644562        5.1632999229        0.5128904677
 C         -0.9252040150        0.8181655353       -1.1256768114
 C         -1.4917001840       -0.6040077851       -0.9428070281
 C         -0.6093855771        1.1977815178        0.3454596105
 C         -0.7777349061       -1.1109004527        0.3272177680
 C          0.2713502108       -2.1826464372        0.0397809958
 C          1.7102142177        2.1597508114        0.2468873153
 C          0.0937480567        3.5586790210        0.7395301506
 C          2.1950112520        3.4523313671        0.3978234972
 C          3.5863012891        3.8570561936        0.3175710978
 H          0.0114943441        0.8032922841       -1.6914895015
 H         -1.2694037924       -1.2499096269       -1.7997150911
 H         -1.5342737244        1.5391091303        0.8364408515
 H         -1.5227878239       -1.5178476098        1.0244841281
 H          0.7832282536       -2.4248478963        0.9754704597
 H          0.9948024713       -1.8164385218       -0.6936389157
 H         -2.7023124119        1.4082234290       -1.5753759669
 H         -3.2527336483       -1.3705211326       -0.6753403957
 H         -0.8961482511        3.9093842396        0.9455210445
 H          3.3789443129        1.1584865805       -0.0618424683
 H          2.0089089922        0.1753755372        0.2749477109
 H         -0.9945653605       -4.9254225833        1.8488706445
 H         -0.7858596835       -5.6818870372       -1.0750087059
 H          3.0318275240        5.7661304739        0.6911357356
 H          4.7567260963        5.5191463935        0.4824920088
  37
        -73.91884897
 P         -0.3020580657       -3.1094998154       -1.2697266724
 O         -1.3185732059        0.4475759024        1.5462480705
 O         -2.9820133427        1.5106763912       -1.0911303858
 O         -3.7819646066       -0.7259578525        0.0526117875
 O         -0.4594561039       -2.9085055532        0.3259498991
 O         -1.6571769572       -3.7698703991       -1.7251586518
 O          0.8134954167       -4.2113604135       -1.4148530987
 O          0.0041659934       -1.8802246514       -2.0060280080
 O          3.3235789589        3.6520230104        2.2055054241
 N          0.2266817912        1.5839833724        0.1900796805
 N          2.2877446214        1.6560399407       -0.6336211750
 N          0.4601627261        2.9665935750        2.1511133188
 N          4.5410430075        2.9517380702        0.4238303900
 C         -1.9219143833        0.6636285266       -0.7497423774
 C         -2.4070868842       -0.7051273394       -0.1897552144
 C         -1.1705704325        1.3054280994        0.4322938542
 C         -1.5743366838       -0.8735765899        1.0940899505
 C         -0.2515327276       -1.6214471121        0.8676635939
 C          0.9692360032        2.3442020979        1.0591375836
 C          1.0939914357        1.1877328041       -0.8043436787
 C          2.2505964552        2.3924543513        0.5305125171
 C          3.3999602551        3.0530670372        1.1208824695
 H         -1.2555148763        0.4978430818       -1.6001655910
 H         -2.2154671485       -1.5091600721       -0.8997533861
 H         -1.6514027251        2.2590435306        0.6910653593
 H         -2.1584832896       -1.3756910476        1.8702264238
 H          0.2592873804       -1.7529349637        1.8242189821
 H          0.3822693193       -1.0410512497        0.1929859146
 H         -3.4497329544        1.1625164644       -1.8650122682
 H         -4.0491422616        0.0991404706        0.4899257520
 H          0.8181548569        0.5509985387       -1.6201601182
 H          1.1870212767        3.3760366847        2.7258590956
 H         -0.2796370599        2.4876874824        2.6419310572
 H         -1.9852517108       -4.5345343867       -1.2342197581
 H          0.8653488920       -4.9023213791       -0.7412148236
 H          4.5251839893        2.4525326558       -0.4490890991
 H          5.3820110120        3.3813956245        0.7689777383
  37
        -73.91883687
 P         -0.1765647372       -3.4091701346       -0.2414739866
 O         -0.6750950067       -0.7060041309       -0.3264104189
 O         -2.3489810151        1.8271857393        1.4270534361
 O         -4.0092380514        0.0896855271        0.4027977657
 O         -1.4871323565       -3.2751587369       -1.1698180347
 O          1.0374905086       -2.7556659222       -0.9944967489
 O          0.0968046298       -4.9496411568       -0.4712299582
 O         -0.3303992426       -3.0211259106        1.1685466322
 O          2.6932475945        4.7695560436        0.8166819151
 N          0.6506694255        1.1225810658        0.1776513422
 N          2.7349144743        1.4070943574       -0.5327336810
 N          0.1850817773        3.3248569313        1.0835734625
 N          4.3516202576        3.6854805504       -0.2878798705
 C         -1.8593074054        1.2568322266        0.2539080604
 C         -2.8418045672        0.2081019874       -0.3546479990
 C         -0.5616110540        0.4267067591        0.4999279267
 C         -2.0325737016       -1.0973683620       -0.2626154233
 C         -2.2651034023       -2.1075824258       -1.3654718264
 C          0.9949263908        2.4053508074        0.5147080453
 C          1.7505827439        0.5741349384       -0.4410265630
 C          2.2988419149        2.5748426034        0.0572925808
 C          3.1135117916        3.7599673449        0.2257254085
 H         -1.6465747633        2.0644862177       -0.4519510945
 H         -3.0532472942        0.4415365104       -1.4016255257
 H         -0.5406028913        0.1112149074        1.5615998914
 H         -2.2348876804       -1.5692274066        0.7105119199
 H         -1.9873143432       -1.6645155712       -2.3270284669
 H         -3.3103593297       -2.4249080920       -1.3765285256
 H         -3.0459509372        1.2446205832        1.7849989499
 H         -4.6760373012        0.7240672755        0.0984013734
 H          1.7483532337       -0.4397457641       -0.7797528498
 H          0.6805229854        4.1569481857        1.3763131378
 H         -0.6096529444        3.0240040953        1.6264244930
 H          1.2995776881       -3.2386325169       -1.7898593371
 H         -0.4548872448       -5.5468627402        0.0430353385
 H          4.6317517663        2.8298243123       -0.7354663815
 H          4.9836763926        4.4609374926       -0.1902508519
  37
        -73.91877132
 P          0.2792876790       -2.1459005640       -1.0787388347
 O         -1.8156757376        0.5956680539        1.4906000081
 O         -3.2093568491        1.3538676727       -1.3781596630
 O         -4.1295448192       -0.8009325641       -0.1827517903
 O          0.1168296043       -1.3759861909        0.3010955882
 O         -0.2259039848       -3.6131964079       -0.7350671667
 O          1.8377714588       -2.2037174919       -1.2520989556
 O         -0.3636288523       -1.5442026993       -2.2569530412
 O          3.5869095514        1.6670968144        2.1755018358
 N         -0.1070899368        1.4923968140        0.1257859637
 N          1.7708328872        2.0356952017       -0.9360746429
 N          0.7678115615        1.0438099277        2.3471839293
 N          4.3647321133        2.2142380733        0.1164559218
 C         -2.1896664218        0.5500123647       -0.8530849236
 C         -2.7342020510       -0.7586556834       -0.2148714351
 C         -1.5342145083        1.3083879193        0.3232940186
 C         -2.1012069770       -0.7671026539        1.1893091392
 C         -0.8637672732       -1.6634486431        1.2917325511
 C          0.8942772059        1.4217227259        1.0565720580
 C          0.4934887535        1.8736664976       -1.0521404818
 C          2.0652431864        1.7551476894        0.3799893834
 C          3.3834887156        1.8677363519        0.9651033573
 H         -1.4414643090        0.2963811215       -1.6083091699
 H         -2.4132495285       -1.6284701563       -0.7922411280
 H         -2.0034039377        2.3002576000        0.4192990153
 H         -2.8242725390       -1.0997045889        1.9401884635
 H         -1.1712846034       -2.7072917230        1.2190659430
 H         -0.3658107335       -1.4776172473        2.2460478518
 H         -3.5723913210        0.9386776582       -2.1742613954
 H         -4.4730416624        0.0833360783        0.0279645826
 H         -0.0589217637        2.0382837031       -1.9535672776
 H          1.6023428335        1.2218701357        2.8911238744
 H         -0.1361784225        1.1332207054        2.7822668925
 H         -0.4068595001       -4.1607266849       -1.5068764065
 H          2.3379933115       -2.5923982826       -0.5235338738
 H          4.1273484454        2.3750381554       -0.8471783397
 H          5.3042426297        2.3311713220        0.4544322307
  37
        -73.91875942
 P          0.6237682088       -2.5900313010        0.6650355057
 O         -1.3602703889        0.0266644458        1.1246474070
 O         -3.3348840961        2.0321314049       -0.8323027176
 O         -4.0507372433       -0.4692423558       -1.0751286261
 O         -0.8100348769       -2.4784897583       -0.0421069818
 O          1.5307533275       -2.8747438629       -0.5820229185
 O          0.4800337185       -3.9563289928        1.4687192517
 O          1.0948669028       -1.4706626483        1.4878355641
 O          3.5277739698        1.1189622705       -1.6354451438
 N         -0.1353251396        1.8451716899        0.3528967256
 N          1.5760195139        3.2446634721        0.5555986588
 N          0.7556753959        0.2363594249       -1.2262577913
 N          4.1262594683        3.0387604918       -0.5878040225
 C         -2.2453194425        1.1610754631       -0.7966215931
 C         -2.6860956397       -0.3298390273       -0.8059158822
 C         -1.4490307454        1.3067153578        0.5324300180
 C         -2.4045718369       -0.7926921581        0.6360464921
 C         -1.9732360938       -2.2514833973        0.7385311950
 C          0.8735545499        1.3342493102       -0.4190932030
 C          0.3610985447        2.9903888815        0.9208478121
 C          1.9331003047        2.2190660233       -0.2922301815
 C          3.2470567047        2.0748881119       -0.8955426599
 H         -1.5889265838        1.3962670553       -1.6402955183
 H         -2.0645656350       -0.9028293794       -1.4988439616
 H         -1.9954456705        1.9952618635        1.1962053369
 H         -3.3160848681       -0.6460955103        1.2347034819
 H         -2.7577995065       -2.8962192607        0.3380078048
 H         -1.7747387254       -2.4952254907        1.7827373024
 H         -4.1500923856        1.5029343761       -0.7230558490
 H         -4.2015995502       -0.5294372818       -2.0302456132
 H         -0.2207195389        3.5980384666        1.5827158248
 H          1.6686147625       -0.0132369760       -1.5982722852
 H          0.2912225766       -0.5467354254       -0.7860299646
 H          1.2833646266       -3.6342427964       -1.1256709477
 H          1.0490763932       -4.0290250555        2.2422349223
 H          3.8305544191        3.7752752028        0.0301813659
 H          5.0642318406        2.9975631009       -0.9481006258
  37
        -73.91875194
 P         -1.7040120172       -4.0046252196       -0.0265618878
 O         -0.1190584603        0.1217660072        1.0065908509
 O         -2.2906785139        1.3842278901       -1.3353636650
 O         -2.0127983600       -1.1418214968       -1.7239620582
 O         -0.7309327487       -3.3503470539        1.0794266078
 O         -3.1386577356       -3.4406960690        0.2426817567
 O         -1.8044400763       -5.4968164457        0.4477454119
 O         -1.2334666281       -3.7629085656       -1.4026247765
 O          4.4661755093        3.1035407174       -0.1574021268
 N          0.3625710162        2.3340263376        0.4939492997
 N          1.2072231740        4.3639862118        0.7995314629
 N          2.2941575406        1.1463860194       -0.3455067684
 N          3.8650064244        5.2023244916        0.4597235546
 C         -1.0008881409        0.9282028534       -1.0595175257
 C         -0.8821452959       -0.6168164730       -1.0959408181
 C         -0.6157656731        1.2968597189        0.3998793135
 C         -0.7520833320       -0.9932409085        0.4005259783
 C          0.0702065853       -2.2446685214        0.7168355446
 C          1.6874044616        2.2535277414        0.1554867130
 C          0.1411213281        3.6361714085        0.8725009577
 C          2.2066640619        3.5260793986        0.3540197083
 C          3.5948874614        3.9170328165        0.1907604490
 H         -0.2906381159        1.3906790102       -1.7575816725
 H          0.0340228589       -0.9041039300       -1.6264704466
 H         -1.5266098446        1.6452257817        0.9112223586
 H         -1.7654142513       -1.1149733803        0.8126242311
 H          0.6948658326       -2.0361798742        1.5880858748
 H          0.6935805719       -2.5126709759       -0.1404959846
 H         -2.7748625481        0.6614506153       -1.7752887172
 H         -1.8794401246       -2.0977458477       -1.8640485177
 H         -0.8225766059        3.9833243141        1.1823018326
 H          3.3022551445        1.2500440808       -0.3689348913
 H          1.9409736031        0.2639092345       -0.0062301280
 H         -3.5794357312       -3.7744012736        1.0344625954
 H         -1.0489255302       -6.0641309473        0.2592065652
 H          3.1080977191        5.8017266901        0.7413967100
 H          4.8065022642        5.5463619369        0.3810565256
  37
        -73.91875185
 P         -0.9274167560       -4.1349084597       -0.7290750722
 O         -0.5656221071       -0.2665049360        1.4831336683
 O         -2.2719242127        1.9923789599       -0.6054302741
 O         -3.2681940697       -0.3222549163        0.1108629964
 O         -0.3263229900       -2.7389904599       -1.2272980178
 O         -0.8633605562       -5.0197141689       -2.0263778554
 O         -2.4671956224       -3.8274732396       -0.5774883438
 O         -0.2631750523       -4.6764741798        0.4700379634
 O          2.5080155252        5.2900078081       -0.1923128030
 N          0.6762631322        1.6239554758        0.8581805225
 N          2.8816365720        1.8528330072        0.8891564728
 N         -0.0238447290        3.8607541605        0.2861385277
 N          4.4000025651        4.1244975130        0.2631045485
 C         -1.3516561035        0.9691037178       -0.4105373377
 C         -1.9713993615       -0.4431605367       -0.4076986920
 C         -0.6408666882        1.0372246660        0.9738083856
 C         -1.0200048955       -1.2096545108        0.5233051633
 C          0.1475173520       -1.8426410712       -0.2428400465
 C          0.9284095016        2.9215335836        0.5020248937
 C          1.8958554627        1.0353381813        1.0782971046
 C          2.3128129916        3.0542483478        0.5229101892
 C          3.0658597106        4.2430211898        0.1756927571
 H         -0.5986147579        1.0519468949       -1.2016828947
 H         -1.9810104181       -0.8874757597       -1.4075787381
 H         -1.2251923703        1.6564071372        1.6710080548
 H         -1.5382699195       -1.9998986462        1.0759750814
 H          0.7829996604       -2.3784930833        0.4680403279
 H          0.7314951944       -1.0866121220       -0.7714114556
 H         -3.1332097476        1.7045112126       -0.2515285117
 H         -3.7576598473       -1.1464680902       -0.0108632363
 H          1.9840783132        0.0150788347        1.3872154082
 H          0.3596912104        4.7181589285       -0.0907879209
 H         -0.9131304019        3.5592922370       -0.0875022992
 H         -0.0191602526       -5.4517856651       -2.1968054621
 H         -3.0043423356       -4.5946005390       -0.3453912403
 H          4.7838816369        3.2477825308        0.5715357497
 H          4.9897134544        4.9078119726        0.0413188417
  37
        -73.91873983
 P          0.5100498701       -2.4612028497       -0.4537973722
 O         -2.0745289820        0.4377407157        1.6024910911
 O         -2.4946188816        1.3728404345       -1.6306182372
 O         -4.1579628844       -0.4174203009       -0.5234823779
 O         -0.1478152543       -1.4983734893        0.6147417497
 O         -0.7282164710       -2.9868902276       -1.2843468606
 O          0.9716721162       -3.7614591249        0.3342915851
 O          1.5671388209       -1.7786556469       -1.2088672353
 O          3.2486131429        2.9860826593       -1.2766977101
 N         -0.1009731251        1.3549089702        0.7145204464
 N          1.9127703789        1.3118913073        1.6465896666
 N          0.4042167026        2.3579837975       -1.4246030729
 N          4.3290431186        2.2798506013        0.5880724952
 C         -1.8775208680        0.4561378924       -0.7732701286
 C         -2.8050052349       -0.7026113689       -0.3235866779
 C         -1.5283447983        1.1795555598        0.5504423499
 C         -2.4267217534       -0.8719214999        1.1591228458
 C         -1.2904154295       -1.8778547310        1.3789800999
 C          0.7500446412        1.9205817786       -0.1933402704
 C          0.6640932539        1.0106354798        1.7996931137
 C          2.0090896161        1.8891621483        0.3978915624
 C          3.2290771532        2.4183570674       -0.1707079767
 H         -0.9599800340        0.0446115839       -1.2155720967
 H         -2.6113776231       -1.6154870622       -0.8873511657
 H         -1.9981942123        2.1768001685        0.5586098377
 H         -3.2861381948       -1.1808756367        1.7604809912
 H         -1.6204532258       -2.8782433145        1.0988182033
 H         -0.9952176008       -1.8610294896        2.4305679079
 H         -2.8397525894        0.9111943988       -2.4095543901
 H         -4.3893253534        0.4301791170       -0.1143418791
 H          0.2371787627        0.5624475568        2.6717604943
 H          1.1381043606        2.8772483231       -1.8859561094
 H         -0.5556646736        2.5955929075       -1.6169759475
 H         -0.4991608981       -3.5859398220       -2.0044971397
 H          1.8962395105       -3.7558167021        0.6021386395
 H          4.2436951190        1.8031738239        1.4689859652
 H          5.2158213385        2.6139334360        0.2527632429
  37
        -73.91873751
 P         -1.7523258384       -3.9916189845        0.0252421655
 O          0.0309481604       -0.0579338661        0.8196666092
 O         -1.8529396637        1.7053799891       -1.6572131874
 O         -2.7237449385       -0.6499644246       -1.0011980579
 O         -0.2196692771       -3.5870304516        0.2895183173
 O         -2.5409852026       -3.6900189394        1.3471896550
 O         -1.6469132400       -5.5565223626        0.0146289208
 O         -2.3603383827       -3.3589907281       -1.1572946679
 O          4.4615371539        3.2224018131       -0.1587961707
 N          0.4109375276        2.2136564144        0.4988445587
 N          1.1655916089        4.2556427826        0.9334882492
 N          2.3798393447        1.1801584835       -0.4508835675
 N          3.7730787516        5.2430531378        0.6090452467
 C         -0.8847420799        0.8529730580       -1.1440131401
 C         -1.3243808952       -0.6268864062       -1.0706597172
 C         -0.5234071502        1.1469634167        0.3361127080
 C         -0.6644988357       -1.1519195215        0.2312018617
 C          0.3277577488       -2.3027392934        0.0577242423
 C          1.7309718555        2.2203834936        0.1342800863
 C          0.1361366340        3.4740631412        0.9708680145
 C          2.1944997713        3.4989960694        0.4154857054
 C          3.5588158415        3.9670682748        0.2569923528
 H          0.0199862457        0.9650918874       -1.7499771856
 H         -0.9763880415       -1.1904874236       -1.9415446131
 H         -1.4390006989        1.4105726267        0.8883225209
 H         -1.4656197142       -1.4724059711        0.9135246391
 H          1.1166942576       -2.1832568136        0.8061846249
 H          0.7671493894       -2.2794836850       -0.9438279476
 H         -2.7217323256        1.2803190234       -1.5337371404
 H         -3.0121984606       -1.5689106872       -1.1452985076
 H         -0.8365488678        3.7536675051        1.3187631815
 H          3.3815149485        1.3319110057       -0.4814417195
 H          2.0707236506        0.2608950340       -0.1709359120
 H         -2.3112708751       -4.2430903038        2.1049824633
 H         -1.3108647462       -5.9553806756       -0.7948981028
 H          2.9935562080        5.7851596119        0.9406014381
 H          4.6952499568        5.6370898899        0.5369565740
  37
        -73.91872512
 P         -2.2785360061       -3.8685490791       -0.5816046560
 O          0.9190554422       -0.7295145007        0.2092534872
 O         -1.7314092298        1.4508635247        0.7561011257
 O         -2.6097599624       -0.8884537805       -0.1877279852
 O         -1.0984660259       -3.2166437609       -1.4770752874
 O         -2.3007616259       -5.3798178119       -1.0064465807
 O         -3.5899279616       -3.3117700484       -1.2514347859
 O         -2.1121917664       -3.6939329683        0.8675066128
 O          2.4261949710        5.5278204272        1.3158658478
 N          1.5023565489        1.5083081321        0.3923410631
 N          3.3215821764        2.4769305233       -0.4214380591
 N          0.6157386559        3.2573811882        1.7945296468
 N          4.2227130760        5.1015209147       -0.0027788778
 C         -0.8376738992        0.8294165172       -0.1211448971
 C         -1.3057342367       -0.5820444491       -0.5797001106
 C          0.4817638406        0.5346007180        0.6385450103
 C         -0.2411560262       -1.5212461587        0.0288309206
 C          0.0746141383       -2.7142642294       -0.8698249852
 C          1.5173948886        2.7781119399        0.9046254680
 C          2.6147799313        1.3935561638       -0.4045021136
 C          2.6617042186        3.3757702742        0.3899872795
 C          3.0864321143        4.7439907769        0.6142583885
 H         -0.6241649075        1.4686252743       -0.9873641419
 H         -1.2917972346       -0.6578824583       -1.6692557466
 H          0.2564281340        0.5250930063        1.7202093211
 H         -0.6063975063       -1.8830219945        1.0000478051
 H          0.5714657571       -3.4936691643       -0.2888014728
 H          0.7217825995       -2.3922542317       -1.6888929980
 H         -2.5649955323        1.6379671913        0.2958788802
 H         -2.6946654887       -0.7651360173        0.7719720969
 H          2.8453726359        0.4868023984       -0.9217674089
 H          0.7195743654        4.2508136171        1.9564444108
 H         -0.3249629996        2.8930268383        1.7588656159
 H         -2.4748366604       -5.5443329311       -1.9421446826
 H         -3.7490432666       -2.3771750696       -1.0602327634
 H          4.7075751989        4.4112503501       -0.5502649033
 H          4.5829747731        6.0337240703        0.1062335575
  37
        -73.91870428
 P         -0.7593866392       -3.6236728725       -0.9552287837
 O         -0.9264256724        0.2621996237        1.3741532695
 O         -3.3729694064        1.2358475374        0.0053197440
 O         -2.7708456160       -0.9607080920       -1.3124922429
 O          0.1136877796       -2.9763316499        0.2328011512
 O         -2.1733636760       -3.9352902098       -0.3591784371
 O         -0.1059827707       -5.0442600711       -1.1013629330
 O         -0.8191498332       -2.7855039123       -2.1650912204
 O          3.6748638229        3.4605866741        2.1595897005
 N          0.1640739962        2.0233292045        0.2830485586
 N          1.9395064074        2.6265716047       -0.9084275852
 N          0.8987435285        2.5613845345        2.5140207603
 N          4.3872543441        3.6506260518        0.0143765527
 C         -2.0581548507        1.1686198080       -0.4656306286
 C         -1.6495643592       -0.2731082031       -0.8401799537
 C         -1.1114386776        1.4838755785        0.6940621772
 C         -1.0753772645       -0.8392848444        0.4837331686
 C          0.2634654426       -1.5752856790        0.3383167686
 C          1.1056947763        2.4611045099        1.1801730770
 C          0.7435051823        2.1368982725       -0.9598651793
 C          2.2068981546        2.8434197239        0.4256682757
 C          3.4676289021        3.3440517524        0.9411802822
 H         -1.9292718808        1.8631782672       -1.3046553668
 H         -0.8624227970       -0.2483081318       -1.6015775847
 H         -1.5791040770        2.1807678973        1.3991512553
 H         -1.8043871571       -1.5249192449        0.9328710099
 H          0.8500419230       -1.4160833816        1.2463352663
 H          0.8163671811       -1.1954226532       -0.5262061923
 H         -3.8939211867        0.5623850390       -0.4656519106
 H         -2.4635082803       -1.7175328665       -1.8370981445
 H          0.2472057057        1.8637252043       -1.8668323067
 H          1.7468146491        2.7830882914        3.0207255850
 H          0.2774721388        1.8885946622        2.9355589479
 H         -2.2079866901       -4.6454669226        0.2943619372
 H          0.7378712068       -5.0857395641       -1.5641860502
 H          4.1490304060        3.5333174354       -0.9554769153
 H          5.2851997369        4.0050864820        0.2953641148
  37
        -73.91869726
 P         -0.6282970242       -3.7434940288       -0.6466953948
 O         -0.8628918455        0.2089886416        1.3905594012
 O         -3.4755439486        1.2184515482        0.4351217846
 O         -3.0149672071       -0.8108230412       -1.1521871491
 O         -0.0131265787       -2.3230618376       -1.1138530986
 O         -0.2046326249       -4.6750426939       -1.8440312584
 O         -2.1855900431       -3.6625182092       -0.7871814122
 O         -0.1882998846       -4.1350738356        0.6998463511
 O          3.9321873228        3.1603382302        1.7536121898
 N          0.1103203464        2.0548959891        0.3112510600
 N          1.6923001232        2.7836665867       -1.0669037481
 N          1.2103706549        2.2667768718        2.4427725301
 N          4.2984303803        3.6188490113       -0.4381833494
 C         -2.2202781675        1.3020082508       -0.1799072946
 C         -1.8908569619       -0.0992854677       -0.7526813713
 C         -1.1043986038        1.4943938988        0.8593794975
 C         -1.0924155041       -0.7743335800        0.3941120138
 C          0.2272586219       -1.3691803749       -0.1029856726
 C          1.2026721776        2.3468946130        1.0896030154
 C          0.4852621423        2.3261984320       -0.9851393537
 C          2.1801422893        2.8114478788        0.2207514402
 C          3.5286978813        3.2108809641        0.5809982985
 H         -2.2061593179        2.0765218058       -0.9503200327
 H         -1.2484851903       -0.0139087059       -1.6344854307
 H         -1.4214569374        2.1196491305        1.7024355883
 H         -1.6784790146       -1.5839794155        0.8455492821
 H          0.7416611952       -1.8421152273        0.7387737309
 H          0.8649529273       -0.6003678802       -0.5472106970
 H         -3.8331117337        2.0988409530        0.6153321444
 H         -3.7447897607       -0.5982906943       -0.5440733221
 H         -0.1582249256        2.1858195597       -1.8272762740
 H          2.1383401919        2.4020332850        2.8257101830
 H          0.6652050044        1.5234017043        2.8536589230
 H          0.7122010989       -4.9713193894       -1.8434633825
 H         -2.5204296593       -3.4497363709       -1.6675907721
 H          3.9064019180        3.6243734617       -1.3643280381
 H          5.2494221490        3.8983372423       -0.2693279005
  37
        -73.91869567
 P          0.1483283539       -2.2417179459       -1.2691930602
 O         -1.6900424024        0.4436039197        1.5670799408
 O         -2.9741581973        1.2956795616       -1.5123801244
 O         -4.1983810673       -0.4019275359        0.1165840124
 O          0.0589305320       -1.3960608450        0.0844367770
 O          1.1382126395       -3.4213363987       -0.8876322778
 O          0.9366505703       -1.2770315326       -2.2178306628
 O         -1.1438448116       -2.6958969639       -1.8033130995
 O          3.6001642970        1.7498092384        2.3187261969
 N         -0.0604282587        1.4793057799        0.2158457607
 N          1.8448350854        1.9018619628       -0.8469574265
 N          0.7040083097        1.5056392755        2.5132119132
 N          4.4211629325        2.1296211207        0.2381564937
 C         -2.1196614044        0.4777806210       -0.7767753990
 C         -2.8488987010       -0.7078343008       -0.0983406092
 C         -1.4715040490        1.2297275789        0.4196154264
 C         -2.0615567330       -0.8831941858        1.2034455034
 C         -0.8539562529       -1.8215691567        1.0882593835
 C          0.9092913488        1.5499800020        1.1798851636
 C          0.5729523472        1.7097211983       -0.9835270003
 C          2.0999808783        1.7995763375        0.5034055760
 C          3.4154532302        1.8973656629        1.0982398208
 H         -1.3406658057        0.0850243067       -1.4391194671
 H         -2.8266662843       -1.5960462341       -0.7297166097
 H         -1.9776292485        2.1954431609        0.5744678093
 H         -2.6976368820       -1.2585593783        2.0106911547
 H         -1.2130140770       -2.8285548326        0.8675384460
 H         -0.3001998128       -1.8188866406        2.0300731944
 H         -3.8903461750        0.9917601372       -1.3609830261
 H         -4.2832962851        0.2301857446        0.8481795300
 H          0.0476246083        1.7522035819       -1.9147802332
 H          1.5590425874        1.4190194167        3.0460256802
 H         -0.1327690554        1.0555075012        2.8476866838
 H          0.9696612117       -4.2577911286       -1.3360556383
 H          1.8696876651       -1.1516202686       -2.0090196571
 H          4.1961440169        2.2773882108       -0.7306579426
 H          5.3594347555        2.2397696804        0.5818202683
  37
        -73.91868397
 P          0.2059779685       -3.0185731489       -0.7473370606
 O         -1.0269797630       -0.7360362864        0.5400194353
 O         -2.6925104326        2.3365610232       -0.2700817728
 O         -3.9758902704        0.3631851111        0.9746972987
 O         -1.3696367373       -3.2890623842       -0.5297179321
 O          0.7439669666       -4.4293670604       -1.1582844177
 O          0.8343132881       -2.8451825039        0.6959930149
 O          0.4852320128       -1.9806682288       -1.7478958404
 O          3.3436129412        3.6189278295        1.7738668651
 N          0.2620564352        1.1957254908        0.1940545396
 N          2.0865243021        1.6438990798       -0.9904592625
 N          0.6871893850        2.5241834174        2.1840047418
 N          4.3002071021        3.2018942984       -0.2408559904
 C         -2.1488972547        1.0701044062       -0.4699953164
 C         -3.2019606159       -0.0035132977       -0.1309278228
 C         -1.0286861034        0.6850848011        0.5239648195
 C         -2.3419634097       -1.2185459219        0.2454068835
 C         -2.2594475847       -2.2507873614       -0.8776524646
 C          1.0416038523        2.0128429892        0.9771740512
 C          0.9612522341        1.0087713352       -0.9800904772
 C          2.1700620327        2.2952352920        0.2210227051
 C          3.3053133969        3.0917113078        0.6500368147
 H         -1.7845308271        0.9227892055       -1.4932516179
 H         -3.8430409784       -0.2201958593       -0.9945029684
 H         -1.3092500220        1.0667550957        1.5181738378
 H         -2.7429497984       -1.6859997589        1.1524142893
 H         -1.8996600731       -1.7687673091       -1.7915523919
 H         -3.2321502923       -2.7151118557       -1.0407803374
 H         -2.1288302923        3.0258218872       -0.6458413410
 H         -4.2751094319        1.2799040139        0.8532632471
 H          0.6200689897        0.3558956536       -1.7558287743
 H          1.4592563800        3.0264982820        2.6092301539
 H          0.1501007989        1.9433075210        2.8090140873
 H          0.6050599188       -5.1371013183       -0.5163032090
 H          0.5694524587       -2.0324175374        1.1377404384
 H          4.2078670325        2.7271230318       -1.1228103912
 H          5.1325963600        3.7145199578       -0.0052527469
  37
        -73.91867072
 P          0.3566378253       -2.9671883727        0.2776736275
 O         -0.9362867474       -0.4638014543        0.0819657461
 O         -3.0728309204        2.3312555928       -0.6116472948
 O         -4.1642714377        0.2607554112        0.5960159848
 O         -1.1726587830       -3.3120882543       -0.0179185545
 O          0.8672159651       -2.4081092727       -1.1192691187
 O          0.9408605024       -4.4216074324        0.4263848079
 O          0.6910764021       -2.1640830057        1.4617267138
 O          4.0443490601        2.0299581197        0.9739164014
 N         -0.0169690533        1.6562342406       -0.1776643152
 N          1.3311521328        3.1135214975       -1.1674650984
 N          1.4283264159        0.7733166381        1.5440047863
 N          4.0345110936        3.6081988973       -0.6557178058
 C         -2.4040070662        1.1266958262       -0.7536224456
 C         -3.2508751242       -0.1213977594       -0.3960295097
 C         -1.1891748219        0.9269140081        0.1825214133
 C         -2.1932114287       -1.1223616842        0.1396402359
 C         -2.0647368912       -2.4131526955       -0.6535142018
 C          1.1950745104        1.5455710917        0.4549622938
 C          0.1360383690        2.6205141563       -1.1460410548
 C          2.0321284412        2.4575694815       -0.1777415206
 C          3.4375222209        2.6766729087        0.1039396450
 H         -2.0557687726        1.0558026788       -1.7885423216
 H         -3.7603368095       -0.5144958066       -1.2791469304
 H         -1.4700429239        1.1798907560        1.2207156872
 H         -2.4185352020       -1.3591394543        1.1901904101
 H         -1.6915773312       -2.1818115348       -1.6544085294
 H         -3.0166544513       -2.9437005199       -0.7036242824
 H         -3.6980055805        2.2531900148        0.1310796793
 H         -4.9161213436       -0.3458331911        0.6295777949
 H         -0.6683653771        2.9413437000       -1.7734817857
 H          2.4119333392        0.7565894852        1.7868881748
 H          0.9662711196       -0.1278075774        1.5919047970
 H          1.7172214797       -1.9622784748       -1.0825680065
 H          0.7209166797       -5.0504880607       -0.2727734141
 H          3.4770310465        4.1000615577       -1.3330993666
 H          5.0066561073        3.8233586647       -0.5168434387
  37
        -73.91864285
 P         -0.2252252822       -3.4024218522        0.1455841092
 O         -0.6486101097       -0.5164067988       -0.1728182289
 O         -2.9383714073        1.3952925447        1.2947163245
 O         -4.1218026198        0.1859560463       -0.7310758273
 O         -1.5115235121       -3.3177540523       -0.7958211039
 O          0.9523926203       -2.9190957778       -0.8051267594
 O         -0.0879126119       -4.9657403539        0.2662583652
 O         -0.2760574517       -2.7733479809        1.4721401632
 O          4.0115975546        3.2716154016        1.2901372765
 N          0.3582264717        1.5654992055        0.0240550429
 N          1.6318948051        2.7187679513       -1.3838683934
 N          1.6116592529        1.8214506483        2.0828807486
 N          4.0898035567        3.9731967194       -0.8659229239
 C         -2.1277880472        1.3397898506        0.1546057273
 C         -2.7418316405        0.2893674973       -0.8034922847
 C         -0.7226572665        0.7453830789        0.4734632902
 C         -1.9722449168       -0.9757492686       -0.3703959827
 C         -1.9569226487       -2.1045999620       -1.3779561482
 C          1.4423507166        1.9930265039        0.7469881455
 C          0.5465598294        2.0279756603       -1.2586162097
 C          2.2228631196        2.7237495772       -0.1396641040
 C          3.5018446668        3.3430472010        0.1602007224
 H         -2.0338643645        2.3196191125       -0.3216320239
 H         -2.4888158280        0.5219379507       -1.8423232126
 H         -0.6376624236        0.6052275500        1.5609004984
 H         -2.3797713143       -1.3517915741        0.5802786208
 H         -1.2946029138       -1.8375124855       -2.2057039612
 H         -2.9701084285       -2.2980070916       -1.7362996341
 H         -2.8049472032        2.2217939686        1.7787061860
 H         -4.3950976394        0.3213487561        0.1933225443
 H         -0.1427512119        1.8156963390       -2.0488806431
 H          2.5295906487        2.1338383204        2.3810279451
 H          1.2984190319        0.9516236225        2.4866847844
 H          1.7450442189       -2.6272012052       -0.3460620445
 H         -0.1140744049       -5.4619612509       -0.5615690883
 H          3.6221768003        3.9803583516       -1.7563908523
 H          4.9843337905        4.4144860213       -0.7391014292
  37
        -73.91862859
 P         -0.7426325890       -3.6488821849       -0.9073605180
 O         -0.9211136628        0.2250504958        1.3306724907
 O         -3.4014902311        1.2505854707        0.0654510944
 O         -2.8379813420       -0.8972095732       -1.3200127705
 O          0.2614371336       -2.8997821091        0.1034595832
 O         -2.0112506551       -4.0390824348       -0.0759528321
 O         -0.0169506502       -5.0227498536       -1.1318380162
 O         -1.0644617491       -2.8575122806       -2.1074902982
 O          3.6969647385        3.3833562817        2.1443362842
 N          0.1402139522        2.0349318647        0.2918774172
 N          1.8868475392        2.6891253141       -0.9153348116
 N          0.9329113987        2.4693107051        2.5257204933
 N          4.3602825478        3.6666940882       -0.0064052746
 C         -2.0983126039        1.2052549330       -0.4391095916
 C         -1.6972015189       -0.2182780512       -0.8862136059
 C         -1.1238600241        1.4745059407        0.7101342986
 C         -1.0437398158       -0.8291125307        0.3815678831
 C          0.3238557938       -1.4882006182        0.1454936364
 C          1.1046378796        2.4315179471        1.1839276484
 C          0.6889894427        2.2031737633       -0.9587353335
 C          2.1875089373        2.8463813489        0.4199664945
 C          3.4613473020        3.3214741365        0.9270390873
 H         -1.9915752843        1.9356923357       -1.2502165189
 H         -0.9556026845       -0.1594133150       -1.6916157973
 H         -1.5764487868        2.1375510528        1.4562483293
 H         -1.7188198544       -1.5760932751        0.8158727129
 H          0.9752680778       -1.2561078869        0.9916547602
 H          0.7777634760       -1.1132181445       -0.7766994746
 H         -3.9248869265        0.5735513157       -0.3980209303
 H         -2.5470163496       -1.6997224802       -1.7881156369
 H          0.1691443566        1.9715403802       -1.8640240356
 H          1.7936763341        2.6682337132        3.0202742891
 H          0.3192158638        1.7809920801        2.9328575246
 H         -1.8841318712       -4.7278455940        0.5891882323
 H          0.7284755226       -5.0220929750       -1.7422575229
 H          4.0978878862        3.5955665985       -0.9744479897
 H          5.2660032253        4.0054988913        0.2688347797
  37
        -73.91862484
 P         -0.6188095028       -3.2250251955       -1.2776365867
 O         -0.8847959287        0.1111759096        1.4688120368
 O         -2.2358593218        1.3341656304       -1.6189097751
 O         -3.7598111551       -0.0222223513        0.0761604889
 O         -0.1678041290       -2.3666208951        0.0088077415
 O          0.5656697784       -4.2425434699       -1.5055640571
 O         -0.4530949219       -2.2396222266       -2.4846189529
 O         -1.9602333095       -3.8092007339       -1.1241521635
 O          3.7223721712        3.0163797361        2.3859967996
 N          0.2830475045        1.7348126424        0.2804916909
 N          2.0035658139        2.6493612555       -0.7825478919
 N          0.9832536435        1.9545078099        2.5772789468
 N          4.4121517169        3.5869881551        0.3014861257
 C         -1.5885094709        0.4660650990       -0.7521993471
 C         -2.5021209470       -0.6112712776       -0.1355468708
 C         -1.0041163436        1.1387473280        0.5087160387
 C         -1.7863304417       -0.9591741738        1.1817892622
 C         -1.0272262660       -2.2864104559        1.1325074675
 C          1.1931810731        2.0730770843        1.2460214695
 C          0.8333340450        2.1160205132       -0.9208604428
 C          2.2704082545        2.6350412613        0.5702073872
 C          3.5096067159        3.0938756776        1.1643261112
 H         -0.7771273704       -0.0182960696       -1.3019092477
 H         -2.5735101985       -1.4834151637       -0.7901838965
 H         -1.7034209356        1.9108939381        0.8772465249
 H         -2.5125949370       -1.0096142701        2.0030953223
 H         -1.7506107619       -3.1046631963        1.0970051149
 H         -0.3923846459       -2.3688803956        2.0163994750
 H         -3.1492373008        1.4550575006       -1.3029692716
 H         -4.4454990990       -0.6997602291        0.1486913127
 H          0.3148928262        2.0062049937       -1.8502956259
 H          1.8259837912        2.0911810856        3.1201923162
 H          0.3486938208        1.2276158305        2.8704192194
 H          0.5071595299       -5.0780148308       -1.0298280115
 H          0.4393481469       -2.1993905931       -2.8505779859
 H          4.1700798654        3.6242986668       -0.6737601423
 H          5.2964865477        3.9267802467        0.6376387682
  37
        -73.91860777
 P         -0.2969235306       -3.2512557179       -0.5279389808
 O         -1.2425702663        0.3740440958        1.3829116111
 O         -2.0922571810        1.3396334661       -1.9174545639
 O         -3.7914676476       -0.2130348285       -0.6245205167
 O         -0.2769753550       -2.2486881231        0.7192345310
 O          0.9325612745       -4.2041293581       -0.2918733829
 O          0.1145151009       -2.2772686853       -1.7108366286
 O         -1.5555481915       -3.9844137929       -0.7110408928
 O          4.1472337176        1.6516612792        0.5709028241
 N         -0.0496968414        2.0842791852        0.3590135194
 N          1.2833792119        3.8607018131        0.3587031280
 N          1.5799194975        0.2942144755        0.3374014058
 N          4.0895265514        3.9175043950        0.4763536791
 C         -1.4967397026        0.5252274890       -0.9505607417
 C         -2.4523356452       -0.5846648418       -0.4496232407
 C         -1.2613692295        1.3289728041        0.3469176427
 C         -2.1243594680       -0.6981168959        1.0521305579
 C         -1.4731183823       -2.0202034719        1.4466680297
 C          1.2314332513        1.6008907225        0.3939970863
 C          0.0561849690        3.4555474119        0.3448362343
 C          2.0567520506        2.7202231933        0.3930933521
 C          3.5036819824        2.7108607241        0.4830348910
 H         -0.5500742455        0.0918341187       -1.2810690423
 H         -2.2739451762       -1.5418676678       -0.9545080119
 H         -2.0964481947        2.0365211882        0.4769552695
 H         -3.0576823759       -0.5851592632        1.6194308850
 H         -2.1758015447       -2.8364123153        1.2635641061
 H         -1.1915477136       -1.9825512528        2.5004545447
 H         -1.8422960666        1.0532627654       -2.8073917696
 H         -3.8172309506        0.5130987228       -1.2773490921
 H         -0.8033086208        4.0925326484        0.3144686418
 H          2.5615733214        0.1587523046        0.5475061215
 H          0.9297517842       -0.3808523178        0.7143988245
 H          1.7754944299       -3.7899010971       -0.0695199035
 H          0.2541443965       -2.7083099301       -2.5620906916
 H          3.5044170952        4.7335069080        0.4214193667
 H          5.0884385141        3.9922407183        0.5618530766
  37
        -73.91859999
 P          0.8730029397       -2.1646759876       -0.4620481580
 O         -1.7129341192       -0.4511531485        1.1072508899
 O         -3.7831931906        1.8050625188        0.7031558581
 O         -4.4156256988       -0.1194017084       -0.9840671693
 O         -0.4622862486       -1.5633961387       -1.1015606428
 O          1.0527374352       -1.4884270274        0.9501939949
 O          1.9805425219       -1.4915691467       -1.3441177180
 O          0.8776095331       -3.6402635485       -0.4014744604
 O          3.7605191656        1.7262160373        1.5458552641
 N         -0.2412192880        1.2078260021        0.2730512670
 N          1.3883493395        1.5963604859       -1.1876576444
 N          0.9606304893        1.3695110390        2.3599370332
 N          4.1203773976        1.9710475244       -0.6801879914
 C         -2.6997593270        1.3577758050       -0.0583658749
 C         -3.0374528222        0.0525370174       -0.8227968487
 C         -1.5325606226        0.9259728315        0.8486741624
 C         -2.5025547261       -1.0637618250        0.0989342100
 C         -1.6964597277       -2.1182121231       -0.6646858305
 C          0.9091617531        1.3595492706        1.0021104522
 C          0.1292539797        1.3419229472       -1.0444041549
 C          1.9172889251        1.6129222941        0.0840640840
 C          3.3262791315        1.7763063754        0.3830594109
 H         -2.3899836086        2.1733014758       -0.7200074833
 H         -2.5053751858        0.0226809538       -1.7783394302
 H         -1.5866489090        1.4450914814        1.8133705368
 H         -3.3507756710       -1.5597543861        0.5871758141
 H         -2.2523825689       -2.4377183683       -1.5489852139
 H         -1.4968521160       -2.9834978622       -0.0295333075
 H         -4.5136864735        1.1652242273        0.6063263630
 H         -4.7356763965        0.3801118490       -1.7502169562
 H         -0.5571892032        1.2536695819       -1.8592110701
 H          1.9196239204        1.3848683537        2.6887635056
 H          0.3544122891        0.7159801168        2.8322727085
 H          1.4552298914       -2.1057743376        1.5713107477
 H          2.1751221057       -1.9428703824       -2.1734446070
 H          3.7004611236        1.9680324370       -1.5938751167
 H          5.1145035344        2.0563444260       -0.5568930468
  37
        -73.91859221
 P         -0.1154441269       -3.6138033067       -0.6550051078
 O         -0.9984448429       -0.7332244256        0.7303692337
 O         -2.6784074803        2.3325378999        0.3807220911
 O         -3.8817873129        0.0014539743        0.3159009133
 O          0.1307388396       -2.2078938873       -1.3690505433
 O          0.2555681371       -3.3469168772        0.8457875461
 O          1.1043242290       -4.4684468065       -1.1701309257
 O         -1.4514861079       -4.1915999268       -0.9078289955
 O          2.5764666249        4.7776667202        0.7750370622
 N          0.4062019840        1.1513396219        0.6227280462
 N          2.5521055121        1.2227568545        0.0722229147
 N          0.0211708053        3.4248756261        1.3344887737
 N          4.2617778788        3.4459977899        0.0451990929
 C         -1.9449984858        1.2784953374       -0.1505361364
 C         -2.7971431461        0.0615453857       -0.5678171074
 C         -0.9332278055        0.6593471567        0.8600280640
 C         -1.8071871245       -1.0983434010       -0.3789117198
 C         -0.9734404492       -1.3614693643       -1.6374278792
 C          0.8038012833        2.4472177073        0.8135251043
 C          1.5071476794        0.4650332590        0.1757916344
 C          2.1489840246        2.4822316368        0.4649129351
 C          2.9995590024        3.6553436239        0.4511796404
 H         -1.3936275346        1.6699276777       -1.0122903836
 H         -3.1327533602        0.1405758448       -1.6068861009
 H         -1.2120199644        0.9284901410        1.8902661764
 H         -2.2980293140       -2.0328471754       -0.0940657373
 H         -0.5333764534       -0.4414334772       -2.0280620435
 H         -1.6148885540       -1.8286538320       -2.3894053714
 H         -3.4638671419        1.9689945286        0.8275671633
 H         -4.4959168879       -0.6989795883        0.0572489901
 H          1.4752883126       -0.5818064205       -0.0446206053
 H          0.4604696513        4.3350778710        1.2761569394
 H         -0.9698860023        3.3914498184        1.1381533019
 H          0.0111784067       -4.0443889109        1.4640459918
 H          0.9781790125       -4.9107710965       -2.0167278665
 H          4.5356025496        2.5098424388       -0.1993358099
 H          4.9110649234        4.2124652372        0.0063640713
  37
        -73.91856950
 P          0.4517222865       -2.7698309726       -0.0220764319
 O         -1.3978793224       -0.3956772462        0.6814343897
 O         -3.7666709834        1.5364333008        0.8201502097
 O         -4.2367598936       -0.3242309934       -0.9703479939
 O          0.4738678358       -1.4500080967       -0.9276712879
 O          0.5590805185       -2.2480032200        1.4732245235
 O          1.8599774067       -3.3998910483       -0.3289405930
 O         -0.6658857614       -3.6888736184       -0.2755226332
 O          3.8646147790        1.6140433638        1.2333198667
 N         -0.2362393430        1.5876124391        0.1849134744
 N          1.2733820164        2.5946357920       -1.0975919090
 N          1.1290912042        0.8529141153        2.0282803442
 N          4.0406192974        2.8101338027       -0.6858341573
 C         -2.7150237286        1.3925413820       -0.0931818564
 C         -2.9353043244        0.1670073147       -1.0402507801
 C         -1.4567935154        1.0115272011        0.7028118380
 C         -1.8703292002       -0.8551834722       -0.5721758458
 C         -0.7120819924       -1.0117045390       -1.5696976284
 C          0.9737733452        1.4358333728        0.8126276282
 C          0.0242128327        2.2810402952       -0.9743410671
 C          1.9067333718        2.0781063617        0.0103564745
 C          3.3370948049        2.1489693882        0.2450407998
 H         -2.5665399194        2.3191824534       -0.6528030368
 H         -2.7763039875        0.4381610317       -2.0857056722
 H         -1.5617111769        1.3062647242        1.7538670950
 H         -2.3080740028       -1.8408075482       -0.3938592056
 H         -0.4389662889       -0.0581755476       -2.0283791254
 H         -1.0032632470       -1.7293044512       -2.3401134611
 H         -4.5556194248        1.8635400134        0.3603626831
 H         -4.4691108713       -0.4833618497       -0.0399144320
 H         -0.7261010418        2.5431132763       -1.6903482800
 H          2.1090678492        0.7552883096        2.2687889512
 H          0.5678359264        0.0295393765        2.1947781245
 H          0.0009030057       -2.7459081776        2.0790800129
 H          2.6276847119       -2.8299919563       -0.2011898757
 H          3.5470882978        3.2177193470       -1.4615242976
 H          5.0379093326        2.8988109207       -0.5933947454
  37
        -73.91856830
 P          0.9904825469       -1.9215467795       -0.6031019289
 O         -1.8795505892        0.4471521836        1.5279756990
 O         -4.0579611995        1.5815734862       -0.1894711125
 O         -3.9161401072       -1.0637985557       -0.7767420713
 O          0.1373380211       -1.2430350992        0.5440024293
 O          0.1002945487       -1.7140779298       -1.8947367711
 O          0.8649213654       -3.4905389043       -0.3456910747
 O          2.3716872537       -1.4350826884       -0.6595356889
 O          3.5278737279        1.4785878314        1.6136370924
 N         -0.3908675976        1.5065408370        0.0426779470
 N          1.3787826677        1.3596456646       -1.2946523903
 N          0.6715148711        1.8075091317        2.1853417556
 N          4.0954879187        1.2854972990       -0.5768018539
 C         -2.7841681849        1.1173898457       -0.5185754338
 C         -2.6924297950       -0.4326136109       -0.5371865991
 C         -1.7423311394        1.4630240593        0.5599667573
 C         -2.2393394841       -0.7786108567        0.8956433378
 C         -1.1044728817       -1.8043322062        0.9754520698
 C          0.7170644271        1.5858093284        0.8463091087
 C          0.0871081529        1.3499557807       -1.2370717699
 C          1.8149131928        1.5028508943        0.0022979311
 C          3.1993954879        1.4144410528        0.4173635099
 H         -2.5502852441        1.5757825599       -1.4786921019
 H         -1.9274962895       -0.7457651572       -1.2577055099
 H         -1.9618436351        2.4125528903        1.0634780674
 H         -3.0924826120       -1.1976985810        1.4434450662
 H         -1.3612473663       -2.6785046150        0.3761523657
 H         -0.9651693003       -2.0958521669        2.0188874551
 H         -4.3958820995        1.1149942125        0.5900388146
 H         -4.2345024623       -0.8520534681       -1.6662661304
 H         -0.5428630192        1.2705908064       -2.0970427447
 H          1.5805346851        1.6710761894        2.6125335558
 H         -0.1111082878        1.3934145545        2.6715220295
 H          0.4988988801       -2.0477244708       -2.7072609407
 H          1.6772957694       -3.8992489537       -0.0299592408
 H          3.7300853269        1.0539392810       -1.4856137095
 H          5.0430139787        1.0402793533       -0.3417846250
  37
        -73.91856302
 P         -1.5732844043       -3.9880369899       -0.9066530535
 O         -0.2000189573       -0.3109771222        1.3491225838
 O         -2.6011900746        1.2675762828        0.0756668269
 O         -2.1549413087       -0.7135288158       -1.6104317863
 O         -0.5156552479       -3.6350643122        0.2556287508
 O         -2.9983756968       -3.6955560488       -0.3304245226
 O         -1.5149766645       -5.5549997117       -0.9614027908
 O         -1.2951767329       -3.2601101307       -2.1587887175
 O          2.6208998301        5.5270643344        0.7777907578
 N          0.8764307981        1.6798684402        0.7894352795
 N          3.0120415012        1.9631743823        0.2577477772
 N          0.2386501727        3.9408744122        1.3634369733
 N          4.4691053547        4.3639939419        0.1631856158
 C         -1.2661895928        1.0572450872       -0.2758044452
 C         -1.0310049954       -0.3446399341       -0.8714786010
 C         -0.3977239085        1.0338339377        0.9978976109
 C         -0.7714179769       -1.1961764235        0.3900696621
 C          0.1637416489       -2.3971763221        0.2061939975
 C          1.1263580534        3.0196858871        0.9125809349
 C          2.0537638616        1.1024584992        0.3829194946
 C          2.4659420750        3.1862165427        0.5811420452
 C          3.1804367371        4.4478073676        0.5243326176
 H         -0.9261946676        1.8420601636       -0.9670185235
 H         -0.1269054462       -0.3272340599       -1.4965422208
 H         -0.9152378666        1.5499523332        1.8179486142
 H         -1.7372264528       -1.5571851644        0.7728585798
 H          0.8690496676       -2.4157618552        1.0396784665
 H          0.7018566062       -2.3166349985       -0.7424502309
 H         -3.1575596943        0.8073293897       -0.5765253944
 H         -1.9927544715       -1.5845259191       -2.0216411401
 H          2.1408184090        0.0494290850        0.2164333784
 H          0.5906182703        4.8859770452        1.2653728082
 H         -0.7381616296        3.8021486846        1.1599901455
 H         -3.3127057404       -4.3060472404        0.3489240188
 H         -0.7565882483       -5.9472383961       -1.4080235194
 H          4.8545749305        3.4552133437       -0.0284663095
 H          5.0276319503        5.1972021936        0.0946125164
  37
        -73.91856182
 P          0.6131214487       -2.0639630144       -0.4097791528
 O         -1.5122066663        0.0009412321        1.3800932998
 O         -2.9941986950        1.5135307473       -1.4812116770
 O         -4.4772743556        0.1036572084        0.2585413966
 O         -0.9890503843       -2.2639338150       -0.4737793225
 O          0.8885650725       -1.1027522135       -1.6245136040
 O          1.2065320460       -3.4761902764       -0.8076272088
 O          1.1135917768       -1.5917977378        0.8795061679
 O          3.8170265142        1.6227535846        1.5126799687
 N         -0.1365912460        1.3363746160        0.0162592413
 N          1.5318213777        2.0464176054       -1.2662445645
 N          0.9773248647        1.1392095536        2.1536584005
 N          4.2379607218        2.2727024532       -0.6185148007
 C         -2.3279992936        0.5058341269       -0.7930757030
 C         -3.2778797361       -0.5112712466       -0.1222381312
 C         -1.4884093748        1.0173057176        0.4030813131
 C         -2.4414106807       -1.0341159562        1.0507438815
 C         -1.7113000437       -2.3447103208        0.7423184149
 C          0.9751206456        1.3577490703        0.8130789482
 C          0.2686555899        1.7733500401       -1.2228340695
 C          2.0152627261        1.7881833113       -0.0019386503
 C          3.4117644399        1.8871223693        0.3684901408
 H         -1.6587683884       -0.0140088659       -1.4850344569
 H         -3.5565166884       -1.3093030484       -0.8114589540
 H         -1.9439682862        1.9300036043        0.8284480317
 H         -3.0619289456       -1.2022540885        1.9386850452
 H         -2.4349408331       -3.1544551055        0.6339082613
 H         -1.0202869604       -2.5534197340        1.5624490488
 H         -3.9246184165        1.5233812084       -1.1849196625
 H         -4.3461088427        0.6549274309        1.0441639419
 H         -0.4151126363        1.9021994109       -2.0356943714
 H          1.9225547624        1.0106427556        2.4975627414
 H          0.3153267087        0.4446550839        2.4698779758
 H          0.9442318734       -1.5028305726       -2.5011260144
 H          0.7210028523       -4.0072583213       -1.4527213666
 H          3.8408076371        2.4686781825       -1.5213348349
 H          5.2246689529        2.3544292377       -0.4448985445
  37
        -73.91856122
 P          0.3334454154       -2.8599327703        0.0672416360
 O         -1.3371449844       -0.3997449885        0.6689151514
 O         -3.8340397039        1.1128049009        0.8415179151
 O         -3.9886184197       -0.0682578893       -1.4742773471
 O          0.5219290504       -1.5607928950       -0.8509084858
 O          0.4390645430       -2.3406539840        1.5646599896
 O          1.6892577532       -3.6184482897       -0.1755790207
 O         -0.8542368234       -3.6740670529       -0.2205411485
 O          3.9301166454        1.5927006637        1.0279667763
 N         -0.2334977360        1.6420410281        0.2716442325
 N          1.1803896983        2.7894051209       -1.0015130785
 N          1.2597934728        0.7373944619        1.9333160903
 N          3.9714146697        2.9715739629       -0.7728729428
 C         -2.7101066908        1.3790901159        0.0499815806
 C         -2.7154369987        0.3658236880       -1.1285764076
 C         -1.4180555223        1.0011788739        0.7975626580
 C         -1.7813857943       -0.7698264653       -0.6254681280
 C         -0.5780211395       -1.0032924029       -1.5497898932
 C          1.0186313892        1.4355769196        0.7945212733
 C         -0.0568237151        2.4551795702       -0.8243267154
 C          1.8911841115        2.1649198746       -0.0010701165
 C          3.3352451975        2.2190175882        0.1364918544
 H         -2.7051509149        2.4135608497       -0.2992022001
 H         -2.2922130235        0.8202160778       -2.0287752033
 H         -1.4770070432        1.2055263987        1.8728019562
 H         -2.3268854796       -1.7102780071       -0.5135007567
 H         -0.1945739830       -0.0630936080       -1.9557358519
 H         -0.8772330761       -1.6660788280       -2.3646598174
 H         -4.0345911282        1.8594520837        1.4223761970
 H         -4.5247573821       -0.1326361605       -0.6639348910
 H         -0.8585178117        2.7844367222       -1.4507147962
 H          2.2554108014        0.6359777291        2.0964678256
 H          0.7253620040       -0.1126893936        2.0523444791
 H         -0.2588834309       -2.6897670260        2.1283755995
 H          2.4990865060       -3.1090137695       -0.0505418514
 H          3.4250373194        3.4482980462       -1.4698436899
 H          4.9733832954        3.0518355894       -0.7473671336
  37
        -73.91855317
 P          0.5588095084       -2.1697784541       -0.8775134354
 O         -1.7860548160        0.4764030817        1.5482646666
 O         -2.9854865894        1.1141218838       -1.6715486445
 O         -4.2471070382       -0.4004810887        0.0529534918
 O          0.0379546086       -1.2997193846        0.3365717040
 O         -0.7752402327       -2.6969048538       -1.5443902541
 O          1.1642433637       -3.4953832894       -0.2409790645
 O          1.4749167491       -1.4142336218       -1.7378495623
 O          3.6523519846        1.4886994521        1.7735998389
 N         -0.2425686501        1.5988327418        0.1448000028
 N          1.5173821815        2.2451675016       -1.0518715795
 N          0.7995891787        1.2366944109        2.2996229005
 N          4.2077293699        2.3161295070       -0.2643614445
 C         -2.1772294414        0.3907025805       -0.8049279239
 C         -2.9035116513       -0.7756838576       -0.1005943253
 C         -1.6255652831        1.2346906177        0.3818435795
 C         -2.1675053553       -0.8638182079        1.2457366484
 C         -0.9521242991       -1.8004961008        1.2343284540
 C          0.8368182890        1.5122567013        0.9776206923
 C          0.2399736249        2.0484982859       -1.0633396349
 C          1.9349930846        1.9083455601        0.2172096111
 C          3.3153617682        1.8851863726        0.6432138846
 H         -1.3301389316        0.0069069667       -1.3841285063
 H         -2.8078976228       -1.6983837489       -0.6772426812
 H         -2.2128014248        2.1597143992        0.4930493308
 H         -2.8403650556       -1.1726150825        2.0512975109
 H         -1.2515239433       -2.8087169859        0.9472297077
 H         -0.4996579351       -1.8168855723        2.2283927716
 H         -3.8985774801        1.0831810098       -1.3303702711
 H         -4.7943575418       -1.1699293733        0.2619282588
 H         -0.4035862824        2.2237689375       -1.9008745082
 H          1.7118697008        1.0446288875        2.6908137882
 H         -0.0057151612        0.7423272759        2.6485670798
 H         -0.6373137360       -3.2052297296       -2.3519981997
 H          2.1216448957       -3.4897966710       -0.1438778440
 H          3.8700985064        2.5598249048       -1.1795498622
 H          5.1914867654        2.2688726362       -0.0630013556
  37
        -73.91854364
 P         -0.7054136953       -4.0406163174       -0.5551972383
 O         -0.8584314208       -0.1513277607        1.5044066097
 O         -2.5560046914        2.0468820791       -0.5343535559
 O         -3.4372703822       -0.4079140061       -0.0823436220
 O         -0.2153180844       -2.6153440585       -1.1495974040
 O         -0.2894547738       -5.0377672324       -1.6981478037
 O         -2.2718355989       -4.0396699299       -0.6397613626
 O         -0.1842296301       -4.2907843219        0.7954014354
 O          2.6801285668        4.9920536995       -0.5403786428
 N          0.5199454300        1.6324655949        0.8392734103
 N          2.7143200345        1.7832414731        1.1415764313
 N          0.1011801249        3.6499332633       -0.4289089961
 N          4.4331959315        3.8581888241        0.3475006791
 C         -1.5548588126        1.0852281784       -0.4194504349
 C         -2.0939571860       -0.3679897130       -0.4728870266
 C         -0.8376446508        1.1429294148        0.9614101541
 C         -1.1503056507       -1.0988021628        0.4856229777
 C          0.1129457384       -1.6120383502       -0.2139322622
 C          0.9045937792        2.8107686862        0.2566323069
 C          1.6597828159        1.0675598370        1.3615178364
 C          2.2817358208        2.8923257758        0.4464750533
 C          3.1329253296        3.9916829310        0.0414770852
 H         -0.8203282016        1.2497960826       -1.2147036158
 H         -2.0499605868       -0.7780917594       -1.4824394137
 H         -1.3840524552        1.8063152819        1.6497080689
 H         -1.6283116261       -1.9571717034        0.9696596626
 H          0.7825052115       -2.0215687637        0.5477951387
 H          0.6189324358       -0.8214491862       -0.7711823917
 H         -3.4211988818        1.5971580943       -0.4777774718
 H         -3.5064371137       -0.3871633566        0.8839809154
 H          1.6359545779        0.1388939922        1.8915961643
 H          0.5403164868        4.5297121575       -0.6623984490
 H         -0.8971065585        3.6190615904       -0.3021686078
 H          0.6444315322       -5.2720331827       -1.7411656725
 H         -2.6437160099       -4.2088724605       -1.5150497837
 H          4.7277748585        3.0296441064        0.8349822029
 H          5.0813243455        4.5913062828        0.1172333752
  37
        -73.91854104
 P         -0.4943139899       -3.1415530016       -1.2655350541
 O         -0.9823702339        0.1258139440        1.4716080376
 O         -2.2841466562        1.3499021686       -1.6350049797
 O         -3.8333717788        0.0106667289        0.0472746426
 O         -0.1769883268       -2.3005948827        0.0695347545
 O          0.6224614106       -4.2581746106       -1.3173838388
 O         -0.0703259944       -2.1749873153       -2.4208997167
 O         -1.8829124545       -3.6244867337       -1.3182455931
 O          3.7356579160        2.8510152591        2.3610210709
 N          0.2284389283        1.7196523230        0.2812037495
 N          1.9493971971        2.6321008982       -0.7836526028
 N          0.9770285034        1.8513548792        2.5707797380
 N          4.3971187330        3.4801964621        0.2841890033
 C         -1.6503397635        0.4753461070       -0.7641221077
 C         -2.5794944858       -0.5921627246       -0.1541658511
 C         -1.0707698412        1.1456512306        0.5014881257
 C         -1.8799067766       -0.9439166652        1.1708310412
 C         -1.1187210478       -2.2707012131        1.1280635350
 C          1.1629449271        2.0054111073        1.2401339149
 C          0.7643845444        2.1311492048       -0.9168547571
 C          2.2407477286        2.5651295087        0.5624300017
 C          3.5006844077        2.9761382590        1.1472873599
 H         -0.8396413214       -0.0160695931       -1.3097016341
 H         -2.6529588962       -1.4637316407       -0.8080353063
 H         -1.7624267758        1.9323477673        0.8538476500
 H         -2.6161347109       -0.9970187520        1.9829381905
 H         -1.8378095820       -3.0842102958        1.0067469393
 H         -0.5515021427       -2.3898950557        2.0529292495
 H         -3.1999159010        1.4744521141       -1.3269461632
 H         -4.5275397376       -0.6593314314        0.1090249792
 H          0.2260773471        2.0614097921       -1.8389465211
 H          1.8330961072        1.9495678179        3.1008686384
 H          0.3224180968        1.1397376432        2.8566207899
 H          0.3925402627       -5.1050900234       -0.9205964400
 H          0.8751703262       -2.1715347953       -2.6173649286
 H          4.1366893207        3.5579482201       -0.6839450504
 H          5.2947298126        3.7895981569        0.6142726202
  37
        -73.91852623
 P          0.7672065441       -2.3665538967       -0.8324594267
 O         -2.0854230901       -0.1860920336        1.6081533678
 O         -2.6469718747        2.0592234535       -1.0042261058
 O         -4.3872433026        0.2413094797       -0.2775403535
 O         -0.5471740074       -1.5385066956       -0.4819859709
 O          1.3915619664       -2.6649468937        0.5807893812
 O          1.6453519985       -1.2416429821       -1.4901130434
 O          0.5404461006       -3.5608768880       -1.6701165417
 O          3.0918326107        3.1479650892       -0.6644599833
 N         -0.1608703651        1.0065135583        0.9908003460
 N          1.9355843773        0.4561339028        1.4665072635
 N          0.1780573984        3.0039228163       -0.3301125469
 N          4.2919119583        1.6295528470        0.5192788509
 C         -2.1107632968        0.8635860411       -0.5375120210
 C         -3.1165730392       -0.3064467101       -0.5025542567
 C         -1.6066646944        0.9429198175        0.9346342286
 C         -2.6091096912       -1.1381621842        0.6883180530
 C         -1.5631816566       -2.1811887087        0.2784251352
 C          0.6273200208        1.9141796673        0.3386379555
 C          0.6907574390        0.1570161306        1.6500218701
 C          1.9384638407        1.5569750844        0.6363127619
 C          3.1355639006        2.1805414808        0.1152967069
 H         -1.2677679910        0.6014441010       -1.1834450656
 H         -3.0830009312       -0.8801359684       -1.4329740499
 H         -2.0122146544        1.8383411492        1.4301673157
 H         -3.4205540960       -1.6452270087        1.2166204942
 H         -2.0191622340       -2.9703386774       -0.3258895279
 H         -1.1231237419       -2.6226482485        1.1759586483
 H         -3.5908233040        2.0899166771       -0.7654626188
 H         -5.0775332797       -0.4173096870       -0.4348002359
 H          0.3311251737       -0.6420169546        2.2633651519
 H          0.9112240235        3.4667062000       -0.8516117852
 H         -0.7396217956        2.9769666366       -0.7491252413
 H          2.0610052806       -3.3587711719        0.5917934725
 H          1.8247397069       -1.3875539465       -2.4253953906
 H          4.2489465822        0.8439074593        1.1452740618
 H          5.1678250961        2.0010229319        0.1950785366
  37
        -73.91852506
 P          0.1874724194       -2.8054527003        0.1753180808
 O         -1.0805148300       -0.1451052083        1.0057787490
 O         -2.7497990386        1.7833942100       -1.4622149207
 O         -4.1665431727       -0.2283141473       -0.5872925245
 O         -1.4021657126       -2.9471599647        0.1480714540
 O          0.5754700866       -1.7518615710       -0.9317695759
 O          0.5100542182       -4.2038123274       -0.4783371219
 O          0.7613466024       -2.5579477476        1.5124306257
 O          4.2043764245        1.5588500367        0.2493651750
 N         -0.0061417310        1.7873319225        0.1527538770
 N          1.2437895484        3.5220736956       -0.4526466473
 N          1.7245206857        0.1221619547        0.5903238557
 N          4.0468131422        3.7002720586       -0.4841082838
 C         -1.9654697816        0.7388419722       -0.9907415861
 C         -2.7956063984       -0.5177691056       -0.5909429925
 C         -1.2410295321        1.0856382205        0.3436968489
 C         -2.3227519217       -0.8142989039        0.8499206377
 C         -2.1466331410       -2.2937855668        1.1571336860
 C          1.2937151415        1.3829128652        0.2670442624
 C          0.0359265290        3.0893291566       -0.2874106471
 C          2.0644473950        2.4739954631       -0.1099153104
 C          3.5183566909        2.5318911199       -0.1017967780
 H         -1.2179452547        0.4968883701       -1.7519360592
 H         -2.5497071647       -1.3627386264       -1.2360523218
 H         -1.9101836483        1.7409800861        0.9316992797
 H         -3.0595461120       -0.3875882024        1.5470606474
 H         -3.1171500414       -2.7897249893        1.1904887845
 H         -1.6255591024       -2.3921357312        2.1132136532
 H         -3.6559555638        1.6543760617       -1.1174509374
 H         -4.5935286867       -0.5801866502       -1.3810280877
 H         -0.8544655359        3.6510602454       -0.4788303019
 H          2.7351026496        0.1259763092        0.7174139751
 H          1.2178068075       -0.3594347428        1.3247618054
 H          1.1067671140       -1.0088073032       -0.5329404161
 H          1.4457815714       -4.4235572251       -0.5383475033
 H          3.4235677409        4.4433688179       -0.7521002082
 H          5.0451557400        3.8218680264       -0.4962347684
  37
        -73.91851700
 P          0.4951362999       -2.2910293088       -0.9584287080
 O         -1.8104687361        0.5736451314        1.5409339987
 O         -3.0811252804        1.1615565043       -1.6106633704
 O         -4.2066802956       -0.4792828040        0.0667151369
 O          0.0099229394       -1.2516135348        0.1279142691
 O         -0.8362393770       -3.0489417258       -1.3546976351
 O          1.3035254901       -3.4172605405       -0.1808664116
 O          1.2254059296       -1.6350027279       -2.0492404968
 O          3.6249970577        1.6972824099        1.9081084861
 N         -0.2110938154        1.5991328427        0.1328277156
 N          1.5666938379        2.2841156974       -1.0136895601
 N          0.8280003464        1.0082488819        2.2468090053
 N          4.2217985606        2.4667011151       -0.1405277554
 C         -2.1956235259        0.4483736088       -0.8113948858
 C         -2.8408114191       -0.7601647795       -0.0926155433
 C         -1.6111811729        1.2938571319        0.3610081724
 C         -2.0925711808       -0.7923730098        1.2508383913
 C         -0.8225201949       -1.6506348366        1.2174311486
 C          0.8551174524        1.4863210340        0.9805462389
 C          0.2897586902        2.0842886978       -1.0521203822
 C          1.9632457024        1.9125497645        0.2522247368
 C          3.3204629101        2.0058129665        0.7419346716
 H         -1.3719765521        0.1083657668       -1.4478022358
 H         -2.6839970462       -1.6777989631       -0.6636701008
 H         -2.1603727274        2.2442541849        0.4465891325
 H         -2.7315270183       -1.1400598339        2.0670320130
 H         -1.0857919216       -2.7042290667        1.1221264305
 H         -0.2522986933       -1.4824264108        2.1332427290
 H         -3.9774840352        1.0496418825       -1.2423202699
 H         -4.6974828499       -1.2868746800        0.2715922788
 H         -0.3394795033        2.2834732841       -1.8951724585
 H          1.6920934448        1.1809728083        2.7448443079
 H         -0.0440287300        1.0718275005        2.7481208600
 H         -0.7267497140       -3.6984748223       -2.0587213985
 H          2.2557518239       -3.2807155019       -0.1582002363
 H          3.9080172018        2.6827124676       -1.0709549538
 H          5.1878471222        2.5526590595        0.1235813441
  37
        -73.91851247
 P          1.0309305430       -2.2597384006       -0.4809052086
 O         -1.9738593009        0.1873367656        1.4313316313
 O         -3.2666455046        1.9835881910       -1.1740427715
 O         -4.4880574453       -0.2915742053       -0.4950415912
 O         -0.2516853637       -1.3243939106       -0.2301621291
 O          1.4738073583       -2.6458704675        0.9990516395
 O          2.0883847436       -1.2795782762       -1.0589136904
 O          0.7328946117       -3.4228039541       -1.3346698591
 O          3.4728848958        0.2561331146        0.4705992040
 N         -0.4438090238        1.7415811617        0.4785927822
 N          1.1977261717        2.8279873948       -0.5580628229
 N          0.8222700163        0.2575407767        1.8905750410
 N          3.9921139995        2.3153543343       -0.3223103612
 C         -2.3987480001        0.9618514418       -0.7862600300
 C         -3.0991323789       -0.4045668053       -0.5815512862
 C         -1.8213230364        1.3081659779        0.6085690101
 C         -2.4500669984       -0.9459274014        0.7058035478
 C         -1.3310453200       -1.9593389405        0.4486317965
 C          0.7154673345        1.1397425352        0.8770440499
 C         -0.0797821100        2.7504395511       -0.3879416650
 C          1.7389171892        1.8159056336        0.2054454676
 C          3.1197113504        1.4185560064        0.1350476910
 H         -1.5676020568        0.8407051282       -1.4952292176
 H         -2.9070061639       -1.0785252161       -1.4184487059
 H         -2.3928854789        2.1452578042        1.0398074142
 H         -3.2027274571       -1.4319678452        1.3353893593
 H         -1.7019332261       -2.7925117456       -0.1546239084
 H         -0.9670859757       -2.3503139022        1.4023746960
 H         -3.6835802340        1.7630926180       -2.0205722890
 H         -4.7305664322        0.4301712884        0.1061948351
 H         -0.8070431388        3.3841057385       -0.8521823617
 H          1.6913734109       -0.2534184323        1.9271690624
 H         -0.0182039340       -0.2240004571        2.1681916043
 H          1.9204908289       -3.4967925465        1.0622334110
 H          2.6324224209       -0.7390919068       -0.3932463514
 H          3.6429718302        3.2032267761       -0.6429243838
 H          4.9500527177        2.0462610801       -0.4762824540
  37
        -73.91851121
 P          0.1900864567       -3.0706056642       -0.7423731018
 O         -1.0119705153       -0.7584357771        0.5208060208
 O         -2.5653754837        2.3722908142       -0.1243082668
 O         -4.0092979151        0.3773735744        0.8932908265
 O         -1.3911079984       -3.3106794648       -0.5294214149
 O          0.7033909208       -4.4948848503       -1.1381319207
 O          0.8161980828       -2.8958883297        0.7015382481
 O          0.4910897065       -2.0471041985       -1.7515809484
 O          3.2902107747        3.7412883437        1.7265639151
 N          0.2905601335        1.1715681146        0.2206521765
 N          2.1127933325        1.6231237233       -0.9659285701
 N          0.6614231751        2.5941479249        2.1564990918
 N          4.2744513335        3.2694128583       -0.2625914601
 C         -2.1088647797        1.0927295673       -0.4400399818
 C         -3.1773199071        0.0071797682       -0.1691054408
 C         -1.0011994728        0.6589453445        0.5410583331
 C         -2.3351764554       -1.2186758113        0.2226880914
 C         -2.2603753901       -2.2600364231       -0.8920116352
 C          1.0346774900        2.0462553535        0.9737017794
 C          1.0040261285        0.9601786553       -0.9406136691
 C          2.1656068739        2.3254275024        0.2185217115
 C          3.2742884289        3.1686116188        0.6242654884
 H         -1.7280384517        1.0101215974       -1.4615367604
 H         -3.7825436222       -0.2038100397       -1.0598214190
 H         -1.2769196714        1.0235573611        1.5427252977
 H         -2.7494228669       -1.6749376238        1.1297898597
 H         -1.8835828901       -1.7900301086       -1.8054538397
 H         -3.2394728211       -2.7089241005       -1.0607252001
 H         -2.8572110285        2.8441528857       -0.9169274081
 H         -4.0241415975        1.3517170971        0.9439492239
 H          0.6873831455        0.2660588645       -1.6910852271
 H          1.4156800943        3.1314600207        2.5697500416
 H          0.1115770958        2.0405116398        2.7940498603
 H          0.5590603926       -5.1903097458       -0.4842300085
 H          0.5800603582       -2.0670413138        1.1292429634
 H          4.1996067233        2.7606322435       -1.1270012954
 H          5.0887552842        3.8171463842       -0.0438075614
  37
        -73.91850525
 P         -0.2604617565       -3.4125046264       -0.5949961551
 O         -1.7256677996        0.5070519394        1.5544805101
 O         -2.1078585747        1.4571857629       -1.6878457012
 O         -3.6138430549       -0.5211953335       -0.6480365720
 O         -0.7712222061       -2.9768736309        0.8749743558
 O         -1.5496182102       -3.9179538925       -1.3483878639
 O          0.6265971522       -4.6831478605       -0.3199999411
 O          0.4349438702       -2.3509108321       -1.3263926773
 O          3.2523148532        3.9557567436       -0.9867664157
 N          0.1510329686        1.6826844899        0.7623639532
 N          2.1169417566        1.8966586213        1.7704577762
 N          0.5557162624        2.8915912451       -1.2881144442
 N          4.3713827115        3.3222636055        0.8821148338
 C         -1.4352036823        0.6012525814       -0.8109310419
 C         -2.2435532235       -0.6613691380       -0.4193173050
 C         -1.2362054303        1.3358350514        0.5375173345
 C         -1.8864886580       -0.8214355472        1.0670551879
 C         -0.6042609202       -1.6369101210        1.2841533290
 C          0.9261764866        2.4422979200       -0.0716026013
 C          0.9287796672        1.3927316266        1.8574875322
 C          2.1569704662        2.5675811729        0.5668938098
 C          3.2908488321        3.3283233643        0.0854193912
 H         -0.4619903666        0.2923519737       -1.2160754416
 H         -1.9308200678       -1.5251664501       -1.0056399989
 H         -1.8274277985        2.2654102653        0.5411477829
 H         -2.7087660234       -1.2713700135        1.6302571769
 H         -0.3635011895       -1.6575768263        2.3493833055
 H          0.2212249515       -1.1833362058        0.7283737211
 H         -2.3358818524        0.9812272234       -2.5000460504
 H         -3.9412687596        0.2889650618       -0.2279429195
 H          0.5538233871        0.8237429335        2.6813678576
 H          1.2068079655        3.5483083863       -1.6947669503
 H         -0.4206960066        2.9500321650       -1.5285849832
 H         -2.0952492670       -4.5923974867       -0.9235375099
 H          0.4008668782       -5.2361877480        0.4397437742
 H          4.3318193964        2.7974061744        1.7386835812
 H          5.1951972074        3.8327639458        0.6154001777
  37
        -73.91850228
 P         -0.0916802065       -2.8773597750       -0.5381179944
 O         -1.1808075306       -0.3140649594        1.4494126040
 O         -2.2655485513        1.7798304620       -1.1578275089
 O         -3.7986825402       -0.3048849016       -0.8047805344
 O         -0.8416770807       -2.9905779974        0.8752967653
 O         -1.0642824950       -3.5244817188       -1.6004910445
 O          1.0282804642       -3.9646583123       -0.3414261773
 O          0.3799873508       -1.5414862798       -0.9301344630
 O          2.9639574686        4.2624051550       -0.6931430438
 N          0.3671457402        1.2630443342        0.7741294429
 N          2.5542003789        1.1471133819        1.1128185945
 N          0.1687621251        3.4019167598       -0.3292744755
 N          4.5324289199        2.9554368715        0.2946192172
 C         -1.5630802401        0.6726452768       -0.6847980047
 C         -2.4507943019       -0.5942613434       -0.5525321542
 C         -1.0193305330        0.8916335490        0.7554008644
 C         -2.3034372259       -0.9998709337        0.9263690821
 C         -2.1340543127       -2.4972839784        1.1745672430
 C          0.8968864587        2.3893555898        0.2072735984
 C          1.4177046347        0.5550704338        1.2943236912
 C          2.2670135125        2.3103698335        0.4278308752
 C          3.2650971062        3.2542940144       -0.0321865642
 H         -0.7228884664        0.4808136070       -1.3570741299
 H         -2.0779794756       -1.3813738396       -1.2092240276
 H         -1.6052678154        1.6975421789        1.2365589511
 H         -3.2186906592       -0.6663020900        1.4417965686
 H         -2.8923943417       -3.0332707893        0.5970197339
 H         -2.2563097401       -2.7029058151        2.2399562580
 H         -3.2090937251        1.6611381207       -0.9334288663
 H         -3.9951076304       -0.4097981195       -1.7474029593
 H          1.2672176269       -0.3758611925        1.7976560989
 H          0.7540402883        4.0724036805       -0.8123323417
 H         -0.7022863379        3.1616141831       -0.7824724243
 H         -1.0748905201       -4.4906634802       -1.6048012064
 H          1.8463497814       -3.6500187772        0.0552420256
 H          4.7029425810        2.1160560144        0.8212217956
 H          5.2830625179        3.5542067906       -0.0027722807
  37
        -73.91849250
 P          0.1310188103       -2.2557502744       -1.2839926036
 O         -1.6612313442        0.4344115441        1.5595153526
 O         -2.9859468493        1.3768640465       -1.4166144930
 O         -4.2080109858       -0.4687867373        0.1086619046
 O          0.0495840462       -1.4216182209        0.0759405603
 O          1.0329541851       -3.4990468555       -0.8870191937
 O          1.0023057664       -1.3259997772       -2.1936900278
 O         -1.1633117726       -2.6241725410       -1.8769337961
 O          3.5760580721        1.8636958180        2.3597682762
 N         -0.0392238548        1.4580012156        0.1987542485
 N          1.8861443581        1.8359649012       -0.8445228809
 N          0.6756139299        1.6088363016        2.5064068488
 N          4.4403813140        2.1223240826        0.2781352153
 C         -2.1246157471        0.4856824700       -0.7731349010
 C         -2.8489911185       -0.7121054086       -0.1046964967
 C         -1.4515511362        1.2176067833        0.4100773440
 C         -2.0589471893       -0.8849419886        1.2023483881
 C         -0.8639167521       -1.8389852461        1.0840456292
 C          0.9105529231        1.5855005663        1.1775331265
 C          0.6181832837        1.6305495926       -0.9971404407
 C          2.1139161869        1.8059179159        0.5138460278
 C          3.4169252958        1.9402875417        1.1293623162
 H         -1.3658633206        0.0882415898       -1.4595969629
 H         -2.7969106631       -1.6032583474       -0.7307485239
 H         -1.9514774849        2.1863748356        0.5685461347
 H         -2.7041326164       -1.2444744692        2.0093181579
 H         -1.2334150036       -2.8426908437        0.8666617385
 H         -0.3049872922       -1.8408984874        2.0227792222
 H         -3.5109614383        0.9044145914       -2.0797708167
 H         -4.3251313507        0.3708915323        0.5791177923
 H          0.1174110363        1.6243872967       -1.9423327382
 H          1.5193842820        1.5570940387        3.0613753585
 H         -0.1622462554        1.1631994728        2.8446760146
 H          0.8406102767       -4.3136116013       -1.3653746668
 H          1.9259982030       -1.2281559846       -1.9352776899
 H          4.2349901985        2.2175296928       -0.7015714976
 H          5.3704925791        2.2575350097        0.6348712585
  37
        -73.91846636
 P          0.3521830181       -2.8498785232        0.0814831211
 O         -1.3751637871       -0.3773238223        0.6967711414
 O         -3.8693958291        1.0973006112        0.8145525827
 O         -3.9086336535       -0.0562494432       -1.5706527070
 O          0.5821843279       -1.5052508988       -0.7451748645
 O          0.2723412733       -2.3926098667        1.5846632343
 O          1.7785005311       -3.5231950695        0.0255811574
 O         -0.7655385063       -3.6828314366       -0.4021822030
 O          3.9152814974        1.5094928027        0.9520047187
 N         -0.2656495198        1.6640628750        0.2976278804
 N          1.1380629839        2.8628971967       -0.9373946577
 N          1.2516737539        0.6375630859        1.8669204310
 N          3.9354907400        2.9658930169       -0.7867452445
 C         -2.7347519037        1.3697503584        0.0446170595
 C         -2.6561794841        0.3948528592       -1.1648356189
 C         -1.4531642062        1.0279601697        0.8159965736
 C         -1.7370845881       -0.7391809563       -0.6292875484
 C         -0.4859102095       -0.9467825343       -1.4925891585
 C          0.9942151045        1.4051473475        0.7782280262
 C         -0.1009720503        2.5432196891       -0.7484507641
 C          1.8609814071        2.1639456686        0.0035587031
 C          3.3087448566        2.1847747281        0.1056927557
 H         -2.8122373607        2.4149141737       -0.2509434278
 H         -2.1847950898        0.8769889595       -2.0269062660
 H         -1.5318819261        1.2501109887        1.8869307050
 H         -2.2718165957       -1.6902732317       -0.5601628019
 H         -0.0922491456        0.0010331501       -1.8683960441
 H         -0.7406389968       -1.6019359497       -2.3287298838
 H         -3.7424771060        0.2694277676        1.3055660737
 H         -4.5502851567        0.1323146974       -0.8587091474
 H         -0.9138053005        2.9309626523       -1.3246252268
 H          2.2476629141        0.4830980126        1.9789780795
 H          0.6856025020       -0.1942574437        1.9685631623
 H         -0.1090537984       -3.0530760291        2.1744193627
 H          1.9660110989       -4.0428073538       -0.7630037483
 H          3.3799909050        3.4904307164       -1.4407095846
 H          4.9388251485        3.0302334589       -0.7806528918
  37
        -73.91846351
 P         -0.9913110210       -4.1133721707       -0.9558283776
 O         -0.5189754825       -0.3502812938        1.4108017283
 O         -2.1833840117        1.9163725929       -0.7192222476
 O         -3.1767402593       -0.4164354954       -0.0428317110
 O         -0.1340960577       -2.8231295553       -1.3017493131
 O         -2.4752219048       -3.5679514167       -0.7783341337
 O         -0.5295262486       -4.5131267251        0.5057467616
 O         -0.8693334410       -5.1626769094       -1.9749104648
 O          2.4172949695        5.3560279586        0.0289184729
 N          0.6730521571        1.6015974008        0.8984158590
 N          2.8643388323        1.9081347120        1.0469790373
 N         -0.0809377454        3.8262572068        0.3487361860
 N          4.3260056604        4.2493394764        0.5559565546
 C         -1.2620482620        0.9015963934       -0.4866207515
 C         -1.8642673209       -0.5163755730       -0.5239367210
 C         -0.6236232757        0.9624937755        0.9319987043
 C         -0.9371462675       -1.2867458836        0.4252098322
 C          0.2648434595       -1.8954603351       -0.3045459684
 C          0.8944270506        2.9162393834        0.5882421766
 C          1.9011148230        1.0511981410        1.1641570689
 C          2.2701261483        3.0979248231        0.6831762258
 C          2.9946065237        4.3212439321        0.4017495422
 H         -0.4713573888        1.0004780737       -1.2382695647
 H         -1.8414138924       -0.9440527848       -1.5320142346
 H         -1.2685698725        1.5407225818        1.6117493777
 H         -1.4673021119       -2.0836683731        0.9543801891
 H          0.9061569224       -2.3886509499        0.4293689144
 H          0.8346541509       -1.1276492236       -0.8322075968
 H         -3.0540250644        1.6197458600       -0.3985607189
 H         -3.6129136697       -1.2774434339       -0.0950803357
 H          2.0120721343        0.0264721281        1.4492196025
 H          0.2896363043        4.7059788391        0.0121866137
 H         -0.9340058746        3.5011159763       -0.0855789694
 H         -3.1281820839       -4.2020463312       -1.0984059672
 H         -0.3508416562       -5.4527829099        0.6236983970
 H          4.7262256132        3.3783669756        0.8597006163
 H          4.8972824069        5.0567317050        0.3763628413
  37
        -73.91845864
 P         -0.6434249139       -4.1803679556       -1.0575718579
 O         -0.8493594109       -0.2404671294        1.4467290772
 O         -2.3017567661        2.0868983209       -0.7604655062
 O         -3.4203074577       -0.1981192803       -0.1289507795
 O         -0.3937627879       -2.6317863455       -1.3171249415
 O         -1.7600963800       -4.1814222981        0.0595859962
 O          0.6424480043       -4.7032370183       -0.2877342156
 O         -0.9616467876       -4.8942580554       -2.2995480814
 O          2.4877174566        5.2403650601        0.0529891890
 N          0.4811652236        1.6311632703        0.9653918533
 N          2.6809808550        1.8052786697        1.1879965677
 N         -0.1084754508        3.8831213386        0.3294633362
 N          4.3062858928        4.0304579156        0.6654803347
 C         -1.4343338613        1.0344520797       -0.4911153998
 C         -2.0936419211       -0.3581660690       -0.5549275199
 C         -0.8525398674        1.0707829046        0.9533691255
 C         -1.2383638500       -1.1623790202        0.4355573979
 C         -0.0098579821       -1.7862836942       -0.2431286691
 C          0.7963548267        2.9196558978        0.6277873242
 C          1.6617069852        1.0141038503        1.2935715038
 C          2.1768573545        3.0179091641        0.7683087343
 C          2.9865925073        4.1830711465        0.4732289587
 H         -0.6112372058        1.0988727390       -1.2108113912
 H         -2.0412196394       -0.7899089444       -1.5593756230
 H         -1.4881821613        1.6925623168        1.6021518399
 H         -1.8181093017       -1.9455383634        0.9303409796
 H          0.5630577598       -2.3484874762        0.4968627682
 H          0.6208514359       -1.0070356554       -0.6778000050
 H         -3.1958604101        1.8276572772       -0.4733866668
 H         -3.9266493758       -1.0084074396       -0.2728134739
 H          1.6968632529       -0.0055669683        1.6140105081
 H          0.3298825375        4.7270549228       -0.0171021804
 H         -0.9695000850        3.6033734363       -0.1200299789
 H         -2.1513709225       -5.0449863795        0.2368285289
 H          1.2453553071       -5.2226173191       -0.8301053811
 H          4.6407363418        3.1480327001        1.0128572484
 H          4.9328373718        4.7947546485        0.4815038879
  37
        -73.91845029
 P         -0.6412264590       -4.1792566818       -1.0565741970
 O         -0.8508547133       -0.2403351073        1.4469636759
 O         -2.3036807123        2.0868542410       -0.7597866222
 O         -3.4206866543       -0.1996759596       -0.1302030428
 O         -0.3892745392       -2.6311721801       -1.3165373851
 O         -1.7654112977       -4.1782544510        0.0530709697
 O          0.6392562531       -4.7017772317       -0.2775533335
 O         -0.9516392113       -4.8947219399       -2.2996248774
 O          2.4881275197        5.2387065464        0.0506662455
 N          0.4797169278        1.6313031218        0.9664490520
 N          2.6796024347        1.8044983144        1.1885582061
 N         -0.1088984387        3.8828130504        0.3282163719
 N          4.3063093661        4.0276469393        0.6618734543
 C         -1.4355038285        1.0349754512       -0.4906482616
 C         -2.0936339689       -0.3581942602       -0.5555847083
 C         -0.8540222444        1.0710086959        0.9540157806
 C         -1.2382078574       -1.1621222464        0.4350290925
 C         -0.0082808584       -1.7846245860       -0.2423503951
 C          0.7954666684        2.9193440385        0.6276948953
 C          1.6599723681        1.0139700061        1.2951214475
 C          2.1760532428        3.0170248906        0.7678411471
 C          2.9865143311        4.1812054527        0.4709751288
 H         -0.6123042881        1.1004681883       -1.2101171213
 H         -2.0402820037       -0.7893502042       -1.5602254346
 H         -1.4897491844        1.6925190034        1.6029649808
 H         -1.8177473039       -1.9459132415        0.9289805897
 H          0.5645770411       -2.3456701017        0.4985893548
 H          0.6217793066       -1.0046114940       -0.6765974735
 H         -3.1972867125        1.8276438945       -0.4711526986
 H         -3.9266917942       -1.0097643224       -0.2762781948
 H          1.6946609661       -0.0053506683        1.6167124465
 H         -0.9702159446        3.6028862631       -0.1206033068
 H          0.3297235103        4.7261214729       -0.0194852782
 H         -2.1583887763       -5.0413612871        0.2285996179
 H          1.2436723647       -5.2249984410       -0.8145682326
 H          4.6410230257        3.1446684714        1.0075649473
 H          4.9333021679        4.7910272304        0.4756385878
  37
        -73.91845848
 P          0.0551704899       -2.4107012160       -1.3207650094
 O         -1.5667902464        0.4843930570        1.6057513857
 O         -3.2786892092        1.4793377564       -0.9829169377
 O         -4.0711839679       -0.7645356463        0.1230909256
 O          0.1159236605       -1.4241545954       -0.0658254465
 O          1.5573130008       -2.7341646399       -1.6611977436
 O         -0.4555321170       -1.4400230722       -2.4700035961
 O         -0.7546915922       -3.6172662910       -1.1120308267
 O          3.5518983637        2.2388528578        2.3607148392
 N          0.0153185517        1.4446242854        0.1709029615
 N          1.9961466468        1.5228003983       -0.8321084016
 N          0.6246711566        2.0854395987        2.4188919282
 N          4.5094173682        2.0183043057        0.3160465175
 C         -2.2125923895        0.6262834537       -0.6741713035
 C         -2.6903010130       -0.7313111175       -0.0734445163
 C         -1.3962805986        1.2814364502        0.4572853940
 C         -1.8870406765       -0.8485290507        1.2343445074
 C         -0.6463114946       -1.7361778970        1.0915569766
 C          0.9313483561        1.7644577309        1.1403480449
 C          0.7300899314        1.3132467737       -0.9956999423
 C          2.1667782517        1.8034454267        0.5059904265
 C          3.4477313991        2.0449035323        1.1377376738
 H         -1.5900248579        0.4409897015       -1.5504236172
 H         -2.4619327641       -1.5700745655       -0.7347149961
 H         -1.8190933083        2.2703846296        0.6875388021
 H         -2.5019992507       -1.2546140109        2.0424346274
 H         -0.9617387230       -2.7814667410        1.0396808492
 H          0.0116521914       -1.5827430182        1.9500236323
 H         -3.8161444033        1.0906590102       -1.6900865997
 H         -4.3559805120        0.0480564907        0.5729377179
 H          0.2876986805        1.0865232551       -1.9416854503
 H          1.4428783858        2.1488312398        3.0111098907
 H         -0.2049528386        1.6681065592        2.8122881712
 H          2.1602025439       -1.9844823121       -1.7341170578
 H         -0.6078918751       -1.8814250723       -3.3148076041
 H          4.3508358352        1.8815847986       -0.6673477493
 H          5.4295903302        2.1955237522        0.6797828133
  37
        -73.91842666
 P         -0.1268772830       -3.8698692544       -0.6990375200
 O         -1.1231707232       -0.5072262640        1.0129974624
 O         -2.7280536620        2.4347795187        0.0780262393
 O         -3.9326246119        0.0624034176        0.0744148340
 O          0.2363095635       -2.2951185418       -0.7113719649
 O          0.8612035877       -4.4268906122        0.3882452378
 O          0.4390480057       -4.4385508488       -2.0474419198
 O         -1.5594582294       -4.1425603413       -0.5197278193
 O          2.5946494852        4.8941426759        0.5373786954
 N          0.3567931353        1.3112386125        0.7299729828
 N          2.5397905282        1.2763625802        0.3480199430
 N         -0.0277576439        3.6665821959        1.0824899437
 N          4.3009061244        3.4499678915        0.1493151746
 C         -1.9157875530        1.3554196308       -0.2576628417
 C         -2.7105992660        0.0725440900       -0.6076043827
 C         -1.0125159938        0.8875400371        0.9231054596
 C         -1.7496294064       -1.0311558552       -0.1559707460
 C         -0.7321090043       -1.4074345990       -1.2385471224
 C          0.7695394509        2.6160736470        0.7648200619
 C          1.4725204740        0.5540532757        0.4749348868
 C          2.1380169760        2.5837355379        0.5231681545
 C          3.0156595150        3.7320972129        0.4129419868
 H         -1.2806495339        1.6545967141       -1.0995227252
 H         -2.9492092670        0.0164733968       -1.6702203853
 H         -1.3607894451        1.3268165930        1.8699521101
 H         -2.2646479669       -1.9455953990        0.1505658583
 H         -0.1781551195       -0.5326635153       -1.5861831560
 H         -1.2612476082       -1.8768838046       -2.0710159632
 H         -3.6298969209        2.1002890995        0.2466435441
 H         -3.8029075913       -0.2270402448        0.9904458797
 H          1.4341673117       -0.5126591165        0.4000821271
 H          0.4354789907        4.5545205021        0.9346314278
 H         -1.0013324800        3.6214938487        0.8168141243
 H          0.5611959618       -4.3644009459        1.3009426148
 H          1.3948046357       -4.3577956358       -2.1669630807
 H          4.5707097070        2.4852038842        0.0614497350
 H          4.9697630335        4.1944872083        0.0553021151
  37
        -73.91842018
 P          0.7874996713       -2.3287541255       -0.8225725501
 O         -2.1277286859       -0.1512411509        1.6092486881
 O         -2.6838218159        2.0529177203       -1.0113070158
 O         -4.4285919539        0.1701548943       -0.3132371090
 O         -0.5267232620       -1.5026326148       -0.4647555825
 O          1.4152637636       -2.6311303633        0.5883719194
 O          1.6621204218       -1.1999045910       -1.4785832218
 O          0.5607301481       -3.5203677312       -1.6634825550
 O          3.1070073724        3.0698805582       -0.7009257693
 N         -0.1744775235        1.0046435986        0.9879806403
 N          1.9127217722        0.4424794093        1.4886948133
 N          0.1948284743        2.9701055680       -0.3723166562
 N          4.2875133656        1.5645734839        0.5186985073
 C         -2.1199395090        0.8647942606       -0.5506517621
 C         -3.1259477448       -0.3094382267       -0.4981705364
 C         -1.6190535682        0.9606804826        0.9219085311
 C         -2.6093080325       -1.1296592828        0.6894487746
 C         -1.5370721774       -2.1512516358        0.2972139997
 C          0.6277087712        1.8884147755        0.3199929440
 C          0.6639274046        0.1611327514        1.6719069445
 C          1.9327634715        1.5232143905        0.6331699735
 C          3.1386023127        2.1198492538        0.1004247391
 H         -1.2759464180        0.6004309756       -1.1953485339
 H         -3.1321887226       -0.8779473909       -1.4282534233
 H         -2.0101565163        1.8713835660        1.4014855842
 H         -3.4133765161       -1.6640570383        1.2026192499
 H         -1.9778216251       -2.9544130034       -0.2997242457
 H         -1.0946624118       -2.5752763022        1.2022751974
 H         -3.6555264621        1.9569546969       -1.0036064696
 H         -4.5592109594        0.4304337077        0.6119970509
 H          0.2926216861       -0.6194944456        2.3018805223
 H          0.9360488986        3.4131003903       -0.8997111541
 H         -0.7211979713        2.9491232216       -0.7939734208
 H          2.0795953670       -3.3299056756        0.5969255246
 H          1.8410354753       -1.3452579471       -2.4140113246
 H          4.2348598667        0.7911638670        1.1590298817
 H          5.1679068867        1.9142151904        0.1825133019
  37
        -73.91840851
 P         -0.1138107107       -3.1210263511       -1.0735129848
 O         -1.4839743724        0.5348174521        1.5531581708
 O         -3.5699921675        1.4668361271       -0.3859218823
 O         -3.2939972875       -1.1159691466       -0.8248579285
 O         -0.4526592413       -2.8117129114        0.4748509035
 O         -1.4829991280       -3.4237243564       -1.7877143626
 O          0.6524157525       -4.4951122503       -0.9859243402
 O          0.6341318232       -2.0561080410       -1.7480781868
 O          3.5412962433        3.2345170677        2.0554308792
 N          0.0401813393        1.7353744418        0.2096927745
 N          1.9780497814        1.7827076034       -0.8712319226
 N          0.6374303286        2.7890167049        2.2935044301
 N          4.4540031129        2.7431602307        0.0370070308
 C         -2.2395207045        1.0856378418       -0.5831632393
 C         -2.0978912953       -0.4595825751       -0.5335877596
 C         -1.3425142865        1.5421206302        0.5729119340
 C         -1.6195181411       -0.7306455712        0.9147659819
 C         -0.2942422706       -1.4976932328        0.9637674764
 C          0.9527952452        2.2967553955        1.0689762794
 C          0.7355255500        1.4327776885       -0.9403137463
 C          2.1557124104        2.3307932842        0.3807191328
 C          3.4265698263        2.8085566942        0.8952309696
 H         -1.9424418984        1.5043578833       -1.5441302635
 H         -1.3350480572       -0.7971645049       -1.2429483733
 H         -1.6994877089        2.4764797751        1.0240268779
 H         -2.3785373277       -1.2994749951        1.4625327692
 H          0.0412232474       -1.5827596530        2.0001803540
 H          0.4636663459       -0.9750276773        0.3713264275
 H         -3.8270565979        1.3164983969        0.5384255346
 H         -3.9939449982       -0.4437783762       -0.9368993646
 H          0.2961631464        0.9485787380       -1.7869298609
 H          1.4637970530        3.0593020703        2.8136679678
 H         -0.0697807834        2.2919793560        2.8141290321
 H         -2.0417663493       -4.1264619168       -1.4332918536
 H          0.5145778506       -5.0323678092       -0.1950029186
 H          4.2875887344        2.3663860895       -0.8806090021
 H          5.3714214397        3.0362370415        0.3258466034
  37
        -73.91839583
 P          0.4760167852       -2.4027253035        0.4228792553
 O         -1.2479982134       -0.4544054865        0.5474649635
 O         -3.6017954301        1.6093196464        0.8326583483
 O         -4.3236225819       -0.0465662712       -1.1202676194
 O         -0.9109149621       -2.9485420373       -0.1949841381
 O          1.0739325614       -1.3776442861       -0.6176253337
 O          1.3870489224       -3.6812750597        0.1747869922
 O          0.4723773268       -1.9969572963        1.8370008173
 O          4.0238307201        1.7459351699        0.9222120559
 N         -0.1007944257        1.4852537575       -0.0226300384
 N          1.3611854947        2.3349505493       -1.4610043115
 N          1.3154993066        0.9919001142        1.8651891412
 N          4.1273205499        2.6292035467       -1.1638506003
 C         -2.6052833985        1.3792695920       -0.1214116020
 C         -2.9472565829        0.1428715185       -0.9945277187
 C         -1.2988668032        0.9625483210        0.5767427718
 C         -2.3331488682       -1.0042240113       -0.1751611351
 C         -1.7635647730       -2.1552666534       -0.9991608876
 C          1.1245041290        1.4276643059        0.5910628959
 C          0.1218573639        2.0167516797       -1.2698095675
 C          2.0261484080        1.9804241362       -0.3078589831
 C          3.4600115743        2.1112460794       -0.1214400720
 H         -2.4596439377        2.2927759663       -0.7092498519
 H         -2.4436471335        0.2168891367       -1.9635840286
 H         -1.3168699774        1.2847071177        1.6271963388
 H         -3.0789648744       -1.3843047781        0.5366240258
 H         -1.1959016085       -1.7492715190       -1.8415971059
 H         -2.5521826020       -2.8212426819       -1.3503953369
 H         -4.3979827587        1.1112578549        0.5642168679
 H         -4.6684869437        0.4204178702       -1.8961196813
 H         -0.6513977802        2.1652203213       -1.9935521900
 H          2.3057097273        0.9538631764        2.0840851625
 H          0.8198621441        0.1418526477        2.1107647570
 H          1.6240885610       -1.8182917357       -1.2784919161
 H          1.3827643167       -4.3220246624        0.8914925550
 H          3.6033321273        2.9157396922       -1.9731040717
 H          5.1230372268        2.7573035735       -1.1084900965
  37
        -73.91839049
 P          0.1635702403       -2.3141990496       -1.1772412885
 O         -1.7570290867        0.5150179532        1.5379977811
 O         -2.9381474919        1.3020455940       -1.5849239674
 O         -4.1966883206       -0.3928896633        0.0096940540
 O          0.0462698036       -1.3975619519        0.1228754791
 O          0.8143639950       -3.6485332878       -0.6136213362
 O          1.2669831546       -1.5661263828       -1.9983487780
 O         -1.0846027227       -2.5377929799       -1.9224564127
 O          3.6313497255        1.7566191441        2.2370557651
 N         -0.0692465346        1.5024513935        0.2065477891
 N          1.7746050261        2.1600849781       -0.8459906438
 N          0.8365414009        0.9890061894        2.3984796305
 N          4.3664048905        2.4000263394        0.1888935265
 C         -2.0964226065        0.4963701234       -0.8207916426
 C         -2.8357523694       -0.6856981676       -0.1476617794
 C         -1.4861914521        1.2659492097        0.3856255286
 C         -2.0976526947       -0.8254085356        1.1875712571
 C         -0.8776538279       -1.7524084299        1.1451068845
 C          0.9399288118        1.4317244934        1.1272023872
 C          0.5037218067        1.9513494849       -0.9610343750
 C          2.0910634642        1.8393125201        0.4562814845
 C          3.4082217898        1.9891356290        1.0361064215
 H         -1.2928669307        0.1079445600       -1.4572230864
 H         -2.7784303108       -1.5828496457       -0.7636465153
 H         -1.9862312453        2.2418223657        0.4936849494
 H         -2.7603890913       -1.1889347048        1.9784116007
 H         -1.2188263714       -2.7792298657        1.0021246435
 H         -0.3315894495       -1.6638374211        2.0873889005
 H         -3.8532555499        0.9814156606       -1.4639563186
 H         -4.3165131490        0.2469489001        0.7296221690
 H         -0.0713921455        2.1217551646       -1.8476746457
 H          1.6624237886        1.1771807835        2.9513694056
 H         -0.0693076765        1.0103523413        2.8377294315
 H          0.5876311512       -4.4471674543       -1.1032885447
 H          2.1529054573       -1.5910500843       -1.6170658104
 H          4.1035404622        2.6157774947       -0.7575049292
 H          5.2947332856        2.5802085962        0.5298098380
  37
        -73.91835412
 P         -0.2582646858       -3.5363933993       -0.2187104317
 O         -0.6137011079       -0.6963110449       -0.2906394406
 O         -2.3285789133        1.9028850640        1.3265501840
 O         -3.9595971963        0.0969916043        0.3517608463
 O         -1.5462674344       -3.3220300210       -1.1342128308
 O          0.9377857221       -2.9205653849       -1.0668304466
 O         -0.1183250324       -5.1000174365       -0.3513896674
 O         -0.3208781646       -3.1229395546        1.1895170791
 O          2.8884374143        4.6066649586        1.2387089726
 N          0.6605577531        1.1989308799        0.0946921875
 N          2.4720981014        1.8096183777       -1.0255687225
 N          0.6262809622        2.8238294136        1.8762473145
 N          4.1622558619        3.9897734891       -0.5347511903
 C         -1.8277454285        1.2884112966        0.1813151173
 C         -2.7922753894        0.2149383442       -0.4063875097
 C         -0.5227375175        0.4814043961        0.4672428354
 C         -1.9734337775       -1.0851531386       -0.2874092592
 C         -2.1678713004       -2.0796459475       -1.4140648681
 C          1.1473856525        2.3052445746        0.7367788145
 C          1.4995305623        0.9577920961       -0.9638305002
 C          2.2849155336        2.6773198682        0.0295666524
 C          3.1270971559        3.8258359551        0.3030062081
 H         -1.6120512514        2.0750429207       -0.5493417579
 H         -3.0057408913        0.4246990956       -1.4580484026
 H         -0.4762036028        0.2475092713        1.5457142380
 H         -2.2207661368       -1.5700857993        0.6686275984
 H         -1.7331119098       -1.6710049673       -2.3313933313
 H         -3.2290165315       -2.2988624475       -1.5508207193
 H         -3.0049093288        1.3187987786        1.7192814049
 H         -4.6356663191        0.7138715543        0.0330218272
 H          1.3403716969        0.1373596499       -1.6309924993
 H          1.0487250640        3.7106710378        2.1211059926
 H         -0.3721843041        2.7493895790        2.0109544462
 H          1.7406627388       -2.7985693587       -0.5515125285
 H         -0.1254559254       -5.4529736107       -1.2504511963
 H          4.2918597803        3.3171521872       -1.2710518082
 H          4.7900720873        4.7655355814       -0.4138961441
  37
        -73.91833944
 P          0.0967663392       -2.4270868998       -1.1303939438
 O         -1.7168274176        0.5819711379        1.5707148261
 O         -3.0966240528        1.3988971322       -1.3379622970
 O         -4.1055623042       -0.6583401722       -0.0147528051
 O          0.0803047268       -1.3853563529        0.0790757889
 O          1.5620118348       -3.0055649949       -1.1912404619
 O         -0.0445682040       -1.4320923444       -2.3557452793
 O         -0.9118550713       -3.4915156611       -1.0479598645
 O          3.6745204261        1.7714169982        2.1863943551
 N         -0.0504083649        1.5407406738        0.1977694035
 N          1.7918602796        2.1605661933       -0.8831070643
 N          0.8757505316        1.0573961440        2.3898651837
 N          4.4003999777        2.3747337844        0.1229866733
 C         -2.1227303006        0.5702410541       -0.7708621843
 C         -2.7142623283       -0.7131634626       -0.1223777682
 C         -1.4687233207        1.3239070606        0.4115049991
 C         -1.9977940578       -0.7734033669        1.2371905689
 C         -0.7436470866       -1.6536508750        1.2068351519
 C          0.9679960350        1.4754642811        1.1088983452
 C          0.5168990514        1.9675704226       -0.9807997913
 C          2.1177457705        1.8572917730        0.4203901249
 C          3.4432593677        1.9923097896        0.9846418353
 H         -1.3590490336        0.2917130948       -1.5036260324
 H         -2.4954672363       -1.6047866134       -0.7129602859
 H         -1.9577715856        2.3035752773        0.5312546962
 H         -2.6585356921       -1.1507265500        2.0222313018
 H         -1.0547143750       -2.7009322419        1.1832746709
 H         -0.1346304861       -1.4513819489        2.0902184034
 H         -3.6065230477        0.9002608234       -1.9943342324
 H         -4.3685868187        0.1649342866        0.4266608033
 H         -0.0594997801        2.1431752617       -1.8649264592
 H          1.7125807931        1.2440363776        2.9270043383
 H         -0.0227214735        1.1045665596        2.8425523323
 H          2.2896040438       -2.3736762354       -1.1474692048
 H         -0.0380852118       -1.8524417330       -3.2244530416
 H          4.1332768391        2.5844188248       -0.8235359314
 H          5.3349148646        2.5422429220        0.4534150595
  37
        -73.91833490
 P         -0.3485102974       -3.1279891270       -1.2986277037
 O         -1.2766299391        0.4379156922        1.5429245856
 O         -2.8996238250        1.3962252943       -1.2727287720
 O         -3.7649704266       -0.6006029668        0.2000727186
 O         -0.4026209515       -2.9096348988        0.3030999688
 O         -1.7389769669       -3.7735558710       -1.6607450550
 O          0.7396710160       -4.2470865048       -1.4987581043
 O         -0.0752319964       -1.9060026189       -2.0584447822
 O          3.3085265637        3.6351773867        2.2685330620
 N          0.2405539288        1.5983131267        0.1791373242
 N          2.2910901711        1.7582907894       -0.6576199400
 N          0.4603828740        2.8878103001        2.2035283112
 N          4.5284769754        3.0408874811        0.4503197843
 C         -1.8783440925        0.5938684539       -0.7624445358
 C         -2.4105562502       -0.7202446052       -0.1289770355
 C         -1.1505797540        1.2880601699        0.4146398498
 C         -1.5161858869       -0.8916103219        1.1031278559
 C         -0.1911031753       -1.6093213302        0.8091309770
 C          0.9739654588        2.3325249414        1.0778637243
 C          1.1056886717        1.2742377286       -0.8420955646
 C          2.2494168523        2.4338597464        0.5428690519
 C          3.3894933995        3.0890165646        1.1565483229
 H         -1.1834454879        0.3542461000       -1.5704054658
 H         -2.3368327290       -1.5494400403       -0.8311096281
 H         -1.6557652700        2.2323636941        0.6606565782
 H         -2.0428854666       -1.4097234414        1.9096033219
 H          0.3783668111       -1.7120143233        1.7357448990
 H          0.3874465520       -1.0275444776        0.0877759168
 H         -3.7531490219        0.9609812793       -1.0786624598
 H         -3.8644961290       -0.0423146706        0.9881604760
 H          0.8325596724        0.6827992437       -1.6918075835
 H          1.1825104889        3.2837500587        2.7933151178
 H         -0.2659406657        2.3683642821        2.6730225349
 H         -2.0227878333       -4.5601759802       -1.1764310638
 H          0.8401844930       -4.9143380106       -0.8071127584
 H          4.5150735930        2.5886065722       -0.4478657998
 H          5.3615621914        3.4757159249        0.8079286024
  37
        -73.91833036
 P          0.9843467881       -1.9549579298       -0.6276995600
 O         -1.9291487082        0.3947865791        1.5191709297
 O         -3.3553031503        1.5928054313       -1.4012429660
 O         -4.5226486612       -0.1820685227        0.1087882799
 O         -0.4246293175       -1.3101783864       -0.3045829719
 O          0.6527942906       -3.4577413453       -1.0575802095
 O          1.6450090552       -2.1396626896        0.7899352005
 O          1.7211311029       -1.1977327544       -1.6463856428
 O          3.6070469061        0.8316938234        1.3790825143
 N         -0.3713189653        1.5436737089        0.1555326735
 N          1.3463393064        2.2887646750       -1.0445950280
 N          0.7981083184        0.4505466115        1.9749546598
 N          4.0839741978        2.0238803227       -0.4906049448
 C         -2.4971324571        0.6931211961       -0.7807810544
 C         -3.2078074966       -0.5546311409       -0.2078380321
 C         -1.7670939622        1.2910115932        0.4598696825
 C         -2.3727598857       -0.8729448317        1.0448134611
 C         -1.2102584007       -1.8310649525        0.7699088891
 C          0.7560072355        1.1574582676        0.8234974715
 C          0.0577713587        2.2180655548       -0.9640089863
 C          1.8252303383        1.6260249967        0.0629841284
 C          3.2251885367        1.4483288977        0.3682409121
 H         -1.7439216437        0.3902006738       -1.5141955214
 H         -3.1848654000       -1.3775322605       -0.9268820374
 H         -2.2326899735        2.2464281004        0.7472035151
 H         -2.9852943209       -1.2902678089        1.8485744762
 H         -1.5883046899       -2.8178657121        0.4928631807
 H         -0.5830751285       -1.9115296972        1.6584324409
 H         -4.2285770623        1.5219102502       -0.9734852063
 H         -5.0696290011       -0.9631098218        0.2699571070
 H         -0.6298949041        2.6408650305       -1.6675026904
 H          1.7236699298        0.4052181285        2.3787286681
 H         -0.0089038618        0.4775351766        2.5768563581
 H          0.7696065590       -3.6319502364       -1.9968153352
 H          2.5588506063       -2.4390121866        0.7728883393
 H          3.7063556993        2.4348261981       -1.3269470691
 H          5.0723544527        1.8739875495       -0.3834979815
  37
        -73.91832097
 P         -0.0592082865       -3.1853192273       -1.2121327771
 O         -1.4977717227        0.4597852353        1.5602689639
 O         -3.4137795386        1.7655823514       -0.4890084997
 O         -3.6803522128       -0.8414819856       -0.5970623029
 O         -0.6946281386       -2.8596291661        0.2365344663
 O         -0.8785235028       -4.4521698946       -1.6445825154
 O          1.3788835102       -3.7483922759       -0.9464372197
 O         -0.0483819545       -2.0273979844       -2.1189671021
 O          3.4594532802        3.4529355884        2.0936431193
 N          0.0675308574        1.6812172625        0.2909342430
 N          2.0638516008        1.5861467170       -0.6785975265
 N          0.5638040402        3.0109281970        2.2428916130
 N          4.4926893076        2.6624060525        0.2351532816
 C         -2.1841234403        1.1035120326       -0.6091479804
 C         -2.3492447028       -0.4410118609       -0.4788608722
 C         -1.3269251099        1.4829529337        0.6066846542
 C         -1.7373043997       -0.7753589140        0.9024673001
 C         -0.4384024785       -1.5894979455        0.8039326290
 C          0.9328641633        2.3592931752        1.1123529016
 C          0.8251023462        1.2239841249       -0.7658887899
 C          2.1723254453        2.3064858847        0.4908603834
 C          3.4127003112        2.8579740099        1.0050463406
 H         -1.6821699360        1.3790793360       -1.5398782702
 H         -1.8014587988       -0.9560902478       -1.2690696038
 H         -1.7051439244        2.4078705858        1.0585988489
 H         -2.4552424189       -1.3359366118        1.5099517057
 H         -0.0374252367       -1.7431020500        1.8092685713
 H          0.2967544325       -1.0522013430        0.1990523341
 H         -3.9082136709        1.6912717538       -1.3191524542
 H         -4.2303008513       -0.2603495173       -0.0427659889
 H          0.4318548925        0.6237772975       -1.5613060237
 H          1.3665443977        3.3575159805        2.7552549804
 H         -0.1675757562        2.5915541874        2.7963896661
 H         -1.7829086222       -4.3104845256       -1.9436733862
 H          1.4181800921       -4.5799902168       -0.4557665650
 H          4.3796979899        2.1653841127       -0.6318171829
 H          5.3904378635        3.0054407995        0.5311658860
  37
        -73.91830821
 P          0.0462786484       -2.9343990459        0.2420112269
 O         -1.1044714901        0.0211705370        1.1627642677
 O         -2.3455900511        1.4945862053       -1.7986034958
 O         -3.9937733836       -0.2288005209       -0.7232082741
 O         -1.5268768395       -3.0201145930        0.5627421387
 O          0.1467151630       -2.3352754239       -1.2064119238
 O          0.4230244783       -4.4465477663        0.0052477270
 O          0.8233553246       -2.2191368568        1.2649454402
 O          4.1711678557        1.6573606313       -0.4815934657
 N          0.0017712595        1.8853956748        0.2347120582
 N          1.2714647635        3.7104619306        0.2210953105
 N          1.6321598260        0.1937530092       -0.3605186336
 N          4.0310813537        3.9008740520       -0.1794685005
 C         -1.6848403098        0.5261763757       -1.0389623987
 C         -2.6548737175       -0.5859988561       -0.5421678032
 C         -1.2060150234        1.1320702729        0.3006392370
 C         -2.3039976696       -0.7172083802        0.9626303788
 C         -2.1278463854       -2.1382587959        1.4886440355
 C          1.2754499522        1.4646895491       -0.0496952706
 C          0.0760204190        3.2511066948        0.3909332273
 C          2.0580121604        2.6143757669       -0.0581644305
 C          3.4934453589        2.6743470524       -0.2608408489
 H         -0.8232081719        0.0910513875       -1.5496144398
 H         -2.4762712088       -1.5348519222       -1.0558406594
 H         -1.9909887133        1.8194389164        0.6621844393
 H         -3.1118903332       -0.2375906785        1.5369299287
 H         -3.1022424405       -2.5752074617        1.7087180252
 H         -1.5125880690       -2.0758312970        2.3899506456
 H         -2.2097458965        1.3403902438       -2.7444000640
 H         -4.0150916305        0.6565812513       -1.1369356070
 H         -0.7842195045        3.8457937097        0.6187866676
 H          2.6414972300        0.1022066211       -0.4113831302
 H          1.1762683991       -0.5461112428        0.1586821066
 H          0.0769490587       -2.9897094569       -1.9136828678
 H          0.5816157327       -4.9729090613        0.7956749504
 H          3.4223871065        4.6772357389        0.0163920336
 H          5.0232480528        4.0231195686       -0.2866045506
  37
        -73.91828742
 P          0.3069573745       -3.1695790510        0.0220089323
 O         -1.2295706182       -0.2447580187        0.7100801823
 O         -3.4270630311        2.2276730095       -0.4806889825
 O         -4.1301556614       -0.2599126290        0.0659743622
 O          0.3603508623       -1.8811837592       -0.9226667639
 O          0.4468608572       -2.5511342568        1.4764616294
 O          1.6736457547       -3.8810652122       -0.2838818523
 O         -0.8597979793       -4.0420712386       -0.1748048936
 O          3.9676500769        1.6416040385        0.9286388345
 N         -0.1917592846        1.7987438374        0.1695422085
 N          1.1896215644        3.3217638174       -0.6772713671
 N          1.3412669356        0.5415764249        1.5623896794
 N          3.9707149165        3.4919622692       -0.3837330826
 C         -2.4627633432        1.2515095604       -0.6825075516
 C         -3.0272538185       -0.1827480292       -0.7937767896
 C         -1.4371859068        1.1284591805        0.4809007107
 C         -1.8374483657       -1.0220466616       -0.3089974098
 C         -0.8522512112       -1.3559143017       -1.4334052307
 C          1.0551676332        1.4935571379        0.6481245110
 C         -0.0388812545        2.9233355783       -0.6110896070
 C          1.9138923484        2.4413088152        0.0962790718
 C          3.3517846337        2.4875301272        0.2573794432
 H         -1.9340710546        1.5069711726       -1.6052369523
 H         -3.3041286052       -0.4249561068       -1.8244307338
 H         -1.8516675022        1.5631580722        1.4033345592
 H         -2.1432276318       -1.9575849211        0.1665219600
 H         -0.5593707576       -0.4633706891       -1.9902566492
 H         -1.3144810789       -2.0878869924       -2.1006441925
 H         -4.1400613807        1.8497961984        0.0640796158
 H         -4.5922304262       -1.1022336236       -0.0430056480
 H         -0.8656524770        3.4182442281       -1.0764144689
 H          2.3375093408        0.3994420690        1.6706725984
 H          0.7438903465       -0.2704392952        1.6027773239
 H          0.1599561744       -3.1274217027        2.1928674676
 H          2.4724422943       -3.3445603993       -0.2094425758
 H          3.4098115712        4.1439166081       -0.9047244427
 H          4.9685006042        3.5932778338       -0.3163953066
  37
        -73.91828158
 P          0.8724598885       -2.3021663824       -0.0890848070
 O         -2.1439695883        0.7686089407        1.4738120378
 O         -3.7363200409        1.5417314116       -1.0174040516
 O         -3.7931032905       -1.0712020861       -0.8286035163
 O          0.1018916459       -1.1049433595        0.6503533729
 O          2.3639052976       -1.8632633599       -0.1237048477
 O          0.3048052185       -2.2045047990       -1.5794742575
 O          0.6517712224       -3.6187983424        0.5271631017
 O          3.2901635435        0.3951206435       -1.0090871820
 N         -0.4049369085        1.8578452671        0.3382477265
 N          1.5004486448        2.5283692220        1.2857672683
 N          0.5032913568        0.7205342554       -1.6330931486
 N          4.1364559041        1.9303303975        0.4260150130
 C         -2.4564068446        0.9866013582       -0.8541013236
 C         -2.5545861468       -0.5298168642       -0.4902577562
 C         -1.8326848321        1.6186557245        0.3971787091
 C         -2.2687664071       -0.5772254664        1.0314649963
 C         -1.0464382041       -1.4148203835        1.4303805654
 C          0.6076315590        1.3273866383       -0.4168074692
 C          0.2119271150        2.5556240118        1.3548814251
 C          1.7896732318        1.7564112972        0.1826401514
 C          3.1176131723        1.3223783282       -0.1765488716
 H         -1.8406664140        1.1756513424       -1.7335320690
 H         -1.8148526120       -1.1265601972       -1.0269341004
 H         -2.3159578634        2.5798389439        0.6116086025
 H         -3.1278533695       -0.9991654184        1.5644333509
 H         -1.2680685250       -2.4798095790        1.3352824401
 H         -0.8057573024       -1.1874308492        2.4725611809
 H         -4.0404642599        1.4056431145       -1.9271326877
 H         -4.4896569514       -0.4539522580       -0.5417793604
 H         -0.3541860943        3.0517714015        2.1157483703
 H          1.4249824357        0.4537012748       -1.9673467806
 H         -0.1565390712       -0.0357463911       -1.7268064043
 H          2.6682543414       -1.0055177347       -0.5505218081
 H          0.4091987858       -3.0186558007       -2.0841258650
 H          3.9349284136        2.6376044457        1.1135800807
 H          5.0783564342        1.6161329667        0.2585414081
  37
        -73.91827542
 P         -0.7487271013       -4.1509916590       -0.7078552612
 O         -0.8814729583       -0.1642747054        1.4673837819
 O         -2.3810841930        2.1653801071       -0.6580918197
 O         -3.4929199351       -0.1864778186       -0.0972212340
 O         -0.4920956359       -2.6384414559       -1.2310137322
 O          0.6714833004       -4.8073949718       -0.5989753081
 O         -1.3905943470       -4.8120558747       -1.9784321418
 O         -1.5085533020       -4.2158857596        0.5475865621
 O          2.6463745214        5.1301097097       -0.1810128123
 N          0.5319802872        1.6281242027        0.8867250132
 N          2.7452045277        1.7062860021        0.9990695095
 N          0.0130081818        3.8955326014        0.2438454415
 N          4.4390812888        3.8512776053        0.3649608874
 C         -1.4864422484        1.1179083166       -0.4590219071
 C         -2.1552531449       -0.2777728497       -0.5006480650
 C         -0.8280266313        1.1406395273        0.9526356267
 C         -1.2734076650       -1.0850648997        0.4543654089
 C         -0.0646697440       -1.7040894641       -0.2599133695
 C          0.8869619259        2.8963261591        0.5118476507
 C          1.6987587794        0.9636546855        1.1697398770
 C          2.2756069446        2.9334266541        0.5818205263
 C          3.1198798879        4.0585174801        0.2316050910
 H         -0.7013138490        1.1890470370       -1.2206210529
 H         -2.1594169802       -0.6984082042       -1.5070418683
 H         -1.3868695413        1.8076043310        1.6264676311
 H         -1.8224706293       -1.8948054411        0.9435620348
 H          0.5675820965       -2.1927254656        0.4870166879
 H          0.5139766351       -0.9435340047       -0.7899360796
 H         -3.2887925896        1.8205496998       -0.5535660265
 H         -3.5501717520       -0.1618534715        0.8698644226
 H          1.7048089226       -0.0504386488        1.5094377616
 H          0.4684974014        4.7150817209       -0.1370804345
 H         -0.8896807078        3.6562977633       -0.1403287341
 H          1.1490908770       -4.9198070703       -1.4320809933
 H         -2.3464597335       -4.7270223212       -2.0625123204
 H          4.7508471304        2.9614105170        0.7144843984
 H          5.0882276013        4.5867932276        0.1452605938
  37
        -73.91825736
 P         -0.1999093417       -3.2316773720       -1.1528620642
 O         -1.4030924532        0.4429371005        1.5428795787
 O         -3.4371783998        1.5764447761       -0.5412646495
 O         -3.4316483950       -1.0360254579       -0.5509396821
 O         -0.2843641229       -2.8454405351        0.3950426381
 O         -1.6972870861       -3.6441870276       -1.4661445363
 O          0.6338984023       -4.5650874462       -1.1517821493
 O          0.3661307594       -2.1923341946       -2.0255372288
 O          3.4691407600        3.5093137950        2.1014048479
 N          0.0932168956        1.7396936410        0.2636468677
 N          2.0680808211        1.7749010548       -0.7525631618
 N          0.5887741143        2.9616148946        2.2834778699
 N          4.4824887769        2.8665438835        0.1762805389
 C         -2.1470212988        1.0519388309       -0.6096319949
 C         -2.1383397730       -0.5044156747       -0.5152590634
 C         -1.2881189351        1.4824231365        0.5964492942
 C         -1.5231871020       -0.7996823875        0.8662623074
 C         -0.1589306730       -1.4955940459        0.7902396590
 C          0.9550482684        2.3949448318        1.1072975640
 C          0.8403032783        1.3768929223       -0.8355302207
 C          2.1809291810        2.4224574908        0.4581608691
 C          3.4152908025        2.9803908540        0.9796569864
 H         -1.7250711311        1.4187075575       -1.5458974529
 H         -1.5122184150       -0.9331557256       -1.3048814955
 H         -1.6925456280        2.3888786023        1.0626736212
 H         -2.2088662152       -1.4261616463        1.4462333448
 H          0.2894302432       -1.5038084092        1.7867437200
 H          0.5005084102       -0.9694841404        0.0930783379
 H         -3.9423994026        1.1086208856        0.1446818173
 H         -3.8469947057       -0.8358716923       -1.4036329702
 H          0.4480343914        0.8186601330       -1.6603926846
 H          1.3895648834        3.3031026368        2.8019632113
 H         -0.1176616730        2.4837770742        2.8219317983
 H         -1.8581846337       -3.9963198056       -2.3490354432
 H          0.3707625447       -5.2241033364       -0.4962192039
 H          4.3651672753        2.4190200507       -0.7166455318
 H          5.3749872379        3.2230369408        0.4719612926
  37
        -73.91825438
 P          0.1332551717       -2.9552950473        0.8726908305
 O         -1.0488039843       -0.4465818164        0.5239109586
 O         -2.8394261156        2.3001795534       -0.9353612513
 O         -4.1069929168        0.1333547064       -0.0864886028
 O         -0.2208440548       -2.7619708683       -0.6705458989
 O          1.2276281918       -1.8403084321        1.1666151955
 O          0.9551214076       -4.3000090774        0.7905583457
 O         -0.9669038388       -3.0443213012        1.8402096215
 O          3.8100231866        1.7043135315       -1.4060291045
 N         -0.0329335472        1.6598900881        0.3626656878
 N          1.3718697786        3.3444823403        0.7113074264
 N          1.2351059325        0.3176826897       -1.2110755392
 N          3.9696399064        3.6685851987       -0.2826364959
 C         -2.1124689662        1.1206027941       -0.8942962260
 C         -2.9767592089       -0.1566823972       -0.8645815316
 C         -1.2709758251        0.9423983965        0.3967094702
 C         -2.0373967880       -1.1786569762       -0.1981179887
 C         -1.3356032970       -2.0731935389       -1.2179412143
 C          1.0877459417        1.3850814115       -0.3757756090
 C          0.2076583357        2.8563520842        0.9923218349
 C          1.9589974448        2.4417953263       -0.1475539790
 C          3.3079530611        2.5687447563       -0.6694647074
 H         -1.4378156228        1.1187966389       -1.7555892816
 H         -3.2586132430       -0.4743751347       -1.8723977644
 H         -1.8430510053        1.3152889973        1.2610213699
 H         -2.5661677474       -1.7990705680        0.5328063788
 H         -0.9402342861       -1.4701434710       -2.0417699670
 H         -2.0355617189       -2.8185021918       -1.6041579045
 H         -3.6598265807        2.1724586831       -0.4261418698
 H         -4.7857444889       -0.5466970439       -0.1961885084
 H         -0.5117354239        3.3175072848        1.6366443090
 H          2.1954550390        0.2543579305       -1.5353275621
 H          0.8651496188       -0.5514359250       -0.8507319978
 H          1.3078614525       -1.6349179308        2.1018466909
 H          1.6552527876       -4.3286833919        0.1269017398
 H          3.4978941735        4.3241658948        0.3169340806
 H          4.9122631754        3.8255525137       -0.5950918490
  37
        -73.91825358
 P         -0.1779992513       -3.8695030815       -0.6067058680
 O         -1.0716618296       -0.4983372435        1.0374754785
 O         -2.7165582706        2.4212712824        0.0904939113
 O         -3.8936356204        0.0296918726        0.1363017025
 O          0.2587891797       -2.3368916631       -0.7441499588
 O          1.1342889638       -4.5234961175       -0.0628586622
 O         -0.3371944221       -4.3076848175       -2.1278850842
 O         -1.3682017904       -4.1508730295        0.2085274154
 O          2.6110052928        4.9074075652        0.3869068149
 N          0.3866563730        1.3283647803        0.7273737761
 N          2.5729520376        1.2844524587        0.3644524260
 N         -0.0062288305        3.6962137193        0.9726232534
 N          4.3264050826        3.4554561005        0.0768703503
 C         -1.8978546451        1.3452777351       -0.2393244703
 C         -2.6837221972        0.0510811483       -0.5667436232
 C         -0.9780919444        0.8971852486        0.9367787512
 C         -1.7016040096       -1.0375015207       -0.1227235501
 C         -0.6913669954       -1.3982599420       -1.2173954730
 C          0.7940253662        2.6350802249        0.7076078846
 C          1.5076929350        0.5647029973        0.5184483814
 C          2.1645301132        2.5969974492        0.4757332609
 C          3.0379998301        3.7428871313        0.3190652343
 H         -1.2744787367        1.6404416189       -1.0911486445
 H         -2.9404330036       -0.0127526108       -1.6247160322
 H         -1.3221469284        1.3389284785        1.8839661017
 H         -2.1953267011       -1.9569642405        0.2023719312
 H         -0.1086260973       -0.5247011861       -1.5193881299
 H         -1.2225422382       -1.8088251410       -2.0788633825
 H         -3.6097420518        2.0806403089        0.2896154948
 H         -3.7455200477       -0.2589363823        1.0496212244
 H          1.4711720877       -0.5047508740        0.5019666344
 H          0.4505087870        4.5791499887        0.7824316097
 H         -0.9847192553        3.6315507571        0.7313022142
 H          1.9393636243       -4.3505405250       -0.5686549002
 H         -0.9542059700       -5.0326230435       -2.2759617929
 H          4.6026169103        2.4892254460        0.0415332912
 H          4.9935219518        4.1984774195       -0.0391371424
  37
        -73.91824984
 P          0.0618175107       -2.9428250725        0.1994614477
 O         -1.0816744187       -0.0127563489        1.1398836683
 O         -2.3310331566        1.4764997842       -1.8545398504
 O         -4.0148422398       -0.1082596758       -0.6260395900
 O         -1.5236909686       -3.0121187463        0.4696123931
 O          0.2143059306       -2.2276483066       -1.1895639907
 O          0.4048014539       -4.4399629508       -0.1553502006
 O          0.8134294826       -2.3416623165        1.3111986274
 O          4.2043199335        1.6712872802       -0.2864976031
 N          0.0034471382        1.8770023090        0.2291786253
 N          1.2412125643        3.7196667051        0.0858978013
 N          1.6931793674        0.1761833408       -0.1344349239
 N          4.0075448059        3.9301659468       -0.2349798723
 C         -1.7181215594        0.5385078290       -1.0352436276
 C         -2.6903831033       -0.5661811513       -0.5273833203
 C         -1.2024017340        1.1210823501        0.3082872884
 C         -2.2932844125       -0.7337090131        0.9601780274
 C         -2.1128338808       -2.1706153965        1.4396282199
 C          1.2923667100        1.4573106677        0.0306085389
 C          0.0479988348        3.2531169390        0.2516228816
 C          2.0568146779        2.6182331301       -0.0543374759
 C          3.4963072478        2.6891992576       -0.2051052761
 H         -0.8703899346        0.1093285404       -1.5753819451
 H         -2.5394412460       -1.5000471300       -1.0667068085
 H         -1.9765069431        1.7975114796        0.7129247497
 H         -3.0780263470       -0.2575665822        1.5690385183
 H         -3.0808891236       -2.6184886799        1.6656643492
 H         -1.4806596320       -2.1380515287        2.3307283495
 H         -3.2708035146        1.5307234242       -1.5922530524
 H         -4.5293056555       -0.6617734130       -1.2285776241
 H         -0.8305627009        3.8491481015        0.3869695323
 H          2.7035698693        0.0958500055       -0.1225918701
 H          1.1955273089       -0.5437054016        0.3712463137
 H          0.2606547668       -2.8277119917       -1.9446370222
 H          0.5376840669       -5.0311340171        0.5930063673
 H          3.3751236908        4.7082974410       -0.1580834365
 H          4.9996919698        4.0632582446       -0.3268249496
  37
        -73.91830704
 P          0.7566744516       -1.7975603162       -0.3770875244
 O         -1.6510174318        0.2977000400        1.3886746583
 O         -3.9094546153        1.5646306649       -0.1960396498
 O         -3.6595817361       -0.8620282667       -1.3124378273
 O         -0.6573759788       -2.4704531944       -0.0458585948
 O          1.5318131576       -3.0450436481       -0.9611581933
 O          1.4003747452       -1.5210236916        1.0165332055
 O          0.6654523193       -0.6840192773       -1.3430106579
 O          3.4188017810        0.0955732808        0.9045331403
 N         -0.3159854846        1.7832762381        0.1842800239
 N          1.4155448873        2.2451647525       -1.1347066116
 N          0.8320814515        1.0449775390        2.1720563004
 N          4.1354373465        1.5338666841       -0.6920809698
 C         -2.6205358134        1.1694160632       -0.5698830671
 C         -2.5019418683       -0.3615057179       -0.7109506334
 C         -1.6712920271        1.4682509755        0.5991640505
 C         -2.3177127166       -0.7916611329        0.7551798397
 C         -1.5407827799       -2.0938279286        0.9967654797
 C          0.8025284058        1.3732292606        0.8584943727
 C          0.1324434487        2.3030189433       -1.0100304126
 C          1.8774135478        1.6271831508        0.0080714079
 C          3.1900581811        1.0475409485        0.1122191396
 H         -2.3194300029        1.6729915471       -1.4941712132
 H         -1.5993141080       -0.5917464790       -1.2854824257
 H         -2.0746775782        2.2893810106        1.2094616824
 H         -3.3093714741       -0.8885886149        1.2201535492
 H         -2.2369083624       -2.9311076284        1.0747671608
 H         -0.9855049514       -1.9876613427        1.9317185602
 H         -4.5476026355        1.0617077812       -0.7297039171
 H         -3.5161134410       -1.7660946344       -1.6214522698
 H         -0.5187518951        2.7375715880       -1.7383519210
 H          1.6915860972        0.6041949274        2.4656514506
 H         -0.0159982819        0.6571376703        2.5567233412
 H          1.5562919729       -3.0718474041       -1.9227002876
 H          2.2329245753       -0.9399419007        0.9970029471
 H          3.8689525559        2.2337727779       -1.3645523610
 H          5.0325123679        1.0791975844       -0.7405331954
  37
        -73.91824920
 P         -0.4637166124       -3.7248649529       -0.6357999057
 O         -0.9499037803        0.1901293572        1.3570038459
 O         -3.5330792554        1.5450930198        0.3347738096
 O         -3.2920000584       -0.8410193205       -0.7400729520
 O         -0.0411450293       -2.2691269144       -1.2044252692
 O          0.1003882414       -4.6841441300       -1.7506429636
 O         -2.0138234080       -3.8544246842       -0.8189297782
 O         -0.0032267121       -3.9433541682        0.7422391090
 O          3.8640661164        3.1894563599        1.7719814541
 N          0.0823999050        2.0103770050        0.2876064600
 N          1.7097759066        2.6413169235       -1.0870244194
 N          1.1255163530        2.3513816478        2.4324977297
 N          4.3035008724        3.5006854987       -0.4319262100
 C         -2.2718487897        1.3319420133       -0.2204905534
 C         -2.0874168391       -0.1337486625       -0.7161735160
 C         -1.1500850524        1.4830098940        0.8252692760
 C         -1.1557497266       -0.7713010215        0.3355345906
 C          0.1738537846       -1.2466386389       -0.2571638526
 C          1.1525047130        2.3474574424        1.0776316957
 C          0.4979968582        2.1946467454       -1.0116129720
 C          2.1583641986        2.7513427145        0.2103292747
 C          3.4978346174        3.1660548210        0.5862182991
 H         -2.1767353726        2.0680020987       -1.0193077641
 H         -1.6012924893       -0.1540146011       -1.7002048336
 H         -1.4631521335        2.1272873976        1.6553659918
 H         -1.6454573785       -1.6418902957        0.7883336537
 H          0.7954110504       -1.6214406608        0.5613335798
 H          0.6927008969       -0.4421015120       -0.7839262932
 H         -3.7627403867        0.8088738879        0.9242974280
 H         -3.9104736256       -0.4176800510       -1.3557940757
 H         -0.1219596376        2.0010671697       -1.8610124710
 H          2.0426670755        2.5159516017        2.8299255134
 H          0.5685831297        1.6386617270        2.8792250741
 H          1.0474410286       -4.8570813354       -1.7200289972
 H         -2.3122587558       -3.9833640322       -1.7283746982
 H          3.9387845591        3.4558005658       -1.3680465281
 H          5.2494272396        3.7892623557       -0.2502438866
  37
        -73.91824905
 P         -0.3550054473       -3.1991795721       -1.0793062369
 O         -1.4379013284        0.0173891054        1.6218025783
 O         -3.0746811308        1.7828490636       -0.3275079035
 O         -2.9092450341       -0.6024508790       -1.5790506697
 O         -0.3955476016       -2.5871291252        0.4130303625
 O          0.1573274009       -4.6783682136       -0.8975648214
 O          0.7901101289       -2.3980071378       -1.8001033022
 O         -1.6375096356       -3.1218893223       -1.7882581802
 O          3.2117377684        4.4200796594        0.4538415606
 N          0.2806990968        1.4109096455        0.9005796958
 N          2.4399989428        0.9025225635        0.8522467618
 N          0.3640075681        3.7918262159        0.4783696504
 N          4.6238957379        2.6486798307        0.5772562181
 C         -1.8093665020        1.1946273752       -0.4059762074
 C         -1.8847588359       -0.3187063327       -0.6761128230
 C         -1.1496839579        1.2347944115        0.9858781772
 C         -2.1244699366       -0.8711218615        0.7414240705
 C         -1.6654308423       -2.3078631105        0.9802837651
 C          0.9461975326        2.5905861822        0.7063969156
 C          1.2408005551        0.4313479940        0.9736408089
 C          2.2974180243        2.2622401453        0.6802055033
 C          3.3994212886        3.1964060548        0.5570246410
 H         -1.1880749258        1.7104014189       -1.1504928378
 H         -0.9112192577       -0.6579523451       -1.0506988229
 H         -1.5764201659        2.0573242949        1.5776458168
 H         -3.2005451334       -0.8154000776        0.9602345045
 H         -2.4100040887       -2.9869018437        0.5610036524
 H         -1.5628176520       -2.4655129269        2.0552941147
 H         -3.6223099906        1.4168957374       -1.0417416018
 H         -2.7761147601       -1.5038296503       -1.9198482829
 H          0.9876359134       -0.5956456341        1.1334537682
 H          1.0283850558        4.5554829630        0.5086123981
 H         -0.5547250625        3.9647478992        0.8522218366
 H          0.7247929925       -4.8739201379       -0.1405297606
 H          1.7072236349       -2.5835359993       -1.5652855131
 H          4.7004221215        1.6514023647        0.6808828260
 H          5.4377938100        3.2353653282        0.5132829228
  37
        -73.91821037
 P         -0.2553036418       -3.9550414618       -0.6506329327
 O         -0.9873327016       -0.4882308727        1.0298445361
 O         -2.6447022009        2.4268171319       -0.0085862476
 O         -3.7979059768        0.0787888325        0.2032365405
 O          0.2509997155       -2.4398408081       -0.7167984363
 O          0.9443572927       -4.6721614053        0.0504667521
 O         -0.2334907065       -4.3783733103       -2.1846328265
 O         -1.5559952520       -4.1868195190       -0.0055538616
 O          2.5724137926        4.9973652186        0.4317960123
 N          0.4138650592        1.3749479268        0.7415962845
 N          2.6072945146        1.3741935940        0.4186052122
 N         -0.0334828828        3.7347915248        0.9655172947
 N          4.3227136627        3.5789137320        0.1660447733
 C         -1.8457421545        1.3219263479       -0.2772135678
 C         -2.6311962162        0.0269574850       -0.5700255103
 C         -0.9431348461        0.9067932540        0.9237192777
 C         -1.6466063159       -1.0535028012       -0.0979617124
 C         -0.6557662644       -1.4607047779       -1.1952516490
 C          0.7946692055        2.6892752219        0.7246452936
 C          1.5532506919        0.6340561508        0.5537382037
 C          2.1702087332        2.6784759394        0.5197828427
 C          3.0234937085        3.8411778259        0.3780808472
 H         -1.2103251045        1.5819125628       -1.1306601332
 H         -2.8667279483       -0.0725037597       -1.6351092760
 H         -1.3285497383        1.3422391777        1.8578657502
 H         -2.1417194195       -1.9564386025        0.2687330895
 H         -0.0369172880       -0.6130471503       -1.4989524720
 H         -1.2031928255       -1.8515350907       -2.0558233938
 H         -3.4652324208        2.1176202564        0.4147348712
 H         -4.3266743139       -0.7204596500        0.0767367926
 H          1.5366909415       -0.4360505948        0.5383328093
 H          0.4092212705        4.6258688928        0.7800523459
 H         -1.0026548435        3.6458446898        0.6934631692
 H          1.8178214802       -4.5220670255       -0.3344978639
 H         -0.8289313512       -5.1009404163       -2.4120759378
 H          4.6183832853        2.6181749260        0.1404033876
 H          4.9772429163        4.3347031155        0.0613834596
  37
        -73.91819646
 P         -0.8052523400       -4.0412835643       -0.5623669395
 O         -0.8049245977       -0.1504830478        1.5098463831
 O         -2.4466673128        2.0041230713       -0.6723604366
 O         -3.3670425033       -0.3507551376       -0.0290265420
 O         -0.1697238339       -2.6563277129       -1.1046238714
 O         -0.3679574065       -5.0689867812       -1.6684221270
 O         -2.3552186381       -3.9138340360       -0.7975853509
 O         -0.4267085995       -4.3289441986        0.8278362593
 O          2.6996567827        5.0044104864       -0.5553570686
 N          0.5446755472        1.6447333069        0.8397801410
 N          2.7235823241        1.8459340611        1.2192201704
 N          0.1385012560        3.6188973521       -0.4974527248
 N          4.4340623405        3.9266912799        0.4337808213
 C         -1.4837875713        1.0233087186       -0.4633844655
 C         -2.0381866484       -0.4176223085       -0.4714963499
 C         -0.8060496088        1.1284030098        0.9365793613
 C         -1.1096674454       -1.1250167272        0.5240180842
 C          0.1555606766       -1.6746897394       -0.1444980920
 C          0.9290911823        2.8135977925        0.2387947778
 C          1.6746389097        1.1163338535        1.4190578276
 C          2.2969058916        2.9275293562        0.4781335533
 C          3.1442617533        4.0290917126        0.0738845381
 H         -0.7224966735        1.1420390555       -1.2402580267
 H         -1.9724553702       -0.8713466816       -1.4657487874
 H         -1.3875079787        1.7937058225        1.5930820085
 H         -1.6051528806       -1.9551213803        1.0384533387
 H          0.7885171599       -2.1100838234        0.6336436449
 H          0.7021160133       -0.8932200501       -0.6757142008
 H         -3.3037899211        1.6695126788       -0.3535379197
 H         -3.7639859362       -1.2317140040       -0.0129869004
 H          1.6466050508        0.2012583584        1.9721059888
 H          0.5682619376        4.4987762840       -0.7452129926
 H         -0.8644116539        3.5541251307       -0.4356761557
 H          0.5424720959       -5.3807735115       -1.6202228754
 H         -2.6623161142       -4.2291568612       -1.6580963251
 H          4.7208959443        3.1188290554        0.9591599941
 H          5.0788301350        4.6642923624        0.2086819678
  37
        -73.91819172
 P          0.4660077385       -2.7526354527        0.0068975848
 O         -1.4263066376       -0.3714254677        0.7016977844
 O         -3.8853216604        1.4572493961        0.7530793994
 O         -4.1042706073       -0.3547071228       -1.1280170699
 O          0.5436747592       -1.3784440987       -0.8002231450
 O          0.3352596953       -2.3357462376        1.5176053799
 O          1.9566966290       -3.2659001904       -0.0615637863
 O         -0.5548516040       -3.6907925769       -0.4983853679
 O          3.8674889772        1.4809897480        1.1278990914
 N         -0.2721072930        1.6238693194        0.2403372066
 N          1.2149577869        2.6902170646       -1.0200349959
 N          1.1427328286        0.7127162676        1.9660052041
 N          3.9990898888        2.7924877035       -0.7177258021
 C         -2.7540817565        1.3992508597       -0.0590508311
 C         -2.8409242974        0.2413496020       -1.1043408213
 C         -1.4907189146        1.0357219218        0.7508797615
 C         -1.8178102273       -0.7945408849       -0.5911242077
 C         -0.5989366845       -0.9404592428       -1.5161558973
 C          0.9563269542        1.3926239384        0.8060242209
 C         -0.0373915498        2.4007320290       -0.8702043960
 C          1.8753625199        2.0719981345        0.0180709773
 C          3.3151658380        2.0890956505        0.1976511527
 H         -2.6755118258        2.3835899120       -0.5196286561
 H         -2.5546025615        0.5953906325       -2.1019654695
 H         -1.5940703258        1.3125972372        1.8067736996
 H         -2.2861382115       -1.7747895542       -0.4663424306
 H         -0.3015254023        0.0157414825       -1.9531253512
 H         -0.8398940039       -1.6578445929       -2.3039414424
 H         -4.1244586996        0.5621780483        1.0440607242
 H         -4.7656747814        0.2792180490       -1.4458191781
 H         -0.8090374245        2.7410579008       -1.5276973895
 H          2.1281804460        0.5508309571        2.1416659769
 H          0.5565752938       -0.1010078765        2.0953757247
 H          0.0176243756       -3.0435252715        2.0898618780
 H          2.1852260273       -3.7779534387       -0.8443011373
 H          3.4864202161        3.2619371787       -1.4445088582
 H          5.0015425533        2.8468923482       -0.6629295954
  37
        -73.91818411
 P         -0.6042050513       -3.1065147226       -1.4549845531
 O         -1.1246599635       -0.0754617989        1.6890438337
 O         -2.1246059450        1.5170548966       -1.3257301959
 O         -3.7816489064        0.0069788413        0.0261023546
 O         -0.2269871111       -2.3760341800       -0.0839190117
 O          0.6470789835       -4.0010659575       -1.8029333698
 O         -0.4860025963       -1.9236007792       -2.4810992052
 O         -1.8937552186       -3.8204294998       -1.3981827736
 O          3.1769470825        4.4339365789        1.4703874154
 N          0.4473312759        1.3082256145        0.6664707405
 N          2.6213199151        1.0552854729        0.2853797500
 N          0.3869068384        3.6205572121        1.4009896371
 N          4.6803633317        2.9169377002        0.7070336766
 C         -1.5401598908        0.4925598181       -0.5930680504
 C         -2.5326815165       -0.6069777302       -0.1584664880
 C         -0.9426762988        0.9674635999        0.7566204335
 C         -1.9346856631       -1.1226626398        1.1603655078
 C         -1.1402109602       -2.4222718876        1.0013185860
 C          1.0373203752        2.4972387878        1.0044011371
 C          1.4631303523        0.4802612331        0.2486165205
 C          2.3937555558        2.3321785237        0.7520084153
 C          3.4326866950        3.3125884514        1.0001129698
 H         -0.7440366935        0.0651688324       -1.2069995445
 H         -2.5858151123       -1.4058934461       -0.9035026525
 H         -1.4859797528        1.8609556486        1.0960248497
 H         -2.7242801823       -1.3049796089        1.8985307009
 H         -1.8401384016       -3.2471567671        0.8437260916
 H         -0.5461958403       -2.5849713714        1.9025954526
 H         -3.0460698503        1.6203516751       -1.0248977715
 H         -4.4900199021       -0.6506549758        0.0172993810
 H          1.2886824534       -0.5331177598       -0.0492823807
 H          1.0377985182        4.3395437783        1.6972460256
 H         -0.4372556252        3.5130074283        1.9712730724
 H          0.6268557714       -4.9033187869       -1.4647334017
 H         -0.3503197892       -2.1697550860       -3.4035371719
 H          4.8134589426        1.9931056911        0.3328178114
 H          5.4547105930        3.5393995045        0.8611878942
  37
        -73.91817705
 P         -0.1735033201       -3.7804566068       -0.7297707082
 O         -1.0104619102       -0.6089655515        0.8962669958
 O         -2.8426986445        2.1910076579        0.5594991183
 O         -3.9158421125       -0.1329572589       -0.1838537060
 O          0.3452490726       -2.2691996859       -0.9673419930
 O         -0.4758567791       -3.9397337051        0.8006070550
 O          1.1498087973       -4.6125580015       -0.9177412157
 O         -1.3170649901       -4.1178530046       -1.5896080805
 O          2.5606139819        4.8994037766        0.6832260306
 N          0.3972565002        1.2697406534        0.6684955541
 N          2.5875230886        1.2946072898        0.3165862464
 N         -0.0700152135        3.6336515509        0.8278785574
 N          4.3101381408        3.5138579012        0.2734563752
 C         -1.9567873285        1.3401781258       -0.1060564939
 C         -2.6305278483        0.0648251271       -0.6877064809
 C         -0.9442913548        0.7872616590        0.9269681052
 C         -1.6361365575       -1.0464251177       -0.3040446863
 C         -0.6157997752       -1.3296151716       -1.4083654149
 C          0.7749209447        2.5854888979        0.7048374095
 C          1.5405145707        0.5434822813        0.4350680016
 C          2.1477452801        2.5908274831        0.4811646244
 C          3.0071022255        3.7570801018        0.4841469011
 H         -1.4178083695        1.8744624212       -0.8998711908
 H         -2.7478841588        0.1256977809       -1.7708488396
 H         -1.2349161956        1.1144710358        1.9376272625
 H         -2.1421279853       -1.9881477188       -0.0673570259
 H         -0.0537849089       -0.4337981795       -1.6793623113
 H         -1.1460697725       -1.7324824100       -2.2750826044
 H         -3.5694592458        2.4410740844       -0.0310770972
 H         -3.8952747115       -0.1705418135        0.7846182023
 H          1.5321734918       -0.5231853667        0.3570670774
 H          0.4051960881        4.5122643462        0.9847761005
 H         -0.9711561929        3.4949996748        1.2569104893
 H          0.2933833732       -3.9629628288        1.3831074779
 H          1.4407498903       -4.7438695610       -1.8269735756
 H          4.6036974186        2.5615692120        0.1385604795
 H          4.9707398247        4.2715545096        0.2840504083
  37
        -73.91816819
 P          0.2811700106       -2.3845476764       -1.0432510550
 O         -1.6796241227        0.4413250552        1.5491968575
 O         -3.8134764276        1.5139875472       -0.1147896491
 O         -3.4027375088       -0.9486360623       -1.2158071016
 O          0.1122752014       -1.6722512743        0.3785143297
 O          1.4856510360       -3.3872454955       -0.8701694661
 O          0.8170210304       -1.1850652851       -1.9229322918
 O         -0.9362279434       -3.0479291652       -1.5341674115
 O          3.6311715345        1.6664693206        2.0855696158
 N         -0.1820899507        1.6707875710        0.2425339285
 N          1.6795546557        1.8210582843       -0.9617757863
 N          0.7186189625        1.7195903214        2.4801040234
 N          4.3346161089        1.8071100168       -0.0670294809
 C         -2.5112531491        1.1826938039       -0.5030640667
 C         -2.3036399724       -0.3397925324       -0.6073446896
 C         -1.5643804442        1.5220686445        0.6514627294
 C         -2.1029375018       -0.7389428233        0.8688991967
 C         -1.1054185643       -1.8775174572        1.0808757349
 C          0.8594147240        1.6857338405        1.1350844957
 C          0.3899376828        1.7474073831       -1.0067191826
 C          2.0173706096        1.7756622268        0.3729846630
 C          3.3770009996        1.7561924824        0.8728186629
 H         -2.2532911905        1.7011665528       -1.4328432700
 H         -1.3824057307       -0.5236729123       -1.1684478996
 H         -1.8903975255        2.4236160661        1.1849496876
 H         -3.0656555517       -1.0419713612        1.3000292646
 H         -1.5628417647       -2.8132662431        0.7512493697
 H         -0.8439902825       -1.9336796470        2.1386842986
 H         -4.4300274636        0.9527612194       -0.6134325171
 H         -3.1486577700       -1.8258275507       -1.5362934167
 H         -0.1769871119        1.7642552252       -1.9126889366
 H          1.5944012933        1.5757453089        2.9666769271
 H         -0.1049945764        1.2815623394        2.8635832464
 H          2.2742658680       -3.0432706124       -0.4314364903
 H          1.1384731298       -1.4307692284       -2.7987907145
 H          4.0536200453        1.9056633504       -1.0276367976
 H          5.3029610431        1.8243655303        0.2025890637
  37
        -73.91815406
 P          0.9476594610       -2.0097001470       -0.8067808821
 O         -1.9005089235        0.1354644843        1.4955376145
 O         -3.3105241756        1.7885901416       -1.2372846713
 O         -4.5528821157       -0.0970312135        0.0981619500
 O         -0.4385241190       -1.2935783532       -0.4758652178
 O          1.7174065357       -1.9699086669        0.5697535530
 O          1.6313481714       -0.9374750261       -1.7231077213
 O          0.8135811116       -3.3604382808       -1.3864106990
 O          3.6029613597        0.7544453951        1.5801404358
 N         -0.3645761321        1.4860832918        0.3046977576
 N          1.3747756000        2.2349439164       -0.8611716407
 N          0.7653500264        0.5766549611        2.2443967218
 N          4.0963239551        1.8719263322       -0.3302095602
 C         -2.5022758802        0.7843695909       -0.7213404269
 C         -3.2700851466       -0.4906134517       -0.3090993446
 C         -1.7562702331        1.1914419027        0.5837296685
 C         -2.4240508934       -1.0241883287        0.8582233551
 C         -1.3068039608       -1.9776678780        0.4218529728
 C          0.7505254684        1.1314649594        1.0112070303
 C          0.0850894324        2.1529308070       -0.8118640052
 C          1.8336227004        1.5937423027        0.2679156810
 C          3.2304759591        1.3730978877        0.5683669937
 H         -1.7598520858        0.5302507832       -1.4828902528
 H         -3.3115130486       -1.2052941974       -1.1355588984
 H         -2.2218481295        2.0853596118        1.0269292803
 H         -3.0395133847       -1.5279126822        1.6088671970
 H         -1.7167626370       -2.8606007779       -0.0758368182
 H         -0.7384494224       -2.2955239573        1.2998536905
 H         -4.1807901553        1.7330226879       -0.8028076011
 H         -5.1394492335       -0.8624594190        0.1702185712
 H         -0.5858872568        2.5728030601       -1.5327766879
 H          1.6780059680        0.2227995517        2.4999747172
 H         -0.0491148508        0.0523662720        2.5230565448
 H          2.3671227417       -2.6752355897        0.6646498988
 H          1.7229776136       -1.2065617927       -2.6442100207
 H          3.7245208617        2.3462197977       -1.1347748126
 H          5.0848642378        1.7437393009       -0.2023694129
  37
        -73.91815045
 P         -0.2563974590       -3.5439865985       -0.8257417938
 O         -1.6503005759        0.3674836729        1.6210896713
 O         -2.0971898255        1.6967009538       -1.5131452273
 O         -3.6719781832       -0.3143001152       -0.6280286497
 O         -0.9856371291       -3.0759053063        0.5391690645
 O         -1.0982184915       -4.8092319452       -1.2157579354
 O          1.1322698144       -4.1353150133       -0.4061570641
 O         -0.1314211558       -2.4620678886       -1.8138996850
 O          3.1210368408        4.2338353760       -0.7141511643
 N          0.1827720762        1.6510294255        0.8866638741
 N          2.2578522714        1.6456721043        1.6695686857
 N          0.2880043067        3.4588044154       -0.7065216094
 N          4.4225011581        3.2382023421        0.8546369434
 C         -1.4570282246        0.7336141331       -0.7284214484
 C         -2.3042227491       -0.5329342068       -0.4569921813
 C         -1.2091177996        1.3139304560        0.6868158982
 C         -1.9054654729       -0.8808408560        0.9847351466
 C         -0.6726636326       -1.7947089683        1.0483956534
 C          0.8554798417        2.6172085977        0.1880762070
 C          1.0855963301        1.1056083813        1.7645134112
 C          2.1556247110        2.6027947327        0.6826200353
 C          3.2556264781        3.4238050136        0.2180535681
 H         -0.4997027090        0.4295815506       -1.1789258090
 H         -2.0365420225       -1.3340372471       -1.1463555409
 H         -1.7970119940        2.2358676299        0.8153295665
 H         -2.7284664850       -1.3564511320        1.5256748572
 H         -0.3711817860       -1.9149667811        2.0919926281
 H          0.1503548045       -1.3557981695        0.4776770474
 H         -2.5362778161        1.2715040509       -2.2655440340
 H         -3.9761404713        0.3850200226       -0.0293598079
 H          0.8115091468        0.3359507548        2.4540693053
 H          0.9688500676        4.0076387277       -1.2148431406
 H         -0.5317963271        3.1516529587       -1.2090456261
 H         -1.9834751319       -4.6627650592       -1.5656953335
 H          1.0999455183       -4.9298282323        0.1436361211
 H          4.4600196231        2.5633171119        1.5990214008
 H          5.2333965074        3.7662299561        0.5821011602
  37
        -73.91813550
 P          0.5008910618       -2.2899250893       -0.9690247658
 O         -1.8340024467        0.6084533540        1.5248621126
 O         -3.1949966770        1.2833815958       -1.4510742261
 O         -4.2156464796       -0.6818583229        0.0198189795
 O         -0.0101265569       -1.2201513521        0.0753928137
 O         -0.7999353811       -3.1302681511       -1.2893959540
 O          1.3903850634       -3.3311028399       -0.1638539474
 O          1.1633215195       -1.6485828889       -2.1114376255
 O          3.6062104183        1.6869513335        1.9434960756
 N         -0.2029919779        1.5851822403        0.1131446541
 N          1.5970276392        2.2356854983       -1.0191677252
 N          0.8034046402        1.0262054613        2.2525671543
 N          4.2421092143        2.4097741944       -0.1103637410
 C         -2.2309147321        0.4948471478       -0.8167255531
 C         -2.8273550507       -0.7551063862       -0.1107707216
 C         -1.6104025480        1.3162095022        0.3408590848
 C         -2.0865460722       -0.7651719882        1.2387169183
 C         -0.8008161174       -1.5982048160        1.2032733694
 C          0.8505942652        1.4803541360        0.9781866732
 C          0.3191526243        2.0477092164       -1.0719627306
 C          1.9726279946        1.8824815658        0.2577893448
 C          3.3233195334        1.9751364954        0.7669085727
 H         -1.4398996244        0.1826721172       -1.5116192367
 H         -2.6299641252       -1.6661664672       -0.6767225364
 H         -2.1354970242        2.2812766991        0.4202105560
 H         -2.7231836256       -1.1347607620        2.0466746257
 H         -1.0500049659       -2.6577687457        1.1489306946
 H         -0.2087142131       -1.3907465216        2.0969662275
 H         -3.6864827058        0.7482596476       -2.0926474035
 H         -4.4654567078        0.1587681533        0.4333799011
 H         -0.2934021904        2.2479393760       -1.9265597810
 H          1.6649362178        1.1978156109        2.7558478449
 H         -0.0717437137        1.1113007638        2.7453277512
 H         -0.6730773417       -3.8369758439       -1.9326603878
 H          2.3345739452       -3.1462751337       -0.1793788774
 H          3.9442996532        2.6163951739       -1.0481753563
 H          5.2033398274        2.5003040330        0.1695012930
  37
        -73.91812294
 P         -0.2104423942       -3.1329141830        1.0697559841
 O         -0.6085347028       -0.5040522505        0.0526892871
 O         -2.9776622241        1.9844181592        0.2849309582
 O         -3.9401276549       -0.0490814463       -1.1274572093
 O         -1.0784319716       -3.3694424454       -0.2447637402
 O          1.1795617465       -2.6148286871        0.5415341863
 O          0.0950565773       -4.6364936808        1.4475260499
 O         -0.8427675494       -2.3737148377        2.1662807344
 O          3.5988835585        2.5038063431       -2.0640983069
 N          0.3027076129        1.6042705807        0.4220770398
 N          1.8357703953        3.0813554154        1.0476062685
 N          1.0649641147        1.0420898544       -1.7998656562
 N          4.1226408387        3.9057077490       -0.3589727342
 C         -2.0045072906        1.3412402294       -0.4871697229
 C         -2.5537930458        0.0421158316       -1.1539659499
 C         -0.8887697660        0.8194611475        0.4589165781
 C         -1.8449621417       -1.0674100321       -0.3441745528
 C         -1.5672291089       -2.3494546026       -1.0995786550
 C          1.1969481603        1.6906923710       -0.6124886796
 C          0.7517665108        2.4666095525        1.3926542696
 C          2.1503812631        2.6163403015       -0.2111585433
 C          3.3362964733        2.9996557296       -0.9568279182
 H         -1.5670320543        2.0142099464       -1.2306244736
 H         -2.2564211048       -0.0113362082       -2.2038091031
 H         -1.2787674480        0.8308714075        1.4891943161
 H         -2.4366644735       -1.3042827730        0.5525965169
 H         -0.8259543995       -2.1638162876       -1.8823405365
 H         -2.4918661642       -2.7339562805       -1.5360202379
 H         -3.5212972834        2.5581472140       -0.2757431436
 H         -4.2587460971        0.2343452704       -0.2529193398
 H          0.2344707500        2.5991843525        2.3200786257
 H          1.9084773744        1.1118217213       -2.3582107243
 H          0.6501342745        0.1229806652       -1.7405278111
 H          1.8307635007       -2.4482333874        1.2311247496
 H         -0.5745304963       -5.0608419522        1.9934234232
 H          3.8498212011        4.2559305159        0.5435678303
 H          4.9706765926        4.2090785459       -0.8061308729
  37
        -73.91811604
 P          0.4882632166       -2.9327813848       -0.0976993233
 O         -1.3758836471       -0.2409060813        0.7768932881
 O         -3.6466441789        2.1387298528       -0.2106118641
 O         -4.2291592187       -0.4417336650        0.0215335671
 O          0.4204887073       -1.5555560682       -0.9062945193
 O          0.4962818618       -2.4568687900        1.4165580883
 O          1.9392092730       -3.4522485099       -0.4045566820
 O         -0.5617311676       -3.9042494683       -0.4348247125
 O          3.8415902227        1.4723042432        1.1793252839
 N         -0.2518274170        1.7202187548        0.1290273047
 N          1.2722382448        2.9946798199       -0.8692587528
 N          1.1056411055        0.6381170607        1.8132939049
 N          4.0397438550        3.0635917397       -0.4245245746
 C         -2.6213608868        1.2736446396       -0.5777400354
 C         -3.1030969049       -0.1916295386       -0.7691209251
 C         -1.5221346928        1.1400881454        0.5156826550
 C         -1.8732312768       -0.9859440840       -0.3233855720
 C         -0.8295467693       -1.1460350300       -1.4328566394
 C          0.9473929634        1.4347852514        0.7308392253
 C          0.0186697057        2.6802320897       -0.8200164118
 C          1.8943673998        2.2245596968        0.0882055240
 C          3.3220611023        2.2212014860        0.3347915117
 H         -2.1838225806        1.6395228338       -1.5096190300
 H         -3.3955330266       -0.3941955125       -1.7995033248
 H         -1.8493065785        1.6165709059        1.4510338361
 H         -2.1196309620       -1.9798604995        0.0586368165
 H         -0.6259632218       -0.2010882552       -1.9403348268
 H         -1.1904917362       -1.8911342954       -2.1459956250
 H         -4.4126740857        1.6020506020        0.0718758808
 H         -3.9638513485       -0.5750390725        0.9452106356
 H         -0.7361466683        3.1429497600       -1.4201456818
 H          2.0825005409        0.4687534958        2.0196268605
 H          0.4854012104       -0.1545454504        1.8924586568
 H          0.3126257591       -3.1542403427        2.0557197148
 H          2.6659497044       -2.8317013158       -0.2714631799
 H          3.5536126984        3.6486457863       -1.0821881416
 H          5.0365697006        3.1211659205       -0.3074361050
  37
        -73.91811345
 P          0.5898131489       -2.2365809850        0.0244732166
 O         -1.4224350635       -0.6274291002        0.7440214223
 O         -3.3343958248        2.1980782865        0.3901505187
 O         -4.4109834243       -0.1485560933        0.4671101552
 O         -0.1457297417       -1.6226133488       -1.2493433603
 O          1.5748264913       -3.2812921276       -0.6717933717
 O         -0.4735843890       -3.1822449275        0.7001133385
 O          1.3319565843       -1.3008736316        0.8848894075
 O          3.8366445486        2.1784445950        1.2221182901
 N         -0.0942226172        1.1825997512       -0.0141411888
 N          1.4905518147        1.6762045162       -1.4921678514
 N          1.0927448682        1.4934861121        2.0679178255
 N          4.1708505326        2.3222275893       -1.0155810792
 C         -2.5870210028        1.2156176560       -0.2477070414
 C         -3.3711554613       -0.1057879877       -0.4714184587
 C         -1.3434748518        0.7752864531        0.5759885458
 C         -2.3144231345       -1.1924662739       -0.1990980631
 C         -1.5449345392       -1.6544797397       -1.4605583656
 C          1.0385174395        1.4610470889        0.7053517621
 C          0.2607540275        1.3074571441       -1.3349825198
 C          2.0136966990        1.7898305928       -0.2222914962
 C          3.3982647172        2.1150156977        0.0623309368
 H         -2.2645593748        1.6433301307       -1.1991229488
 H         -3.7559613086       -0.1653931727       -1.4929202465
 H         -1.3775664258        1.2253072590        1.5763086114
 H         -2.7546853723       -2.0559413644        0.3054019629
 H         -1.7130226074       -0.9787806806       -2.3024783829
 H         -1.8479372163       -2.6673952213       -1.7340774667
 H         -3.9932738131        1.7627340622        0.9619289750
 H         -5.0956427577       -0.7753107984        0.1958201017
 H         -0.4084886509        1.1264016170       -2.1494762343
 H          2.0536089575        1.6315476347        2.3678443517
 H          0.6562926232        0.6983005286        2.5153464730
 H          2.4686712707       -2.9555957236       -0.8087758585
 H         -0.1948861676       -3.5238923672        1.5568815199
 H          3.7474261617        2.2586323825       -1.9255030958
 H          5.1443252736        2.5459897214       -0.9007952618
  37
        -73.91810896
 P         -0.6821734808       -3.6764663394        0.7321090115
 O         -0.2831693577       -0.4009452468        0.0212159655
 O         -2.9173440935        1.7548373747        0.3755051286
 O         -3.5527929912       -0.1465244011       -1.3992215646
 O         -0.1839170627       -3.1187797898       -0.6949138850
 O         -0.0820485718       -2.7425903605        1.8409956067
 O          0.1843362749       -4.9848526813        0.8695324214
 O         -2.1420287979       -3.8298498365        0.8265856515
 O          3.7043640852        3.1198476478       -1.6666609067
 N          0.4047986576        1.7440183555        0.5869272212
 N          1.7418183811        3.3322048366        1.3711100295
 N          1.3277140323        1.3950148650       -1.6169820495
 N          3.9987715194        4.4610305743        0.1393940703
 C         -1.8429418762        1.3426601442       -0.4198583515
 C         -2.1883766939        0.0824676014       -1.2702455490
 C         -0.7080126594        0.8514055964        0.5155803887
 C         -1.4245191188       -1.0352715708       -0.5262847679
 C         -1.0014520644       -2.2028497553       -1.4002854323
 C          1.3326033879        1.9830104655       -0.3928955527
 C          0.7123091250        2.5921137716        1.6237465093
 C          2.1642697240        2.9754471990        0.1086653936
 C          3.3385846476        3.5193503480       -0.5495027541
 H         -1.4752458476        2.1593854901       -1.0504462085
 H         -1.8004048373        0.1899901164       -2.2859457059
 H         -1.1291442462        0.7461079379        1.5284141505
 H         -2.0492997042       -1.4251541021        0.2919507429
 H         -0.3946551607       -1.8659026589       -2.2429873053
 H         -1.9053745575       -2.7044777845       -1.7559705469
 H         -3.5815558155        2.1944232384       -0.1769920902
 H         -3.9638945616       -0.1674594733       -0.5195046097
 H          0.1387634948        2.6192736084        2.5268427703
 H          2.1832999850        1.5810224665       -2.1274729781
 H          0.9932252823        0.4422523503       -1.6346944207
 H          0.8815462923       -2.7499117659        1.8990421921
 H         -0.1254353454       -5.7459129959        0.3673051803
 H          3.6485179878        4.7277726653        1.0436903750
 H          4.8301706137        4.8758437649       -0.2448575724
  37
        -73.91810249
 P         -0.0993045778       -3.6303207589       -0.6904674999
 O         -1.0534801083       -0.7052336691        0.7980150725
 O         -2.7307189409        2.3199208971        0.3677732078
 O         -3.9320011892       -0.0512887696        0.1749603932
 O          0.2187873440       -2.1701875808       -1.2523238594
 O          0.0280869951       -3.4710715204        0.8664721178
 O          1.2035143950       -4.4282341825       -1.0717884532
 O         -1.3726973262       -4.1944220075       -1.1815300663
 O          2.5658366471        4.7849635729        0.7132272963
 N          0.3889919973        1.1606245219        0.6578066679
 N          2.5467964533        1.2049989190        0.1536773302
 N          0.0002134378        3.4605325591        1.2794708050
 N          4.2641485735        3.4218769802        0.0770997214
 C         -1.9489169647        1.2947156529       -0.1558484086
 C         -2.7713291482        0.0593230373       -0.5981613235
 C         -0.9595908704        0.6916221278        0.8871380604
 C         -1.7745871293       -1.0813964094       -0.3699167350
 C         -0.8607686874       -1.3128700362       -1.5764096995
 C          0.7873309034        2.4621559754        0.8075244207
 C          1.4980867124        0.4539124960        0.2647295799
 C          2.1395799436        2.4799739968        0.4865813693
 C          2.9936659881        3.6499791845        0.4446172914
 H         -1.3779319539        1.6977638257       -1.0001526769
 H         -3.0975065763        0.1338579914       -1.6360551698
 H         -1.2437880549        0.9951538380        1.9063209673
 H         -2.2631628866       -2.0318120518       -0.1367799126
 H         -0.3944063768       -0.3864364544       -1.9172746019
 H         -1.4555391517       -1.7612687425       -2.3764649629
 H         -3.6156925497        1.9613594191        0.5720181601
 H         -3.7227905537       -0.4303348364        1.0424687966
 H          1.4693962814       -0.6005674969        0.0851541316
 H          0.4432816534        4.3668915169        1.1954759096
 H         -0.9892697177        3.4240960052        1.0792721742
 H         -0.2599603388       -4.2299451659        1.3859259975
 H          1.2511126069       -4.7491825203       -1.9790187463
 H          4.5401021531        2.4768627228       -0.1279909366
 H          4.9153959831        4.1854589204        0.0188380435
  37
        -73.91809375
 P          0.4920853483       -2.7025895530       -0.3738012760
 O         -1.3547574688       -0.4454105711        0.9913707497
 O         -3.6119388195        1.7226493701        0.6973857374
 O         -4.1567213155       -0.0414940551       -1.2162293615
 O         -0.8649587254       -2.2336765781       -1.0706021558
 O          1.2674432514       -1.3630362343       -0.0072924612
 O          1.2914408094       -3.3317431938       -1.5769267158
 O          0.3215601571       -3.6276095716        0.7543804894
 O          3.8192144318        2.5873977945        1.4949767044
 N         -0.0323699447        1.3582742990        0.2510115561
 N          1.5717041965        1.7767531888       -1.2276979477
 N          1.0935793709        1.9148242849        2.3187726703
 N          4.2107122548        2.5989363613       -0.7398262849
 C         -2.4950501314        1.3675222263       -0.0711073602
 C         -2.8388574067        0.0457874167       -0.7892773224
 C         -1.2942521771        0.9638052355        0.8123786909
 C         -2.4510449110       -0.9973218284        0.2789897599
 C         -2.0626856144       -2.3435416574       -0.3186616592
 C          1.0717749656        1.7360256157        0.9714584733
 C          0.3508792945        1.3830437836       -1.0694143223
 C          2.0608797839        2.0113900254        0.0384873938
 C          3.4216861082        2.4255140228        0.3296424469
 H         -2.2202848117        2.1610018031       -0.7713142972
 H         -2.2052961769       -0.0967098791       -1.6692802420
 H         -1.3735910552        1.4326909871        1.8023936895
 H         -3.2948644569       -1.1451745274        0.9680238169
 H         -2.8460865717       -2.6710664416       -1.0049075049
 H         -1.9130567658       -3.0784979267        0.4758572718
 H         -3.5691181838        2.6514506086        0.9639148015
 H         -4.7261778527        0.3713051381       -0.5434407867
 H         -0.3041541881        1.1101552202       -1.8695689972
 H          2.0320205210        2.1175403909        2.6459457908
 H          0.5789114725        1.2511144878        2.8775386759
 H          1.9442162671       -1.5455264346        0.6506953601
 H          1.3717501807       -2.7956709525       -2.3756367660
 H          3.8205761252        2.4416233496       -1.6534136416
 H          5.1696732139        2.8757758196       -0.6183674680
  37
        -73.91807701
 P         -0.7564912984       -4.0007564570       -0.5891781810
 O         -0.9143626202       -0.0858121578        1.5567943034
 O         -2.4570751265        1.9657038827       -0.7538503814
 O         -3.4054616656       -0.4196673621       -0.1014622807
 O         -0.1165730019       -2.5964835750       -1.0180148126
 O         -0.3290774371       -4.9427124674       -1.7686772831
 O         -2.3121243262       -3.7304789626       -0.7659006872
 O         -0.3620351340       -4.4834649565        0.7403760358
 O          2.7714121484        4.8938594705       -0.6291027309
 N          0.5072923054        1.6487906518        0.8550981929
 N          2.6719021769        1.8368317218        1.3123693750
 N          0.1892196750        3.5520817138       -0.6041597254
 N          4.4503430362        3.8433353879        0.4779635752
 C         -1.4844907933        1.0030623613       -0.4938448798
 C         -2.0514189183       -0.4385989508       -0.4547124025
 C         -0.8561738433        1.1658652092        0.9219558157
 C         -1.1563528154       -1.1042459466        0.5939269663
 C          0.1456312918       -1.6505630070       -0.0025517051
 C          0.9363648151        2.7773315978        0.2084996717
 C          1.6031178058        1.1358650255        1.5093032650
 C          2.2948156406        2.8822743663        0.4968813539
 C          3.1766774681        3.9469380751        0.0663041682
 H         -0.6988772453        1.0869126048       -1.2516542943
 H         -1.9904408027       -0.9323220063       -1.4248789716
 H         -1.4451929635        1.8770191238        1.5220120594
 H         -1.6617262813       -1.9239000006        1.1121402030
 H          0.7254842901       -2.1193741239        0.7978936450
 H          0.7336924774       -0.8585009403       -0.4706764528
 H         -3.3326674384        1.5373198273       -0.6918366607
 H         -3.4995316507       -0.2963584295        0.8556558061
 H          1.5380463376        0.2528325675        2.1093669789
 H         -0.8161011905        3.5252090985       -0.5555575208
 H          0.6463633906        4.4108169920       -0.8775918078
 H         -0.5097030823       -4.6218762452       -2.6626464214
 H         -2.8941580880       -4.4208435652       -0.4286906733
 H          4.7053966263        3.0583944387        1.0522546674
 H          5.1171092353        4.5547511277        0.2332745150
  37
        -73.91805268
 P          0.6439464838       -2.8154755283        0.1558790826
 O         -1.3236324282       -0.1353356516        1.0921066384
 O         -3.3369625604        2.1257370042       -0.5293090190
 O         -4.0495979175       -0.3193864965       -1.1085624497
 O         -0.7592612496       -2.3952251201       -0.4582230380
 O          0.4286898687       -4.2658125095        0.7742818441
 O          0.8009597485       -1.9164093591        1.4372311484
 O          1.6988132393       -2.7268193714       -0.8623271303
 O          3.5611950373        1.4605176069       -1.4350567614
 N         -0.1375683848        1.7995862895        0.6090969488
 N          1.5354218701        3.2021495910        1.0105646782
 N          0.8047343113        0.4440571604       -1.1664755088
 N          4.0848550581        3.2396546314       -0.1293762615
 C         -2.2446845179        1.2628587410       -0.6264913730
 C         -2.6798047551       -0.2133640619       -0.8481164383
 C         -1.4412083047        1.2175289070        0.7049112555
 C         -2.3677205234       -0.8857121267        0.5029939359
 C         -1.9208388110       -2.3366468018        0.3647181515
 C          0.8872702835        1.4215581752       -0.2190543352
 C          0.3255054435        2.8732907258        1.3275023787
 C          1.9243090526        2.3083687201        0.0367506580
 C          3.2425554476        2.2958134616       -0.5745556574
 H         -1.5953794066        1.6201203347       -1.4317201839
 H         -2.0705839246       -0.6743324164       -1.6302522665
 H         -1.9962072634        1.7863833216        1.4676261570
 H         -3.2697321560       -0.8448565314        1.1313051589
 H         -2.7035441985       -2.9145041184       -0.1294028289
 H         -1.7006976598       -2.7502106387        1.3484794674
 H         -4.1481829328        1.5826919207       -0.4715652517
 H         -4.2202084450       -0.2368055140       -2.0584030868
 H         -0.2754312894        3.3729015105        2.0587538997
 H          1.7155961918        0.2530511037       -1.5723565412
 H          0.3128508052       -0.3972282292       -0.8980313638
 H          0.6757799818       -4.9893733153        0.1890508399
 H          1.5802517357       -2.0976173762        1.9729666321
 H          3.7537354443        3.8854525958        0.5671937689
 H          5.0170895444        3.2978604854       -0.5016379620
  37
        -73.91805157
 P         -1.4988947214       -4.0531281485       -0.7209807163
 O          0.1071620402        0.0261101063        0.8854534651
 O         -2.3478372377        1.5519163483       -1.0790440492
 O         -2.8582141530       -0.9875766768       -0.7003804094
 O         -0.9673022592       -3.4372929541        0.6770446806
 O         -3.0431957336       -3.7366100464       -0.7616451064
 O         -1.4750359207       -5.5955261782       -0.4691822293
 O         -0.6966468095       -3.6272095555       -1.8779373436
 O          4.1280272576        3.6429912371        1.9202459856
 N          0.5587390765        2.1945043052        0.1735411286
 N          1.6518859311        3.9161362385       -0.7085859357
 N          1.8568781842        1.8131281479        2.1759144872
 N          4.0318913387        5.0998866400        0.1836839877
 C         -1.1834820441        0.7954655822       -0.9343718401
 C         -1.4871096027       -0.7161252342       -0.7086535736
 C         -0.4653642156        1.2082548388        0.3685945610
 C         -0.8076257547       -1.0286676966        0.6450930865
 C         -0.0584631034       -2.3588206365        0.6681418928
 C          1.6247950421        2.4378851823        1.0000474429
 C          0.6318093428        3.1323283540       -0.8323928265
 C          2.3088217648        3.5067534392        0.4304880091
 C          3.5501047558        4.0806672856        0.9116064706
 H         -0.4999401245        0.9188893997       -1.7800648505
 H         -1.0433956150       -1.3257019072       -1.4995870159
 H         -1.2245059061        1.6003873080        1.0713410756
 H         -1.5776745914       -1.0432528380        1.4324649374
 H          0.5298714356       -2.4355356298        1.5843268124
 H          0.5989122514       -2.4284782243       -0.2030073411
 H         -2.7066460372        1.4454595162       -1.9734677788
 H         -3.3348616630       -0.1929627747       -0.3926629183
 H         -0.1021898623        3.2130740940       -1.6052343845
 H          2.7754327017        2.0157706319        2.5498451051
 H          1.5074349545        0.8721595593        2.2693481676
 H         -3.2620242989       -2.7947801756       -0.8705426339
 H         -2.0354066967       -5.9090099126        0.2528510451
 H          3.5148863796        5.3967472697       -0.6261498551
 H          4.8947387866        5.5429854993        0.4478435127
  37
        -73.91804878
 P         -1.2286402470       -4.0207061309       -0.2230363217
 O         -0.4695504334        0.3532363220        1.2124208325
 O         -2.1069319865        1.3770228819       -1.6781032648
 O         -2.4704317054       -1.1611449069       -1.2680859117
 O         -1.3620286862       -3.1669753550        1.1403191681
 O         -2.6046580530       -3.8993575247       -0.9600716331
 O         -1.3380273211       -5.5058374077        0.2711589715
 O         -0.0066751672       -3.6807446849       -0.9792192076
 O          4.4116602527        2.8829743531        0.1187838742
 N          0.2188939270        2.4132223748        0.3911872355
 N          1.1566078537        4.4198775102        0.5229831675
 N          2.1411421045        1.0201258258       -0.0481024879
 N          3.8808481861        5.0729531597        0.3866689656
 C         -0.9951672435        0.7896943860       -1.0639721989
 C         -1.2486668159       -0.7167161564       -0.7560275001
 C         -0.8000656248        1.4150515268        0.3421228929
 C         -1.2001677265       -0.7837300770        0.7894969245
 C         -0.5332446303       -2.0419257968        1.3374306108
 C          1.5661369767        2.2184107834        0.2323395896
 C          0.0430606332        3.7649684543        0.5676368091
 C          2.1419063001        3.4790895915        0.3150809445
 C          3.5621487899        3.7770140837        0.2597318798
 H         -0.0813754564        0.9199985128       -1.6467508379
 H         -0.4619575196       -1.3435802478       -1.1839091080
 H         -1.7502305591        1.8856981700        0.6421863604
 H         -2.2302303358       -0.7347474715        1.1752756542
 H         -0.3854666710       -1.9382575347        2.4142069033
 H          0.4269323245       -2.1992842806        0.8378589056
 H         -1.9748232105        1.4488462621       -2.6340381049
 H         -3.0387003346       -0.3756025990       -1.4064998090
 H         -0.9227912982        4.2014103809        0.7150736230
 H          3.1510273192        1.0591609840        0.0275019442
 H          1.6969586639        0.2132424945        0.3658718330
 H         -2.7863210702       -3.0027245801       -1.2918145278
 H         -0.4925336563       -5.9346431318        0.4453760087
 H          3.1368641244        5.7389046260        0.5082775302
 H          4.8449101834        5.3583070583        0.3738377221
  37
        -73.91804467
 P         -1.6543925447       -4.2704212221       -0.7521611315
 O          0.6208522132       -0.6230366353        0.4691547178
 O         -1.9575998111        1.8439064246        0.3284359888
 O         -2.7245827139       -0.6109587409        0.5391416329
 O         -1.0875015550       -3.0633992439       -1.6338851904
 O         -2.3498218905       -5.1798094804       -1.8224974743
 O         -2.8346268889       -3.5749794492        0.0723204029
 O         -0.6660333969       -4.9641378665        0.0805785755
 O          2.1633670728        5.7053241279        1.0013774299
 N          1.2379356964        1.6052763709        0.5245142939
 N          3.2102428853        2.4121276198       -0.0877621788
 N          0.1959444822        3.5604646144        1.4794605561
 N          4.1356503183        5.0511226929        0.0916517165
 C         -1.0523256997        0.9190014791       -0.1816372775
 C         -1.6381844422       -0.5006929056       -0.3389316922
 C          0.1658950125        0.6755756770        0.7509952344
 C         -0.4651758694       -1.4318512312        0.0415422035
 C         -0.0059898318       -2.3110018429       -1.1206909282
 C          1.2171304802        2.9376880654        0.8383809787
 C          2.4655950212        1.3548165527       -0.0351630629
 C          2.4575584174        3.4327228390        0.4539788228
 C          2.8959413015        4.8115918481        0.5461428329
 H         -0.6848044555        1.2968906505       -1.1423879299
 H         -1.9550458803       -0.6871145325       -1.3705004518
 H         -0.1580136619        0.7639813331        1.8029468239
 H         -0.7744803190       -2.0860068869        0.8697212242
 H          0.7834938977       -2.9798002390       -0.7693992728
 H          0.3620548286       -1.6970886133       -1.9447054319
 H         -2.6628101832        1.3535135194        0.7910284001
 H         -3.1687823006       -1.4604942749        0.3987842504
 H          2.7450113804        0.3767138483       -0.3647399337
 H          0.3254748438        4.5647207901        1.5035082637
 H         -0.7391852437        3.2408908346        1.2602477891
 H         -2.9202801350       -4.7369396521       -2.4648206324
 H         -3.2245804950       -4.1559228031        0.7364133719
 H          4.6715280091        4.2781996137       -0.2641744309
 H          4.5101625849        5.9835974836        0.1182007010
  37
        -73.91802107
 P          0.4720951228       -2.3887078905        0.4263649563
 O         -1.2455235348       -0.4768796015        0.5396247559
 O         -3.5722391648        1.5379610460        0.8843600566
 O         -4.2957505192        0.0874784005       -1.2246588817
 O         -0.9287053962       -2.9632967729       -0.1290191684
 O          1.0248424549       -1.3799521487       -0.6547083163
 O          1.3902109349       -3.6619615243        0.1686857354
 O          0.5144642267       -1.9637645696        1.8345158265
 O          4.0278287670        1.7698414026        0.9085849342
 N         -0.0982739531        1.4689439945       -0.0189811655
 N          1.3496650351        2.3320192328       -1.4637111489
 N          1.3306791883        0.9945422915        1.8649754955
 N          4.1136924358        2.6521027844       -1.1787116833
 C         -2.6000002350        1.3567013951       -0.1042829887
 C         -2.9211648240        0.1415407993       -1.0034718400
 C         -1.2914792033        0.9400822588        0.5821871136
 C         -2.3543339606       -1.0186778070       -0.1586395293
 C         -1.8112690351       -2.2116809225       -0.9423878398
 C          1.1298570451        1.4242507556        0.5903760415
 C          0.1141977245        2.0027760022       -1.2672438724
 C          2.0225769672        1.9843919528       -0.3129829230
 C          3.4559399502        2.1289473443       -0.1328765290
 H         -2.4784702344        2.2806113117       -0.6826552172
 H         -2.3558067275        0.2262791637       -1.9402562874
 H         -1.3079179601        1.2540384689        1.6350293256
 H         -3.1060714082       -1.3458238531        0.5734517674
 H         -1.2732832445       -1.8501717571       -1.8239482852
 H         -2.6027038851       -2.9050466012       -1.2281901824
 H         -4.4473728223        1.4307301065        0.4735186423
 H         -4.5112346343       -0.5519800988       -1.9170494846
 H         -0.6649482271        2.1456622775       -1.9859533641
 H          2.3222559200        0.9683940281        2.0798025505
 H          0.8458648196        0.1393141631        2.1149868368
 H          1.5862024678       -1.8230046332       -1.3042554413
 H          1.4268893272       -4.2841663045        0.9005203539
 H          3.5829742318        2.9347800408       -1.9849284756
 H          5.1079534466        2.7925544298       -1.1268848539
  37
        -73.91800628
 P         -0.5207722198       -3.7413298564       -0.6624902967
 O         -0.8921280284        0.1647387248        1.3509936619
 O         -3.4434035446        1.5490872970        0.3989661702
 O         -3.3299693756       -0.8290581650       -0.7445237878
 O         -0.0552508303       -2.2999189641       -1.2322167749
 O         -0.0147914608       -4.7139789354       -1.7929554378
 O         -2.0789554329       -3.8125426147       -0.8102170100
 O         -0.0439593485       -3.9860312314        0.7057760617
 O          3.8457415380        3.3042954209        1.8004338693
 N          0.1195554500        1.9948761011        0.2839963584
 N          1.7631471035        2.6092068372       -1.0794713886
 N          1.1137860103        2.4298277860        2.4357844586
 N          4.3249533764        3.5429541370       -0.4042253228
 C         -2.2188885965        1.3010880850       -0.2350695024
 C         -2.0947999798       -0.1885693696       -0.6830741509
 C         -1.1089230741        1.4501034716        0.8132201107
 C         -1.1238430193       -0.8115533907        0.3497739296
 C          0.1888658669       -1.2830625662       -0.2850387460
 C          1.1664276065        2.3803076332        1.0827506549
 C          0.5595858580        2.1397693722       -1.0125084145
 C          2.1817583959        2.7749961945        0.2219136049
 C          3.5047994684        3.2299222496        0.6092639687
 H         -2.0695868908        1.9955979820       -1.0657650342
 H         -1.6694585746       -0.2640447270       -1.6864852466
 H         -1.4446897757        2.0886466251        1.6387595433
 H         -1.5786561140       -1.6829859924        0.8359305411
 H          0.8364233684       -1.6626950150        0.5109244068
 H          0.6914407240       -0.4757486010       -0.8229498397
 H         -4.1496374562        1.5943777105       -0.2640730620
 H         -3.7936577034       -0.7114484234        0.1013359234
 H         -0.0363293732        1.8990256968       -1.8673864949
 H          2.0198444521        2.6269875083        2.8438480001
 H          0.5622785705        1.7222087411        2.8968477038
 H          0.9275551257       -4.9141860002       -1.7891697676
 H         -2.4074154434       -3.8958099312       -1.7144830469
 H          3.9819414027        3.4527275189       -1.3452872041
 H          5.2624970458        3.8529030899       -0.2145918349
  37
        -73.91800519
 P          0.1031517043       -3.1293946943       -0.0859162275
 O         -1.9607670515        0.8500583306        1.3125536067
 O         -3.1248761384        1.3816109739       -1.5655742400
 O         -3.3432025014       -1.1280784347       -0.9188462561
 O         -0.5370142501       -2.5257763325        1.2655618140
 O         -1.0701077502       -3.7789801067       -0.8872505756
 O          0.9097655140       -4.3771073470        0.4320241965
 O          0.8583628445       -2.1196833217       -0.8471724644
 O          3.8351150300        1.7116081945       -0.9421911806
 N         -0.1985328978        2.0707565492        0.3292149882
 N          1.4166142526        3.3265757763        1.2121185787
 N          1.1131150310        0.8336078692       -1.3492363049
 N          4.1392805398        3.3253892759        0.6211900346
 C         -1.9211047987        0.8662068395       -1.0608666887
 C         -2.0983169064       -0.6050768919       -0.5688150936
 C         -1.5790532904        1.6469830321        0.2167322560
 C         -1.8988013685       -0.5238771650        0.9633851921
 C         -0.5759431392       -1.1276752356        1.4526810037
 C          0.9693291824        1.6956612179       -0.2932089615
 C          0.1550534959        3.0482236201        1.2304769368
 C          1.9606601189        2.4993040095        0.2576263334
 C          3.3753504654        2.4760102021       -0.0781763124
 H         -1.1183128048        0.9580090864       -1.7940628859
 H         -1.3568363823       -1.2647731275       -1.0210151845
 H         -2.1944127154        2.5541676998        0.2665822649
 H         -2.7242602148       -1.0282527051        1.4764686759
 H         -0.4819920065       -0.9488956689        2.5264566571
 H          0.2655862307       -0.6618075024        0.9330141989
 H         -3.2574595735        1.0703415144       -2.4733518766
 H         -4.0157235546       -0.4328815173       -0.7999813396
 H         -0.5679266770        3.5062435167        1.8729213690
 H          2.0980956659        0.8074840173       -1.6111095038
 H          0.7544556930       -0.1092912618       -1.2444950841
 H         -1.4965363698       -4.5408210489       -0.4743243678
 H          1.7696930095       -4.2028241385        0.8290379441
 H          3.6933366806        3.9271366528        1.2930550913
 H          5.1272603945        3.3781148533        0.4409978477
  37
        -73.91800242
 P          0.2893411102       -3.0652417697        0.3198508457
 O         -0.9468313672       -0.4092077512        0.2056083311
 O         -3.1194815191        2.2984686333       -0.0912495899
 O         -4.3632396359        0.0259740450       -0.6400436157
 O         -1.3112446118       -3.2207524328        0.2582159203
 O          0.7318251807       -4.5364776448        0.6298531519
 O          0.6222481248       -2.2959444014        1.6607798696
 O          0.8716969418       -2.5162902577       -0.9148308118
 O          4.2278656814        1.6537530962       -0.2735501621
 N          0.0240235000        1.7362103844        0.1819168358
 N          1.2022801335        3.6162819122        0.0481642929
 N          1.8159160764        0.0847202963        0.1350767462
 N          3.9635071385        3.9061178067       -0.2999810558
 C         -2.2784570567        1.3416651091       -0.6623251263
 C         -3.0008159233       -0.0177818797       -0.9139610762
 C         -1.1759852990        0.9677519001        0.3601904950
 C         -2.2185350280       -1.0021315399       -0.0104279416
 C         -2.0226489425       -2.3771601911       -0.6247198632
 C          1.3335017477        1.3568942835        0.0587855693
 C          0.0178816792        3.1127557135        0.1704358351
 C          2.0582659566        2.5419360063       -0.0231139318
 C          3.4951405903        2.6539690185       -0.2024618295
 H         -1.8102894495        1.7121773146       -1.5816916866
 H         -2.9066831478       -0.3200095451       -1.9594998655
 H         -1.5790163405        1.1780141871        1.3694646752
 H         -2.7345454497       -1.1066168780        0.9558265401
 H         -1.4579246598       -2.2796877991       -1.5563005215
 H         -2.9888444677       -2.8505153163       -0.8027068197
 H         -3.7623366700        2.6047021268       -0.7499111599
 H         -4.5141681270        0.5206168788        0.1838626759
 H         -0.8886484934        3.6739397389        0.2623597463
 H          2.8138294993        0.0839686759       -0.0610913923
 H          1.3114424380       -0.6333586279       -0.3726442436
 H          0.4051475178       -4.9079587164        1.4592539313
 H          0.9662015994       -1.4015127645        1.5343593864
 H          3.3118403639        4.6688499415       -0.2275442796
 H          4.9485900232        4.0658320556       -0.4230184228
  37
        -73.91798634
 P          0.9559160214       -1.9517346660       -0.6834127390
 O         -1.9451949165        0.4490005576        1.5166115787
 O         -3.4425450109        1.6726592741       -1.2193129347
 O         -4.5427623926       -0.4079954800        0.0294716511
 O         -0.4343787730       -1.2914257372       -0.3135037444
 O          0.6203880443       -3.4738581754       -1.0300388374
 O          1.6929335295       -2.0648029666        0.7025933754
 O          1.6242844837       -1.2284090849       -1.7719745176
 O          3.5990951128        0.9160021571        1.5084444119
 N         -0.3470835504        1.5106487576        0.1237258026
 N          1.4012700106        2.1998763559       -1.0658943832
 N          0.7787995978        0.5035109116        2.0208288095
 N          4.1236089776        1.9526575205       -0.4392558487
 C         -2.5169584656        0.7236643816       -0.7763108532
 C         -3.1769699485       -0.5658694009       -0.2133281705
 C         -1.7502685997        1.3110105391        0.4342662579
 C         -2.3558576860       -0.8375083404        1.0616601136
 C         -1.1723318714       -1.7748914067        0.8116991552
 C          0.7635950925        1.1588171384        0.8382374550
 C          0.1113760395        2.1346157717       -1.0134574493
 C          1.8516343555        1.5889637543        0.0820559518
 C          3.2438694639        1.4456161870        0.4404844712
 H         -1.7995575665        0.4561597525       -1.5625811083
 H         -3.0942290109       -1.3950359062       -0.9169698171
 H         -2.1825012521        2.2889664055        0.6985065832
 H         -2.9752245908       -1.2616586331        1.8562780450
 H         -1.5317546395       -2.7842921417        0.6001282954
 H         -0.5179033858       -1.7881087850        1.6840890830
 H         -4.0013880856        1.2888273169       -1.9120856441
 H         -4.6972040537        0.3833855576        0.5680491971
 H         -0.5538665960        2.5384606304       -1.7484904704
 H          1.6971345933        0.4774187161        2.4436107528
 H         -0.0367102633        0.5676366490        2.6087168361
 H          0.6428746543       -3.6761631744       -1.9708424053
 H          2.5177603136       -2.5605849717        0.6890816087
 H          3.7685529559        2.3076853602       -1.3103419860
 H          5.1100562016        1.8346823815       -0.2852438992
  37
        -73.91798516
 P          0.0248162743       -2.4032578197       -1.3537682923
 O         -1.5356482796        0.4529574811        1.5469662357
 O         -3.1408857795        1.3702891963       -1.1657992598
 O         -4.0434326317       -0.7668386362        0.0544449169
 O          0.1039079894       -1.5635489809       -0.0083330360
 O         -0.9381005168       -3.5999197185       -0.9991171121
 O          1.4434080744       -3.0880277065       -1.4823187330
 O         -0.3424596773       -1.5853407405       -2.5243587051
 O          3.4069225463        2.7345664585        2.3810164672
 N          0.0779012157        1.3924625445        0.1351773271
 N          2.1124834328        1.4535320649       -0.7515289191
 N          0.4896814372        2.3743092629        2.2998898748
 N          4.5101038674        2.2847929736        0.4508099476
 C         -2.1107435110        0.5116598273       -0.7606725341
 C         -2.6581560229       -0.7942732725       -0.1128105266
 C         -1.3384062910        1.2088051500        0.3745775685
 C         -1.8951682747       -0.8833489149        1.2231501752
 C         -0.6763401054       -1.8110541514        1.1546213334
 C          0.9078959990        1.9068741056        1.0988425634
 C          0.8744323440        1.1368756143       -0.9553131791
 C          2.1765836908        1.9396993297        0.5370529357
 C          3.3970233746        2.3568460648        1.1975533130
 H         -1.4516576370        0.2559282252       -1.5907639325
 H         -2.4426038288       -1.6608327587       -0.7411063625
 H         -1.7782879518        2.2014734305        0.5537313093
 H         -2.5510999780       -1.2283591899        2.0276516113
 H         -1.0077451859       -2.8489611881        1.1726165734
 H         -0.0203796210       -1.6095915189        2.0048740399
 H         -3.5523976427        1.0333658950       -1.9751424154
 H         -4.3231590898        0.1369248150        0.2791740586
 H          0.5124943771        0.7245500177       -1.8729247233
 H          1.2607815539        2.5802386123        2.9226239100
 H         -0.3216250027        1.9310448328        2.7036937274
 H         -1.0184196100       -4.2723288212       -1.6859385195
 H          2.0577374820       -2.6529085391       -2.0815525835
 H          4.4263510913        1.9792754738       -0.5035295504
 H          5.3953702725        2.5587503794        0.8407215558
  37
        -73.91798451
 P         -0.2665046464       -3.5513516148       -0.2112943150
 O         -0.6081418537       -0.6841538228       -0.3021825227
 O         -2.2809701243        1.8345028852        1.3881761081
 O         -4.0251553072        0.1577110495        0.2380936328
 O         -1.5647757617       -3.3406789213       -1.1134906657
 O          0.9197463392       -2.9412417596       -1.0754711935
 O         -0.1291153162       -5.1154880511       -0.3301538159
 O         -0.3182690305       -3.1219099146        1.1929869134
 O          2.9463498841        4.5556797016        1.2966644728
 N          0.6527399041        1.2203390297        0.0758192923
 N          2.4090524390        1.8906591266       -1.0974856897
 N          0.7189154155        2.7406511065        1.9455737720
 N          4.1324600157        4.0369100486       -0.5670412588
 C         -1.8304679676        1.2866409094        0.1839832142
 C         -2.7924741919        0.2098524826       -0.4032798042
 C         -0.5231374864        0.4954931166        0.4537706847
 C         -1.9648843168       -1.0891218784       -0.2846527398
 C         -2.1669198297       -2.0903733414       -1.4036482353
 C          1.1777764646        2.2862688215        0.7553806923
 C          1.4366808681        1.0392922843       -1.0368977737
 C          2.2792616470        2.6971973723        0.0132710303
 C          3.1377363021        3.8279469493        0.3086666848
 H         -1.6334875910        2.0745621784       -0.5553613157
 H         -3.0092459135        0.4249214142       -1.4521667589
 H         -0.4729334483        0.2645957518        1.5326060451
 H         -2.1816773913       -1.5812356859        0.6754967918
 H         -1.7256509844       -1.6939390015       -2.3227133778
 H         -3.2313613529       -2.2924009411       -1.5428486093
 H         -3.1380610952        2.2683435522        1.2466310937
 H         -3.9032398205       -0.0354889656        1.1815462888
 H          1.2429166511        0.2574126820       -1.7401576784
 H          1.1513410985        3.6123697819        2.2228535353
 H         -0.2624224557        2.6266113675        2.1512402561
 H          1.7188041337       -2.7826999875       -0.5644824237
 H         -0.1430563602       -5.4770934809       -1.2256624332
 H          4.2233503938        3.4076019829       -1.3461828668
 H          4.7671836603        4.8051053404       -0.4346220217
  37
        -73.91795199
 P          0.0269589139       -3.4443846148       -0.5265767606
 O         -1.1781318305       -0.7233331117        0.7797223978
 O         -2.8627951016        2.2814446330        0.4764867486
 O         -4.0438846812       -0.0698021280        0.1262722175
 O          0.1794816831       -2.0645426072       -1.3182666528
 O          0.5123336612       -3.0965846337        0.9430717711
 O          1.1882373008       -4.2965446590       -1.1549040367
 O         -1.2878506862       -4.0974026256       -0.6045309286
 O          2.6470166290        4.6042431424        0.2942370135
 N          0.3009675637        1.1022350507        0.6440514145
 N          2.5111712881        0.9881060839        0.4706388881
 N         -0.0430482768        3.4914129938        0.4315998887
 N          4.3413789132        3.0963229675        0.2241740395
 C         -2.0640346009        1.3061378582       -0.1162327963
 C         -2.8693305291        0.0808329208       -0.6193026343
 C         -1.0597504795        0.6724421628        0.8903691755
 C         -1.8703210501       -1.0623179051       -0.4161137309
 C         -0.9254536096       -1.2277055153       -1.6092970697
 C          0.7400980811        2.3938752242        0.5178213820
 C          1.4223803599        0.3065732320        0.6204934117
 C          2.1247863890        2.3101114863        0.4024277565
 C          3.0418772235        3.4256790786        0.2992580394
 H         -1.5109762240        1.7648178552       -0.9420031757
 H         -3.1771602389        0.1943767046       -1.6591325127
 H         -1.3285505642        0.9508562586        1.9220387632
 H         -2.3557571112       -2.0229766618       -0.2271133019
 H         -0.4806317278       -0.2724550864       -1.8996754252
 H         -1.4907898131       -1.6483006025       -2.4450355141
 H         -3.7559998432        1.9095232604        0.6067929510
 H         -3.8470877154       -0.4845418761        0.9800951114
 H          1.3603252051       -0.7561806130        0.7186905217
 H          0.4772713184        4.3568065811        0.4818777947
 H         -0.9817751824        3.4731092303        0.7969221839
 H          0.0763477704       -3.6006285681        1.6367127675
 H          2.0562925586       -3.8751099665       -1.1847032058
 H          4.5895175095        2.1223667510        0.2543406848
 H          5.0412803466        3.8158406056        0.1717066349
  37
        -73.91793188
 P          0.9837590379       -1.9894102029        0.2991201777
 O         -1.8486893433       -0.1691645049        1.3516452344
 O         -3.6378509830        1.9761742115       -0.1835567665
 O         -4.2075475949       -0.3431452142       -1.1792723680
 O         -0.3950061383       -1.8021640360       -0.4726239918
 O          1.0691260409       -3.5362229539        0.6660286623
 O          0.7619403813       -1.3227416895        1.7066651562
 O          2.0963310517       -1.4903395783       -0.5172090511
 O          3.0793366631        1.3413900532       -2.0748599732
 N         -0.1976465716        1.3501375294        0.6075195890
 N          1.8315922832        1.9930928986        1.2623790172
 N          0.2522773498        0.8409715148       -1.7474671046
 N          4.2165585469        1.9343976012       -0.2063032637
 C         -2.4720375629        1.2455176750       -0.4687959828
 C         -2.8674223304       -0.2151170956       -0.8241197612
 C         -1.6099747731        1.1036989252        0.8025973237
 C         -2.5026719694       -1.0364963136        0.4375793798
 C         -1.6155979235       -2.2424659603        0.1227349064
 C          0.6312431852        1.1964489192       -0.4756656160
 C          0.6014845754        1.8180182188        1.6219834439
 C          1.8829212637        1.6218727027       -0.0602994661
 C          3.0937835594        1.6143587354       -0.8650441762
 H         -1.8915836817        1.7000682648       -1.2712340824
 H         -2.2814566018       -0.5721493250       -1.6752632185
 H         -1.9405056540        1.8342499976        1.5542825800
 H         -3.4195101023       -1.3994638392        0.9183158816
 H         -2.1174464434       -2.8892551013       -0.5991557503
 H         -1.4009027002       -2.7908887447        1.0398881421
 H         -3.6197280580        2.8412934299       -0.6132104658
 H         -4.7073019003        0.3656304683       -0.7321950462
 H          0.2161155050        2.0103562193        2.6017667388
 H          1.0942437227        0.8073240548       -2.3224454302
 H         -0.2431002560       -0.0406987599       -1.7927297143
 H          1.5680527397       -4.0660538533        0.0357334216
 H          1.2693333081       -1.7099295825        2.4291886957
 H          4.1545307178        2.1269329314        0.7789605946
 H          5.1012933115        1.9110664069       -0.6836318101
  37
        -73.91793124
 P         -0.2064358609       -3.1109333448        1.0805167365
 O         -0.6198400983       -0.5073623429        0.0678102159
 O         -2.9955982239        2.0544776482        0.1638092938
 O         -3.9294163268       -0.0874323709       -1.0298685369
 O         -1.0641065085       -3.3571448652       -0.2395727362
 O          1.1820408686       -2.5817109420        0.5584847959
 O          0.1107596636       -4.6122644725        1.4586064660
 O         -0.8529445716       -2.3603639085        2.1743442330
 O          3.6145140940        2.4649217439       -2.0478739972
 N          0.3002198269        1.5991229738        0.4265580353
 N          1.8176610841        3.1003441482        1.0331205052
 N          1.0911488460        0.9888360943       -1.7741614119
 N          4.1159406261        3.9026674842       -0.3661254055
 C         -2.0047506827        1.3421757906       -0.5057574962
 C         -2.5460918422        0.0383061266       -1.1674313803
 C         -0.8961285355        0.8213028830        0.4640994746
 C         -1.8498322323       -1.0643207707       -0.3494304479
 C         -1.5603088729       -2.3474610436       -1.1007755089
 C          1.2029587460        1.6691315554       -0.6012470436
 C          0.7331065697        2.4872031843        1.3802098979
 C          2.1475586340        2.6085822405       -0.2114760461
 C          3.3384395349        2.9822652043       -0.9536260611
 H         -1.5511935051        2.0134365094       -1.2413204298
 H         -2.2288879360       -0.0198827749       -2.2125507576
 H         -1.2851355879        0.8412209766        1.4941571555
 H         -2.4671729956       -1.2968431982        0.5309335885
 H         -0.8180606783       -2.1584477917       -1.8822774727
 H         -2.4801236352       -2.7454207104       -1.5350913445
 H         -3.7475099134        1.4545718902        0.3303763373
 H         -4.3840565350        0.3781621768       -1.7482570185
 H          0.2049007268        2.6394948211        2.2984433559
 H          1.9425365773        1.0531808806       -2.3214996280
 H          0.6912438093        0.0647941204       -1.6909850300
 H          1.8329027077       -2.4229039891        1.2500522549
 H         -0.5531459107       -5.0390888203        2.0094947991
 H          3.8295698436        4.2734867460        0.5238880202
 H          4.9643201445        4.2047835681       -0.8134528684
