  37
        -73.92745089
 P          1.1339879044       -1.7607427624       -0.5473579447
 O         -1.9679437304        0.3060937068        1.5038102354
 O         -3.4017519459        1.6419337095       -1.3608649321
 O         -4.5312891545       -0.2604651054        0.0293096122
 O         -0.3656106251       -1.2470559767       -0.3750263068
 O          0.8866959427       -3.3115798251       -0.7972095316
 O          1.8011514895       -1.7262896936        0.8764687818
 O          1.8322746613       -1.0506567344       -1.6264515258
 O          3.4615578331        0.2101687537        1.0128349437
 N         -0.4503915511        1.6087706356        0.2432422593
 N          1.2743872655        2.2239162064       -1.0166124871
 N          0.6824067360        0.6913589113        2.1549513257
 N          3.9987686005        1.7164439191       -0.5902091648
 C         -2.5266424665        0.7376670092       -0.7746484207
 C         -3.2019368887       -0.5671477948       -0.2946520781
 C         -1.8406195476        1.2865592624        0.5135665497
 C         -2.3710349959       -0.9403062117        0.9445638685
 C         -1.1818186373       -1.8540782457        0.6281933807
 C          0.6680692847        1.1612592469        0.8891634506
 C         -0.0109829146        2.2389950211       -0.8989368455
 C          1.7448191766        1.5283854734        0.0775064089
 C          3.1124238054        1.1057487981        0.1982835419
 H         -1.7499091460        0.4972521570       -1.5075210306
 H         -3.1394069653       -1.3387653316       -1.0660867307
 H         -2.3505118803        2.1963610857        0.8624153203
 H         -2.9826540622       -1.4239563701        1.7114710071
 H         -1.5374467597       -2.8185881208        0.2591806647
 H         -0.5816473908       -2.0147782496        1.5268686941
 H         -4.2815533720        1.5177727989       -0.9591228283
 H         -5.0614250353       -1.0658782854        0.1034103016
 H         -0.6883502461        2.6971563038       -1.5899819907
 H          1.5471537242        0.2665738746        2.4504980632
 H         -0.1835302267        0.3268781610        2.5217595576
 H          1.6591224924       -3.7944749790       -1.1087340885
 H          2.5146464631       -1.0097420473        0.9728195232
 H          3.6397586021        2.3381765408       -1.2962980015
 H          4.9383264038        1.3591184102       -0.6458338299
