37
5_amino_4_imidazolecarboxamide_ribose_phosphate  charge=0 mult=1  seed=1_b3lyp_pcm
P     -4.63229100    -1.06335900     0.06237000
O     -0.43224000     0.20910000     0.36249800
O      1.56764500     3.03912800    -0.53494200
O     -0.95672700     3.64187900     0.12213600
O     -3.21230900    -0.41773600     0.37638900
O     -4.91507700    -1.88877000     1.38883300
O     -4.40920200    -2.21410500    -1.00780600
O     -5.66389700    -0.11660000    -0.38451500
O      6.03462500    -0.52055000     0.42901500
N      1.84833300    -0.10917700     0.10107700
N      2.84207900    -2.01540100    -0.45844500
N      3.70284000     1.23892500     0.85068200
N      5.61904400    -2.60089800    -0.39201100
C      0.66162600     1.97312900    -0.69348900
C     -0.82647800     2.39160500    -0.53855000
C      0.81196300     0.86876100     0.36882300
C     -1.45705100     1.20549200     0.22962900
C     -2.65434100     0.60934500    -0.46984000
C      3.18831600     0.08444100     0.32473100
C      1.69965400    -1.39716400    -0.38068000
C      3.79942400    -1.10928800    -0.02437700
C      5.22643400    -1.37549900     0.02667800
H      0.81755000     1.52739800    -1.67590000
H     -1.28248500     2.52989300    -1.51586700
H      1.02739000     1.31849900     1.34573700
H     -1.75617300     1.53821500     1.22971300
H     -2.35887900     0.17160800    -1.42360200
H     -3.40013500     1.38469600    -0.63969200
H      1.08240600     3.76977500    -0.12185200
H     -0.98427200     3.52446400     1.07850900
H      0.73364100    -1.79321400    -0.63533000
H      4.71413000     1.23542000     0.83842200
H      3.28421500     2.10200100     0.52684700
H     -5.09955000    -1.34995600     2.16840700
H     -3.71562600    -2.85172200    -0.79548400
H      4.94213600    -3.27054700    -0.71500100
H      6.59411800    -2.84398600    -0.37999100
