29
calc_ae555f8cd58c2f4a; angstrom; atom order from source job; valid
O -1.114166 0.292230 -1.248014
O -1.249663 -1.815497 1.666826
O -3.275681 -1.633347 -0.060714
O -1.915273 2.412825 0.562734
O 1.701294 -2.279063 -0.873146
O 4.741628 0.881128 0.315925
N 0.892988 -0.239011 -0.169184
N 3.177191 -0.663160 -0.260139
C -1.359479 -0.636052 0.910052
C -2.760185 -0.366803 0.348358
C -0.501263 -0.634570 -0.371862
C -2.482600 0.554463 -0.850350
C -2.671750 2.034882 -0.587705
C 1.904044 -1.147560 -0.467290
C 1.182302 1.035320 0.259477
C 2.438726 1.480918 0.444966
C 3.555231 0.605461 0.184693
H -1.067703 0.194964 1.548289
H -3.416568 0.096388 1.082730
H -0.468145 -1.631861 -0.804884
H -3.133026 0.274089 -1.680168
H -2.344250 2.594718 -1.467244
H -3.737470 2.227396 -0.434017
H -1.857517 -2.460165 1.279086
H -4.234937 -1.591796 -0.114187
H 0.318649 1.664445 0.423540
H -2.038839 3.352788 0.724619
H 3.922912 -1.314500 -0.464706
H 2.630365 2.486169 0.781281
