38
calc_aa1e3a3c4d6e08d2; angstrom; atom order from source job; valid
P 3.274200 -1.217782 -0.243890
O 0.208458 1.645409 -1.127264
O -1.683068 3.393842 1.281371
O 0.597718 4.358116 0.149233
O 2.505490 0.087169 -0.660768
O 4.767940 -0.725324 -0.117913
O 3.301529 -2.054320 -1.579607
O -4.226174 -3.036719 -0.165701
O 2.751689 -1.912099 0.943462
N -1.961077 0.915827 -0.642435
N -3.889206 -0.109881 -1.115637
N -0.787402 -0.863791 0.512368
N -2.112997 -2.803924 0.643502
N 0.035132 -2.760976 1.520894
C -0.716402 2.463583 0.870313
C 0.682691 3.065424 0.699908
C -1.021515 2.005789 -0.556696
C 1.295716 2.122033 -0.326963
C 2.020231 0.979153 0.351104
C -1.853025 -0.349860 -0.130309
C -3.205928 0.988646 -1.222585
C -3.052788 -0.966282 -0.430367
C -3.250405 -2.315989 -0.016428
C -0.952995 -2.114091 0.873285
H -0.676838 1.602004 1.537462
H 1.242814 3.076254 1.637882
H -1.473666 2.835905 -1.105746
H 1.980604 2.659234 -0.982603
H 1.349015 0.427704 1.007867
H 2.860789 1.378120 0.921301
H -1.753985 3.382855 2.236966
H -0.149586 4.798563 0.566800
H -3.537564 1.894457 -1.705182
H -2.182949 -3.762232 0.952292
H 0.970321 -2.375017 1.418893
H -0.017053 -3.759614 1.618778
H 5.324005 -1.296352 0.419474
H 2.497800 -2.554969 -1.746755
